TimeStep;Np;Nbound;Nfixed;Nmoving;Nfloat;Nfluid
0.0101755;2975;1031;1031;0;0;1944

Pos.x;Pos.y;Pos.z;Idp;Vel.x;Vel.y;Vel.z;Rhop;Mass;Press;Type;Acec.x;Acec.y;Acec.z;CellOffSpring;GradVel;Qfxx;Qfxy;Qfxz;Qfyy;Qfyz;Qfzz;StrainDot.x;StrainDot.y;StrainDot.z;VonMises3D;
 -2.2000000E-01;  9.9999998E-03; -3.8000000E-01;0;  0.0000000E+00;  0.0000000E+00;  0.0000000E+00;  1.0000000E+03;  4.0000001E-01;  0.0000000E+00;0;  0.0000000E+00;  0.0000000E+00;  0.0000000E+00;0;  0.0000000E+00;  1.0000000E+04;  0.0000000E+00;  0.0000000E+00;  1.0000000E+04;  0.0000000E+00;  1.0000000E+04;  0.0000000E+00;  0.0000000E+00;  0.0000000E+00;  0.0000000E+00;
 -2.2000000E-01;  9.9999998E-03; -3.6000001E-01;1;  0.0000000E+00;  0.0000000E+00;  0.0000000E+00;  1.0000000E+03;  4.0000001E-01;  0.0000000E+00;0;  0.0000000E+00;  0.0000000E+00;  0.0000000E+00;0;  0.0000000E+00;  1.0000000E+04;  0.0000000E+00;  0.0000000E+00;  1.0000000E+04;  0.0000000E+00;  1.0000000E+04;  0.0000000E+00;  0.0000000E+00;  0.0000000E+00;  0.0000000E+00;
 -2.0000000E-01;  9.9999998E-03; -4.0000001E-01;39;  0.0000000E+00;  0.0000000E+00;  0.0000000E+00;  1.0000000E+03;  4.0000001E-01;  0.0000000E+00;0;  0.0000000E+00;  0.0000000E+00;  0.0000000E+00;0;  0.0000000E+00;  1.0000000E+04;  0.0000000E+00;  0.0000000E+00;  1.0000000E+04;  0.0000000E+00;  1.0000000E+04;  0.0000000E+00;  0.0000000E+00;  0.0000000E+00;  0.0000000E+00;
 -2.0000000E-01;  9.9999998E-03; -3.8000000E-01;40;  0.0000000E+00;  0.0000000E+00;  0.0000000E+00;  1.0000000E+03;  4.0000001E-01;  0.0000000E+00;0;  0.0000000E+00;  0.0000000E+00;  0.0000000E+00;0;  0.0000000E+00;  1.0000000E+04;  0.0000000E+00;  0.0000000E+00;  1.0000000E+04;  0.0000000E+00;  1.0000000E+04;  0.0000000E+00;  0.0000000E+00;  0.0000000E+00;  0.0000000E+00;
 -2.0000000E-01;  9.9999998E-03; -3.6000001E-01;41;  0.0000000E+00;  0.0000000E+00;  0.0000000E+00;  1.0000000E+03;  4.0000001E-01;  0.0000000E+00;0;  0.0000000E+00;  0.0000000E+00;  0.0000000E+00;0;  0.0000000E+00;  1.0000000E+04;  0.0000000E+00;  0.0000000E+00;  1.0000000E+04;  0.0000000E+00;  1.0000000E+04;  0.0000000E+00;  0.0000000E+00;  0.0000000E+00;  0.0000000E+00;
 -1.8000001E-01;  9.9999998E-03; -4.0000001E-01;80;  0.0000000E+00;  0.0000000E+00;  0.0000000E+00;  1.0000000E+03;  4.0000001E-01;  0.0000000E+00;0;  0.0000000E+00;  0.0000000E+00;  0.0000000E+00;0;  0.0000000E+00;  1.0000000E+04;  0.0000000E+00;  0.0000000E+00;  1.0000000E+04;  0.0000000E+00;  1.0000000E+04;  0.0000000E+00;  0.0000000E+00;  0.0000000E+00;  0.0000000E+00;
 -1.8000001E-01;  9.9999998E-03; -3.8000000E-01;81;  0.0000000E+00;  0.0000000E+00;  0.0000000E+00;  1.0000000E+03;  4.0000001E-01;  0.0000000E+00;0;  0.0000000E+00;  0.0000000E+00;  0.0000000E+00;0;  0.0000000E+00;  1.0000000E+04;  0.0000000E+00;  0.0000000E+00;  1.0000000E+04;  0.0000000E+00;  1.0000000E+04;  0.0000000E+00;  0.0000000E+00;  0.0000000E+00;  0.0000000E+00;
 -1.8000001E-01;  9.9999998E-03; -3.6000001E-01;82;  0.0000000E+00;  0.0000000E+00;  0.0000000E+00;  1.0000000E+03;  4.0000001E-01;  0.0000000E+00;0;  0.0000000E+00;  0.0000000E+00;  0.0000000E+00;0;  0.0000000E+00;  1.0000000E+04;  0.0000000E+00;  0.0000000E+00;  1.0000000E+04;  0.0000000E+00;  1.0000000E+04;  0.0000000E+00;  0.0000000E+00;  0.0000000E+00;  0.0000000E+00;
 -1.6000000E-01;  9.9999998E-03; -4.0000001E-01;121;  0.0000000E+00;  0.0000000E+00;  0.0000000E+00;  1.0000000E+03;  4.0000001E-01;  0.0000000E+00;0;  0.0000000E+00;  0.0000000E+00;  0.0000000E+00;0;  0.0000000E+00;  1.0000000E+04;  0.0000000E+00;  0.0000000E+00;  1.0000000E+04;  0.0000000E+00;  1.0000000E+04;  0.0000000E+00;  0.0000000E+00;  0.0000000E+00;  0.0000000E+00;
 -1.6000000E-01;  9.9999998E-03; -3.8000000E-01;122;  0.0000000E+00;  0.0000000E+00;  0.0000000E+00;  1.0000000E+03;  4.0000001E-01;  0.0000000E+00;0;  0.0000000E+00;  0.0000000E+00;  0.0000000E+00;0;  0.0000000E+00;  1.0000000E+04;  0.0000000E+00;  0.0000000E+00;  1.0000000E+04;  0.0000000E+00;  1.0000000E+04;  0.0000000E+00;  0.0000000E+00;  0.0000000E+00;  0.0000000E+00;
 -1.6000000E-01;  9.9999998E-03; -3.6000001E-01;123;  0.0000000E+00;  0.0000000E+00;  0.0000000E+00;  1.0000000E+03;  4.0000001E-01;  0.0000000E+00;0;  0.0000000E+00;  0.0000000E+00;  0.0000000E+00;0;  0.0000000E+00;  1.0000000E+04;  0.0000000E+00;  0.0000000E+00;  1.0000000E+04;  0.0000000E+00;  1.0000000E+04;  0.0000000E+00;  0.0000000E+00;  0.0000000E+00;  0.0000000E+00;
 -1.4000000E-01;  9.9999998E-03; -4.0000001E-01;162;  0.0000000E+00;  0.0000000E+00;  0.0000000E+00;  1.0000000E+03;  4.0000001E-01;  0.0000000E+00;0;  0.0000000E+00;  0.0000000E+00;  0.0000000E+00;0;  0.0000000E+00;  1.0000000E+04;  0.0000000E+00;  0.0000000E+00;  1.0000000E+04;  0.0000000E+00;  1.0000000E+04;  0.0000000E+00;  0.0000000E+00;  0.0000000E+00;  0.0000000E+00;
 -1.4000000E-01;  9.9999998E-03; -3.8000000E-01;163;  0.0000000E+00;  0.0000000E+00;  0.0000000E+00;  1.0000000E+03;  4.0000001E-01;  0.0000000E+00;0;  0.0000000E+00;  0.0000000E+00;  0.0000000E+00;0;  0.0000000E+00;  1.0000000E+04;  0.0000000E+00;  0.0000000E+00;  1.0000000E+04;  0.0000000E+00;  1.0000000E+04;  0.0000000E+00;  0.0000000E+00;  0.0000000E+00;  0.0000000E+00;
 -1.4000000E-01;  9.9999998E-03; -3.6000001E-01;164;  0.0000000E+00;  0.0000000E+00;  0.0000000E+00;  1.0000000E+03;  4.0000001E-01;  0.0000000E+00;0;  0.0000000E+00;  0.0000000E+00;  0.0000000E+00;0; -3.0776685E-06;  1.0000000E+04;  0.0000000E+00;  0.0000000E+00;  1.0000000E+04;  0.0000000E+00;  1.0000000E+04; -2.4003446E-06;  0.0000000E+00; -6.7732384E-07;  1.3640029E-02;
 -1.2000000E-01;  9.9999998E-03; -4.0000001E-01;203;  0.0000000E+00;  0.0000000E+00;  0.0000000E+00;  1.0000000E+03;  4.0000001E-01;  0.0000000E+00;0;  0.0000000E+00;  0.0000000E+00;  0.0000000E+00;0; -5.5185145E-15;  1.0000000E+04;  0.0000000E+00;  0.0000000E+00;  1.0000000E+04;  0.0000000E+00;  1.0000000E+04; -3.8234123E-15;  0.0000000E+00; -1.6951021E-15;  8.6297983E-12;
 -1.2000000E-01;  9.9999998E-03; -3.8000000E-01;204;  0.0000000E+00;  0.0000000E+00;  0.0000000E+00;  1.0000000E+03;  4.0000001E-01;  0.0000000E+00;0;  0.0000000E+00;  0.0000000E+00;  0.0000000E+00;0; -1.6123064E-05;  1.0000000E+04;  0.0000000E+00;  0.0000000E+00;  1.0000000E+04;  0.0000000E+00;  1.0000000E+04; -1.1207596E-05;  0.0000000E+00; -4.9154683E-06;  1.0005720E-01;
 -1.2000000E-01;  9.9999998E-03; -3.6000001E-01;205;  0.0000000E+00;  0.0000000E+00;  0.0000000E+00;  1.0000000E+03;  4.0000001E-01;  0.0000000E+00;0;  0.0000000E+00;  0.0000000E+00;  0.0000000E+00;0; -1.0841014E-04;  1.0000000E+04;  0.0000000E+00;  0.0000000E+00;  1.0000000E+04;  0.0000000E+00;  1.0000000E+04; -8.0690224E-05;  0.0000000E+00; -2.7719914E-05;  5.6106329E-01;
 -1.0000000E-01;  9.9999998E-03; -4.0000001E-01;244;  0.0000000E+00;  0.0000000E+00;  0.0000000E+00;  1.0000000E+03;  4.0000001E-01;  0.0000000E+00;0;  0.0000000E+00;  0.0000000E+00;  0.0000000E+00;0; -2.9253217E-05;  1.0000000E+04;  0.0000000E+00;  0.0000000E+00;  1.0000000E+04;  0.0000000E+00;  1.0000000E+04; -1.8954455E-05;  0.0000000E+00; -1.0298761E-05;  2.1089162E-01;
 -1.0000000E-01;  9.9999998E-03; -3.8000000E-01;245;  0.0000000E+00;  0.0000000E+00;  0.0000000E+00;  1.0000004E+03;  4.0000001E-01;  3.9505050E-01;0;  0.0000000E+00;  0.0000000E+00;  0.0000000E+00;0; -2.1308080E-04;  1.0000000E+04;  0.0000000E+00;  0.0000000E+00;  1.0000000E+04;  0.0000000E+00;  1.0000000E+04; -1.4002346E-04;  0.0000000E+00; -7.3057337E-05;  1.4945302E+00;
 -1.0000000E-01;  9.9999998E-03; -3.6000001E-01;246;  0.0000000E+00;  0.0000000E+00;  0.0000000E+00;  1.0000015E+03;  4.0000001E-01;  1.1851515E+00;0;  0.0000000E+00;  0.0000000E+00;  0.0000000E+00;0; -6.6989521E-04;  1.0000000E+04;  0.0000000E+00;  0.0000000E+00;  1.0000000E+04;  0.0000000E+00;  1.0000000E+04; -4.7885993E-04;  0.0000000E+00; -1.9103529E-04;  3.8883786E+00;
 -7.9999998E-02;  9.9999998E-03; -4.0000001E-01;285;  0.0000000E+00;  0.0000000E+00;  0.0000000E+00;  1.0000005E+03;  4.0000001E-01;  3.9505050E-01;0;  0.0000000E+00;  0.0000000E+00;  0.0000000E+00;0; -2.4490184E-04;  1.0000000E+04;  0.0000000E+00;  0.0000000E+00;  1.0000000E+04;  0.0000000E+00;  1.0000000E+04; -1.4965271E-04;  0.0000000E+00; -9.5249132E-05;  1.9599116E+00;
 -7.9999998E-02;  9.9999998E-03; -3.8000000E-01;286;  0.0000000E+00;  0.0000000E+00;  0.0000000E+00;  1.0000021E+03;  4.0000001E-01;  1.6789646E+00;0;  0.0000000E+00;  0.0000000E+00;  0.0000000E+00;0; -9.2970370E-04;  1.0000000E+04;  0.0000000E+00;  0.0000000E+00;  1.0000000E+04;  0.0000000E+00;  1.0000000E+04; -5.8333599E-04;  0.0000000E+00; -3.4636774E-04;  7.1222415E+00;
 -7.9999998E-02;  9.9999998E-03; -3.6000001E-01;287;  0.0000000E+00;  0.0000000E+00;  0.0000000E+00;  1.0000050E+03;  4.0000001E-01;  4.1480303E+00;0;  0.0000000E+00;  0.0000000E+00;  0.0000000E+00;0; -2.2299523E-03;  1.0000000E+04;  0.0000000E+00;  0.0000000E+00;  1.0000000E+04;  0.0000000E+00;  1.0000000E+04; -1.5388613E-03;  0.0000000E+00; -6.9109106E-04;  1.4134398E+01;
 -5.9999999E-02;  9.9999998E-03; -4.0000001E-01;326;  0.0000000E+00;  0.0000000E+00;  0.0000000E+00;  1.0000019E+03;  4.0000001E-01;  1.5802020E+00;0;  0.0000000E+00;  0.0000000E+00;  0.0000000E+00;0; -8.6596143E-04;  1.0000000E+04;  0.0000000E+00;  0.0000000E+00;  1.0000000E+04;  0.0000000E+00;  1.0000000E+04; -5.0193537E-04;  0.0000000E+00; -3.6402608E-04;  7.5313897E+00;
 -5.9999999E-02;  9.9999998E-03; -3.8000000E-01;327;  0.0000000E+00;  0.0000000E+00;  0.0000000E+00;  1.0000057E+03;  4.0000001E-01;  4.7406058E+00;0;  0.0000000E+00;  0.0000000E+00;  0.0000000E+00;0; -2.5265897E-03;  1.0000000E+04;  0.0000000E+00;  0.0000000E+00;  1.0000000E+04;  0.0000000E+00;  1.0000000E+04; -1.5158955E-03;  0.0000000E+00; -1.0106943E-03;  2.0901722E+01;
 -5.9999999E-02;  9.9999998E-03; -3.6000001E-01;328;  0.0000000E+00;  0.0000000E+00;  0.0000000E+00;  1.0000121E+03;  4.0000001E-01;  1.0073788E+01;0;  0.0000000E+00;  0.0000000E+00;  0.0000000E+00;0; -5.2975807E-03;  1.0000000E+04;  0.0000000E+00;  0.0000000E+00;  1.0000000E+04;  0.0000000E+00;  1.0000000E+04; -3.5301039E-03;  0.0000000E+00; -1.7674769E-03;  3.6370323E+01;
 -3.9999999E-02;  9.9999998E-03; -4.0000001E-01;367;  0.0000000E+00;  0.0000000E+00;  0.0000000E+00;  1.0000046E+03;  4.0000001E-01;  3.7529798E+00;0;  0.0000000E+00;  0.0000000E+00;  0.0000000E+00;0; -2.0256154E-03;  1.0000000E+04;  0.0000000E+00;  0.0000000E+00;  1.0000000E+04;  0.0000000E+00;  1.0000000E+04; -1.1103393E-03;  0.0000000E+00; -9.1527624E-04;  1.9061359E+01;
 -3.9999999E-02;  9.9999998E-03; -3.8000000E-01;368;  0.0000000E+00;  0.0000000E+00;  0.0000000E+00;  1.0000118E+03;  4.0000001E-01;  9.7775002E+00;0;  0.0000000E+00;  0.0000000E+00;  0.0000000E+00;0; -5.1686484E-03;  1.0000000E+04;  0.0000000E+00;  0.0000000E+00;  1.0000000E+04;  0.0000000E+00;  1.0000000E+04; -2.9556653E-03;  0.0000000E+00; -2.2129833E-03;  4.6082882E+01;
 -3.9999999E-02;  9.9999998E-03; -3.6000001E-01;369;  0.0000000E+00;  0.0000000E+00;  0.0000000E+00;  1.0000232E+03;  4.0000001E-01;  1.9258711E+01;0;  0.0000000E+00;  0.0000000E+00;  0.0000000E+00;0; -1.0039182E-02;  1.0000000E+04;  0.0000000E+00;  0.0000000E+00;  1.0000000E+04;  0.0000000E+00;  1.0000000E+04; -6.4384728E-03;  0.0000000E+00; -3.6007091E-03;  7.4636917E+01;
 -2.0000000E-02;  9.9999998E-03; -4.0000001E-01;408;  0.0000000E+00;  0.0000000E+00;  0.0000000E+00;  1.0000084E+03;  4.0000001E-01;  6.9133835E+00;0;  0.0000000E+00;  0.0000000E+00;  0.0000000E+00;0; -3.6654859E-03;  1.0000000E+04;  0.0000000E+00;  0.0000000E+00;  1.0000000E+04;  0.0000000E+00;  1.0000000E+04; -1.8909228E-03;  0.0000000E+00; -1.7745631E-03;  3.7261551E+01;
 -2.0000000E-02;  9.9999998E-03; -3.8000000E-01;409;  0.0000000E+00;  0.0000000E+00;  0.0000000E+00;  1.0000203E+03;  4.0000001E-01;  1.6789646E+01;0;  0.0000000E+00;  0.0000000E+00;  0.0000000E+00;0; -8.6830724E-03;  1.0000000E+04;  0.0000000E+00;  0.0000000E+00;  1.0000000E+04;  0.0000000E+00;  1.0000000E+04; -4.7148997E-03;  0.0000000E+00; -3.9681732E-03;  8.3340492E+01;
 -2.0000000E-02;  9.9999998E-03; -3.6000001E-01;410;  0.0000000E+00;  0.0000000E+00;  0.0000000E+00;  1.0000373E+03;  4.0000001E-01;  3.0912701E+01;0;  0.0000000E+00;  0.0000000E+00;  0.0000000E+00;0; -1.6104061E-02;  1.0000000E+04;  0.0000000E+00;  0.0000000E+00;  1.0000000E+04;  0.0000000E+00;  1.0000000E+04; -9.9080736E-03;  0.0000000E+00; -6.1959880E-03;  1.2957637E+02;
  0.0000000E+00;  9.9999998E-03; -4.0000001E-01;449;  0.0000000E+00;  0.0000000E+00;  0.0000000E+00;  1.0000128E+03;  4.0000001E-01;  1.0666364E+01;0;  0.0000000E+00;  0.0000000E+00;  0.0000000E+00;0; -5.5386256E-03;  1.0000000E+04;  0.0000000E+00;  0.0000000E+00;  1.0000000E+04;  0.0000000E+00;  1.0000000E+04; -2.6822025E-03;  0.0000000E+00; -2.8564234E-03;  6.0606899E+01;
  0.0000000E+00;  9.9999998E-03; -3.8000000E-01;450;  0.0000000E+00;  0.0000000E+00;  0.0000000E+00;  1.0000293E+03;  4.0000001E-01;  2.4295605E+01;0;  0.0000000E+00;  0.0000000E+00;  0.0000000E+00;0; -1.2583340E-02;  1.0000000E+04;  0.0000000E+00;  0.0000000E+00;  1.0000000E+04;  0.0000000E+00;  1.0000000E+04; -6.4820331E-03;  0.0000000E+00; -6.1013065E-03;  1.2951912E+02;
  0.0000000E+00;  9.9999998E-03; -3.6000001E-01;451;  0.0000000E+00;  0.0000000E+00;  0.0000000E+00;  1.0000530E+03;  4.0000001E-01;  4.3949368E+01;0;  0.0000000E+00;  0.0000000E+00;  0.0000000E+00;0; -2.2673864E-02;  1.0000000E+04;  0.0000000E+00;  0.0000000E+00;  1.0000000E+04;  0.0000000E+00;  1.0000000E+04; -1.3374723E-02;  0.0000000E+00; -9.2991423E-03;  1.9661052E+02;
  2.0000000E-02;  9.9999998E-03; -4.0000001E-01;461;  0.0000000E+00;  0.0000000E+00;  0.0000000E+00;  1.0000172E+03;  4.0000001E-01;  1.4221818E+01;0;  0.0000000E+00;  0.0000000E+00;  0.0000000E+00;0; -7.3265303E-03;  1.0000000E+04;  0.0000000E+00;  0.0000000E+00;  1.0000000E+04;  0.0000000E+00;  1.0000000E+04; -3.3432727E-03;  0.0000000E+00; -3.9832578E-03;  8.5653587E+01;
  2.0000000E-02;  9.9999998E-03; -3.8000000E-01;462;  0.0000000E+00;  0.0000000E+00;  0.0000000E+00;  1.0000385E+03;  4.0000001E-01;  3.1900328E+01;0;  0.0000000E+00;  0.0000000E+00;  0.0000000E+00;0; -1.6276687E-02;  1.0000000E+04;  0.0000000E+00;  0.0000000E+00;  1.0000000E+04;  0.0000000E+00;  1.0000000E+04; -7.9965703E-03;  0.0000000E+00; -8.2801180E-03;  1.7817342E+02;
  2.0000000E-02;  9.9999998E-03; -3.6000001E-01;463;  0.0000000E+00;  0.0000000E+00;  0.0000000E+00;  1.0000682E+03;  4.0000001E-01;  5.6492222E+01;0;  0.0000000E+00;  0.0000000E+00;  0.0000000E+00;0; -2.8797913E-02;  1.0000000E+04;  0.0000000E+00;  0.0000000E+00;  1.0000000E+04;  0.0000000E+00;  1.0000000E+04; -1.6372072E-02;  0.0000000E+00; -1.2425841E-02;  2.6634766E+02;
  3.9999999E-02;  9.9999998E-03; -4.0000001E-01;471;  0.0000000E+00;  0.0000000E+00;  0.0000000E+00;  1.0000210E+03;  4.0000001E-01;  1.7382221E+01;0;  0.0000000E+00;  0.0000000E+00;  0.0000000E+00;0; -8.8038715E-03;  1.0000000E+04;  0.0000000E+00;  0.0000000E+00;  1.0000000E+04;  0.0000000E+00;  1.0000000E+04; -3.8403117E-03;  0.0000000E+00; -4.9635596E-03;  1.0857347E+02;
  3.9999999E-02;  9.9999998E-03; -3.8000000E-01;472;  0.0000000E+00;  0.0000000E+00;  0.0000000E+00;  1.0000464E+03;  4.0000001E-01;  3.8418659E+01;0;  0.0000000E+00;  0.0000000E+00;  0.0000000E+00;0; -1.9358149E-02;  1.0000000E+04;  0.0000000E+00;  0.0000000E+00;  1.0000000E+04;  0.0000000E+00;  1.0000000E+04; -9.2053777E-03;  0.0000000E+00; -1.0152771E-02;  2.2227261E+02;
  3.9999999E-02;  9.9999998E-03; -3.6000001E-01;473;  0.0000000E+00;  0.0000000E+00;  0.0000000E+00;  1.0000815E+03;  4.0000001E-01;  6.7553635E+01;0;  0.0000000E+00;  0.0000000E+00;  0.0000000E+00;0; -3.3880986E-02;  1.0000000E+04;  0.0000000E+00;  0.0000000E+00;  1.0000000E+04;  0.0000000E+00;  1.0000000E+04; -1.8822273E-02;  0.0000000E+00; -1.5058714E-02;  3.2844876E+02;
  5.9999999E-02;  9.9999998E-03; -4.0000001E-01;481;  0.0000000E+00;  0.0000000E+00;  0.0000000E+00;  1.0000244E+03;  4.0000001E-01;  2.0147575E+01;0;  0.0000000E+00;  0.0000000E+00;  0.0000000E+00;0; -9.9538453E-03;  1.0000000E+04;  0.0000000E+00;  0.0000000E+00;  1.0000000E+04;  0.0000000E+00;  1.0000000E+04; -4.2709443E-03;  0.0000000E+00; -5.6829010E-03;  1.2699709E+02;
  5.9999999E-02;  9.9999998E-03; -3.8000000E-01;482;  0.0000000E+00;  0.0000000E+00;  0.0000000E+00;  1.0000533E+03;  4.0000001E-01;  4.4146893E+01;0;  0.0000000E+00;  0.0000000E+00;  0.0000000E+00;0; -2.1813115E-02;  1.0000000E+04;  0.0000000E+00;  0.0000000E+00;  1.0000000E+04;  0.0000000E+00;  1.0000000E+04; -1.0304018E-02;  0.0000000E+00; -1.1509097E-02;  2.5749844E+02;
  5.9999999E-02;  9.9999998E-03; -3.6000001E-01;483;  0.0000000E+00;  0.0000000E+00;  0.0000000E+00;  1.0000932E+03;  4.0000001E-01;  7.7232368E+01;0;  0.0000000E+00;  0.0000000E+00;  0.0000000E+00;0; -3.7984684E-02;  1.0000000E+04;  0.0000000E+00;  0.0000000E+00;  1.0000000E+04;  0.0000000E+00;  1.0000000E+04; -2.1083927E-02;  0.0000000E+00; -1.6900757E-02;  3.7682565E+02;
  7.9999998E-02;  9.9999998E-03; -4.0000001E-01;491;  0.0000000E+00;  0.0000000E+00;  0.0000000E+00;  1.0000274E+03;  4.0000001E-01;  2.2715403E+01;0;  0.0000000E+00;  0.0000000E+00;  0.0000000E+00;0; -1.0981947E-02;  1.0000000E+04;  0.0000000E+00;  0.0000000E+00;  1.0000000E+04;  0.0000000E+00;  1.0000000E+04; -4.8388364E-03;  0.0000000E+00; -6.1431103E-03;  1.4101459E+02;
  7.9999998E-02;  9.9999998E-03; -3.8000000E-01;492;  0.0000000E+00;  0.0000000E+00;  0.0000000E+00;  1.0000605E+03;  4.0000001E-01;  5.0072651E+01;0;  0.0000000E+00;  0.0000000E+00;  0.0000000E+00;0; -2.4068180E-02;  1.0000000E+04;  0.0000000E+00;  0.0000000E+00;  1.0000000E+04;  0.0000000E+00;  1.0000000E+04; -1.1718608E-02;  0.0000000E+00; -1.2349571E-02;  2.8381094E+02;
  7.9999998E-02;  9.9999998E-03; -3.6000001E-01;493;  0.0000000E+00;  0.0000000E+00;  0.0000000E+00;  1.0001056E+03;  4.0000001E-01;  8.7503685E+01;0;  0.0000000E+00;  0.0000000E+00;  0.0000000E+00;0; -4.1909136E-02;  1.0000000E+04;  0.0000000E+00;  0.0000000E+00;  1.0000000E+04;  0.0000000E+00;  1.0000000E+04; -2.3930950E-02;  0.0000000E+00; -1.7978186E-02;  4.1282675E+02;
  1.0000000E-01;  9.9999998E-03; -4.0000001E-01;501;  0.0000000E+00;  0.0000000E+00;  0.0000000E+00;  1.0000317E+03;  4.0000001E-01;  2.6270859E+01;0;  0.0000000E+00;  0.0000000E+00;  0.0000000E+00;0; -1.2271366E-02;  1.0000000E+04;  0.0000000E+00;  0.0000000E+00;  1.0000000E+04;  0.0000000E+00;  1.0000000E+04; -5.8295084E-03;  0.0000000E+00; -6.4418577E-03;  1.6201857E+02;
  1.0000000E-01;  9.9999998E-03; -3.8000000E-01;502;  0.0000000E+00;  0.0000000E+00;  0.0000000E+00;  1.0000694E+03;  4.0000001E-01;  5.7479847E+01;0;  0.0000000E+00;  0.0000000E+00;  0.0000000E+00;0; -2.6911467E-02;  1.0000000E+04;  0.0000000E+00;  0.0000000E+00;  1.0000000E+04;  0.0000000E+00;  1.0000000E+04; -1.4049213E-02;  0.0000000E+00; -1.2862253E-02;  3.0530075E+02;
  1.0000000E-01;  9.9999998E-03; -3.6000001E-01;503;  0.0000000E+00;  0.0000000E+00;  0.0000000E+00;  1.0001217E+03;  4.0000001E-01;  1.0083664E+02;0;  0.0000000E+00;  0.0000000E+00;  0.0000000E+00;0; -4.7027834E-02;  1.0000000E+04;  0.0000000E+00;  0.0000000E+00;  1.0000000E+04;  0.0000000E+00;  1.0000000E+04; -2.8428046E-02;  0.0000000E+00; -1.8599790E-02;  4.5008740E+02;
  1.2000000E-01;  9.9999998E-03; -4.0000001E-01;511;  0.0000000E+00;  0.0000000E+00;  0.0000000E+00;  1.0000381E+03;  4.0000001E-01;  3.1604040E+01;0;  0.0000000E+00;  0.0000000E+00;  0.0000000E+00;0; -1.4353890E-02;  1.0000000E+04;  0.0000000E+00;  0.0000000E+00;  1.0000000E+04;  0.0000000E+00;  1.0000000E+04; -7.6026330E-03;  0.0000000E+00; -6.7512570E-03;  3.0444443E+02;
  1.2000000E-01;  9.9999998E-03; -3.8000000E-01;512;  0.0000000E+00;  0.0000000E+00;  0.0000000E+00;  1.0000836E+03;  4.0000001E-01;  6.9232597E+01;0;  0.0000000E+00;  0.0000000E+00;  0.0000000E+00;0; -3.1419668E-02;  1.0000000E+04;  0.0000000E+00;  0.0000000E+00;  1.0000000E+04;  0.0000000E+00;  1.0000000E+04; -1.8006932E-02;  0.0000000E+00; -1.3412735E-02;  3.6792059E+02;
  1.2000000E-01;  9.9999998E-03; -3.6000001E-01;513;  0.0000000E+00;  0.0000000E+00;  0.0000000E+00;  1.0001468E+03;  4.0000001E-01;  1.2157679E+02;0;  0.0000000E+00;  0.0000000E+00;  0.0000000E+00;0; -5.5115215E-02;  1.0000000E+04;  0.0000000E+00;  0.0000000E+00;  1.0000000E+04;  0.0000000E+00;  1.0000000E+04; -3.5778005E-02;  0.0000000E+00; -1.9337211E-02;  5.2532629E+02;
  1.4000000E-01;  9.9999998E-03; -4.0000001E-01;521;  0.0000000E+00;  0.0000000E+00;  0.0000000E+00;  1.0000490E+03;  4.0000001E-01;  4.0591438E+01;0;  0.0000000E+00;  0.0000000E+00;  0.0000000E+00;0; -1.8032156E-02;  1.0000000E+04;  0.0000000E+00;  0.0000000E+00;  1.0000000E+04;  0.0000000E+00;  1.0000000E+04; -1.0622844E-02;  0.0000000E+00; -7.4093128E-03;  8.8681073E+02;
  1.4000000E-01;  9.9999998E-03; -3.8000000E-01;522;  0.0000000E+00;  0.0000000E+00;  0.0000000E+00;  1.0001068E+03;  4.0000001E-01;  8.8491310E+01;0;  0.0000000E+00;  0.0000000E+00;  0.0000000E+00;0; -3.9039195E-02;  1.0000000E+04;  0.0000000E+00;  0.0000000E+00;  1.0000000E+04;  0.0000000E+00;  1.0000000E+04; -2.4404369E-02;  0.0000000E+00; -1.4634824E-02;  7.6162146E+02;
  1.4000000E-01;  9.9999998E-03; -3.6000001E-01;523;  0.0000000E+00;  0.0000000E+00;  0.0000000E+00;  1.0001874E+03;  4.0000001E-01;  1.5525485E+02;0;  0.0000000E+00;  0.0000000E+00;  0.0000000E+00;0; -6.8305597E-02;  1.0000000E+04;  0.0000000E+00;  0.0000000E+00;  1.0000000E+04;  0.0000000E+00;  1.0000000E+04; -4.7226924E-02;  0.0000000E+00; -2.1078669E-02;  6.9111469E+02;
  1.6000000E-01;  9.9999998E-03; -4.0000001E-01;531;  0.0000000E+00;  0.0000000E+00;  0.0000000E+00;  1.0000686E+03;  4.0000001E-01;  5.6788509E+01;0;  0.0000000E+00;  0.0000000E+00;  0.0000000E+00;0; -2.4508823E-02;  1.0000000E+04;  0.0000000E+00;  0.0000000E+00;  1.0000000E+04;  0.0000000E+00;  1.0000000E+04; -1.5368141E-02;  0.0000000E+00; -9.1406815E-03;  2.4517368E+03;
  1.6000000E-01;  9.9999998E-03; -3.8000000E-01;532;  0.0000000E+00;  0.0000000E+00;  0.0000000E+00;  1.0001444E+03;  4.0000001E-01;  1.1960154E+02;0;  0.0000000E+00;  0.0000000E+00;  0.0000000E+00;0; -5.1351264E-02;  1.0000000E+04;  0.0000000E+00;  0.0000000E+00;  1.0000000E+04;  0.0000000E+00;  1.0000000E+04; -3.3739496E-02;  0.0000000E+00; -1.7611766E-02;  2.0196793E+03;
  1.6000000E-01;  9.9999998E-03; -3.6000001E-01;533;  0.0000000E+00;  0.0000000E+00;  0.0000000E+00;  1.0002491E+03;  4.0000001E-01;  2.0641388E+02;0;  0.0000000E+00;  0.0000000E+00;  0.0000000E+00;0; -8.8421933E-02;  1.0000000E+04;  0.0000000E+00;  0.0000000E+00;  1.0000000E+04;  0.0000000E+00;  1.0000000E+04; -6.3260362E-02;  0.0000000E+00; -2.5161574E-02;  9.3789203E+02;
  1.8000001E-01;  9.9999998E-03; -4.0000001E-01;541;  0.0000000E+00;  0.0000000E+00;  0.0000000E+00;  1.0001013E+03;  4.0000001E-01;  8.3948227E+01;0;  0.0000000E+00;  0.0000000E+00;  0.0000000E+00;0; -3.5267383E-02;  1.0000000E+04;  0.0000000E+00;  0.0000000E+00;  1.0000000E+04;  0.0000000E+00;  1.0000000E+04; -2.1810628E-02;  0.0000000E+00; -1.3456756E-02;  5.8273979E+03;
  1.8000001E-01;  9.9999998E-03; -3.8000000E-01;542;  0.0000000E+00;  0.0000000E+00;  0.0000000E+00;  1.0001996E+03;  4.0000001E-01;  1.6532863E+02;0;  0.0000000E+00;  0.0000000E+00;  0.0000000E+00;0; -6.9086671E-02;  1.0000000E+04;  0.0000000E+00;  0.0000000E+00;  1.0000000E+04;  0.0000000E+00;  1.0000000E+04; -4.4932749E-02;  0.0000000E+00; -2.4153925E-02;  4.6750732E+03;
  1.8000001E-01;  9.9999998E-03; -3.6000001E-01;543;  0.0000000E+00;  0.0000000E+00;  0.0000000E+00;  1.0003331E+03;  4.0000001E-01;  2.7594278E+02;0;  0.0000000E+00;  0.0000000E+00;  0.0000000E+00;0; -1.1518028E-01;  1.0000000E+04;  0.0000000E+00;  0.0000000E+00;  1.0000000E+04;  0.0000000E+00;  1.0000000E+04; -8.1605688E-02;  0.0000000E+00; -3.3574600E-02;  1.1163252E+03;
  2.0000000E-01;  9.9999998E-03; -3.8000000E-01;551;  0.0000000E+00;  0.0000000E+00;  0.0000000E+00;  1.0002737E+03;  4.0000001E-01;  2.2675899E+02;0;  0.0000000E+00;  0.0000000E+00;  0.0000000E+00;0; -9.2276350E-02;  1.0000000E+04;  0.0000000E+00;  0.0000000E+00;  1.0000000E+04;  0.0000000E+00;  1.0000000E+04; -5.5287212E-02;  0.0000000E+00; -3.6989141E-02;  8.7468252E+03;
  2.0000000E-01;  9.9999998E-03; -3.6000001E-01;552;  0.0000000E+00;  0.0000000E+00;  0.0000000E+00;  1.0004353E+03;  4.0000001E-01;  3.6068109E+02;0;  0.0000000E+00;  0.0000000E+00;  0.0000000E+00;0; -1.4668350E-01;  1.0000000E+04;  0.0000000E+00;  0.0000000E+00;  1.0000000E+04;  0.0000000E+00;  1.0000000E+04; -9.7668849E-02;  0.0000000E+00; -4.9014647E-02;  1.3542213E+03;
 -2.2000000E-01;  9.9999998E-03; -3.4000000E-01;2;  0.0000000E+00;  0.0000000E+00;  0.0000000E+00;  1.0000000E+03;  4.0000001E-01;  0.0000000E+00;0;  0.0000000E+00;  0.0000000E+00;  0.0000000E+00;0;  0.0000000E+00;  1.0000000E+04;  0.0000000E+00;  0.0000000E+00;  1.0000000E+04;  0.0000000E+00;  1.0000000E+04;  0.0000000E+00;  0.0000000E+00;  0.0000000E+00;  0.0000000E+00;
 -2.2000000E-01;  9.9999998E-03; -3.1999999E-01;3;  0.0000000E+00;  0.0000000E+00;  0.0000000E+00;  1.0000000E+03;  4.0000001E-01;  0.0000000E+00;0;  0.0000000E+00;  0.0000000E+00;  0.0000000E+00;0;  0.0000000E+00;  1.0000000E+04;  0.0000000E+00;  0.0000000E+00;  1.0000000E+04;  0.0000000E+00;  1.0000000E+04;  0.0000000E+00;  0.0000000E+00;  0.0000000E+00;  0.0000000E+00;
 -2.2000000E-01;  9.9999998E-03; -3.0000001E-01;4;  0.0000000E+00;  0.0000000E+00;  0.0000000E+00;  1.0000000E+03;  4.0000001E-01;  0.0000000E+00;0;  0.0000000E+00;  0.0000000E+00;  0.0000000E+00;0;  0.0000000E+00;  1.0000000E+04;  0.0000000E+00;  0.0000000E+00;  1.0000000E+04;  0.0000000E+00;  1.0000000E+04;  0.0000000E+00;  0.0000000E+00;  0.0000000E+00;  0.0000000E+00;
 -2.2000000E-01;  9.9999998E-03; -2.8000000E-01;5;  0.0000000E+00;  0.0000000E+00;  0.0000000E+00;  1.0000000E+03;  4.0000001E-01;  0.0000000E+00;0;  0.0000000E+00;  0.0000000E+00;  0.0000000E+00;0;  0.0000000E+00;  1.0000000E+04;  0.0000000E+00;  0.0000000E+00;  1.0000000E+04;  0.0000000E+00;  1.0000000E+04;  0.0000000E+00;  0.0000000E+00;  0.0000000E+00;  0.0000000E+00;
 -2.2000000E-01;  9.9999998E-03; -2.5999999E-01;6;  0.0000000E+00;  0.0000000E+00;  0.0000000E+00;  1.0000000E+03;  4.0000001E-01;  0.0000000E+00;0;  0.0000000E+00;  0.0000000E+00;  0.0000000E+00;0;  0.0000000E+00;  1.0000000E+04;  0.0000000E+00;  0.0000000E+00;  1.0000000E+04;  0.0000000E+00;  1.0000000E+04;  0.0000000E+00;  0.0000000E+00;  0.0000000E+00;  0.0000000E+00;
 -2.2000000E-01;  9.9999998E-03; -2.3999999E-01;7;  0.0000000E+00;  0.0000000E+00;  0.0000000E+00;  1.0000000E+03;  4.0000001E-01;  0.0000000E+00;0;  0.0000000E+00;  0.0000000E+00;  0.0000000E+00;0;  0.0000000E+00;  1.0000000E+04;  0.0000000E+00;  0.0000000E+00;  1.0000000E+04;  0.0000000E+00;  1.0000000E+04;  0.0000000E+00;  0.0000000E+00;  0.0000000E+00;  0.0000000E+00;
 -2.2000000E-01;  9.9999998E-03; -2.2000000E-01;8;  0.0000000E+00;  0.0000000E+00;  0.0000000E+00;  1.0000000E+03;  4.0000001E-01;  0.0000000E+00;0;  0.0000000E+00;  0.0000000E+00;  0.0000000E+00;0;  0.0000000E+00;  1.0000000E+04;  0.0000000E+00;  0.0000000E+00;  1.0000000E+04;  0.0000000E+00;  1.0000000E+04;  0.0000000E+00;  0.0000000E+00;  0.0000000E+00;  0.0000000E+00;
 -2.2000000E-01;  9.9999998E-03; -2.0000000E-01;9;  0.0000000E+00;  0.0000000E+00;  0.0000000E+00;  1.0000000E+03;  4.0000001E-01;  0.0000000E+00;0;  0.0000000E+00;  0.0000000E+00;  0.0000000E+00;0;  0.0000000E+00;  1.0000000E+04;  0.0000000E+00;  0.0000000E+00;  1.0000000E+04;  0.0000000E+00;  1.0000000E+04;  0.0000000E+00;  0.0000000E+00;  0.0000000E+00;  0.0000000E+00;
 -2.0000000E-01;  9.9999998E-03; -3.4000000E-01;42;  0.0000000E+00;  0.0000000E+00;  0.0000000E+00;  1.0000000E+03;  4.0000001E-01;  0.0000000E+00;0;  0.0000000E+00;  0.0000000E+00;  0.0000000E+00;0;  0.0000000E+00;  1.0000000E+04;  0.0000000E+00;  0.0000000E+00;  1.0000000E+04;  0.0000000E+00;  1.0000000E+04;  0.0000000E+00;  0.0000000E+00;  0.0000000E+00;  0.0000000E+00;
 -2.0000000E-01;  9.9999998E-03; -3.1999999E-01;43;  0.0000000E+00;  0.0000000E+00;  0.0000000E+00;  1.0000000E+03;  4.0000001E-01;  0.0000000E+00;0;  0.0000000E+00;  0.0000000E+00;  0.0000000E+00;0;  0.0000000E+00;  1.0000000E+04;  0.0000000E+00;  0.0000000E+00;  1.0000000E+04;  0.0000000E+00;  1.0000000E+04;  0.0000000E+00;  0.0000000E+00;  0.0000000E+00;  0.0000000E+00;
 -2.0000000E-01;  9.9999998E-03; -3.0000001E-01;44;  0.0000000E+00;  0.0000000E+00;  0.0000000E+00;  1.0000000E+03;  4.0000001E-01;  0.0000000E+00;0;  0.0000000E+00;  0.0000000E+00;  0.0000000E+00;0;  0.0000000E+00;  1.0000000E+04;  0.0000000E+00;  0.0000000E+00;  1.0000000E+04;  0.0000000E+00;  1.0000000E+04;  0.0000000E+00;  0.0000000E+00;  0.0000000E+00;  0.0000000E+00;
 -2.0000000E-01;  9.9999998E-03; -2.8000000E-01;45;  0.0000000E+00;  0.0000000E+00;  0.0000000E+00;  1.0000000E+03;  4.0000001E-01;  0.0000000E+00;0;  0.0000000E+00;  0.0000000E+00;  0.0000000E+00;0;  0.0000000E+00;  1.0000000E+04;  0.0000000E+00;  0.0000000E+00;  1.0000000E+04;  0.0000000E+00;  1.0000000E+04;  0.0000000E+00;  0.0000000E+00;  0.0000000E+00;  0.0000000E+00;
 -2.0000000E-01;  9.9999998E-03; -2.5999999E-01;46;  0.0000000E+00;  0.0000000E+00;  0.0000000E+00;  1.0000000E+03;  4.0000001E-01;  0.0000000E+00;0;  0.0000000E+00;  0.0000000E+00;  0.0000000E+00;0;  0.0000000E+00;  1.0000000E+04;  0.0000000E+00;  0.0000000E+00;  1.0000000E+04;  0.0000000E+00;  1.0000000E+04;  0.0000000E+00;  0.0000000E+00;  0.0000000E+00;  0.0000000E+00;
 -2.0000000E-01;  9.9999998E-03; -2.3999999E-01;47;  0.0000000E+00;  0.0000000E+00;  0.0000000E+00;  1.0000000E+03;  4.0000001E-01;  0.0000000E+00;0;  0.0000000E+00;  0.0000000E+00;  0.0000000E+00;0;  0.0000000E+00;  1.0000000E+04;  0.0000000E+00;  0.0000000E+00;  1.0000000E+04;  0.0000000E+00;  1.0000000E+04;  0.0000000E+00;  0.0000000E+00;  0.0000000E+00;  0.0000000E+00;
 -2.0000000E-01;  9.9999998E-03; -2.2000000E-01;48;  0.0000000E+00;  0.0000000E+00;  0.0000000E+00;  1.0000000E+03;  4.0000001E-01;  0.0000000E+00;0;  0.0000000E+00;  0.0000000E+00;  0.0000000E+00;0;  0.0000000E+00;  1.0000000E+04;  0.0000000E+00;  0.0000000E+00;  1.0000000E+04;  0.0000000E+00;  1.0000000E+04;  0.0000000E+00;  0.0000000E+00;  0.0000000E+00;  0.0000000E+00;
 -2.0000000E-01;  9.9999998E-03; -2.0000000E-01;49;  0.0000000E+00;  0.0000000E+00;  0.0000000E+00;  1.0000000E+03;  4.0000001E-01;  0.0000000E+00;0;  0.0000000E+00;  0.0000000E+00;  0.0000000E+00;0;  0.0000000E+00;  1.0000000E+04;  0.0000000E+00;  0.0000000E+00;  1.0000000E+04;  0.0000000E+00;  1.0000000E+04;  0.0000000E+00;  0.0000000E+00;  0.0000000E+00;  0.0000000E+00;
 -1.8000001E-01;  9.9999998E-03; -3.4000000E-01;83;  0.0000000E+00;  0.0000000E+00;  0.0000000E+00;  1.0000000E+03;  4.0000001E-01;  0.0000000E+00;0;  0.0000000E+00;  0.0000000E+00;  0.0000000E+00;0;  0.0000000E+00;  1.0000000E+04;  0.0000000E+00;  0.0000000E+00;  1.0000000E+04;  0.0000000E+00;  1.0000000E+04;  0.0000000E+00;  0.0000000E+00;  0.0000000E+00;  0.0000000E+00;
 -1.8000001E-01;  9.9999998E-03; -3.1999999E-01;84;  0.0000000E+00;  0.0000000E+00;  0.0000000E+00;  1.0000000E+03;  4.0000001E-01;  0.0000000E+00;0;  0.0000000E+00;  0.0000000E+00;  0.0000000E+00;0;  0.0000000E+00;  1.0000000E+04;  0.0000000E+00;  0.0000000E+00;  1.0000000E+04;  0.0000000E+00;  1.0000000E+04;  0.0000000E+00;  0.0000000E+00;  0.0000000E+00;  0.0000000E+00;
 -1.8000001E-01;  9.9999998E-03; -3.0000001E-01;85;  0.0000000E+00;  0.0000000E+00;  0.0000000E+00;  1.0000000E+03;  4.0000001E-01;  0.0000000E+00;0;  0.0000000E+00;  0.0000000E+00;  0.0000000E+00;0;  0.0000000E+00;  1.0000000E+04;  0.0000000E+00;  0.0000000E+00;  1.0000000E+04;  0.0000000E+00;  1.0000000E+04;  0.0000000E+00;  0.0000000E+00;  0.0000000E+00;  0.0000000E+00;
 -1.8000001E-01;  9.9999998E-03; -2.8000000E-01;86;  0.0000000E+00;  0.0000000E+00;  0.0000000E+00;  1.0000000E+03;  4.0000001E-01;  0.0000000E+00;0;  0.0000000E+00;  0.0000000E+00;  0.0000000E+00;0;  0.0000000E+00;  1.0000000E+04;  0.0000000E+00;  0.0000000E+00;  1.0000000E+04;  0.0000000E+00;  1.0000000E+04;  0.0000000E+00;  0.0000000E+00;  0.0000000E+00;  0.0000000E+00;
 -1.8000001E-01;  9.9999998E-03; -2.5999999E-01;87;  0.0000000E+00;  0.0000000E+00;  0.0000000E+00;  1.0000000E+03;  4.0000001E-01;  0.0000000E+00;0;  0.0000000E+00;  0.0000000E+00;  0.0000000E+00;0;  0.0000000E+00;  1.0000000E+04;  0.0000000E+00;  0.0000000E+00;  1.0000000E+04;  0.0000000E+00;  1.0000000E+04;  0.0000000E+00;  0.0000000E+00;  0.0000000E+00;  0.0000000E+00;
 -1.8000001E-01;  9.9999998E-03; -2.3999999E-01;88;  0.0000000E+00;  0.0000000E+00;  0.0000000E+00;  1.0000000E+03;  4.0000001E-01;  0.0000000E+00;0;  0.0000000E+00;  0.0000000E+00;  0.0000000E+00;0;  0.0000000E+00;  1.0000000E+04;  0.0000000E+00;  0.0000000E+00;  1.0000000E+04;  0.0000000E+00;  1.0000000E+04;  0.0000000E+00;  0.0000000E+00;  0.0000000E+00;  0.0000000E+00;
 -1.8000001E-01;  9.9999998E-03; -2.2000000E-01;89;  0.0000000E+00;  0.0000000E+00;  0.0000000E+00;  1.0000000E+03;  4.0000001E-01;  0.0000000E+00;0;  0.0000000E+00;  0.0000000E+00;  0.0000000E+00;0;  0.0000000E+00;  1.0000000E+04;  0.0000000E+00;  0.0000000E+00;  1.0000000E+04;  0.0000000E+00;  1.0000000E+04;  0.0000000E+00;  0.0000000E+00;  0.0000000E+00;  0.0000000E+00;
 -1.8000001E-01;  9.9999998E-03; -2.0000000E-01;90;  0.0000000E+00;  0.0000000E+00;  0.0000000E+00;  1.0000000E+03;  4.0000001E-01;  0.0000000E+00;0;  0.0000000E+00;  0.0000000E+00;  0.0000000E+00;0;  0.0000000E+00;  1.0000000E+04;  0.0000000E+00;  0.0000000E+00;  1.0000000E+04;  0.0000000E+00;  1.0000000E+04;  0.0000000E+00;  0.0000000E+00;  0.0000000E+00;  0.0000000E+00;
 -1.6000000E-01;  9.9999998E-03; -3.4000000E-01;124;  0.0000000E+00;  0.0000000E+00;  0.0000000E+00;  1.0000000E+03;  4.0000001E-01;  0.0000000E+00;0;  0.0000000E+00;  0.0000000E+00;  0.0000000E+00;0;  0.0000000E+00;  1.0000000E+04;  0.0000000E+00;  0.0000000E+00;  1.0000000E+04;  0.0000000E+00;  1.0000000E+04;  0.0000000E+00;  0.0000000E+00;  0.0000000E+00;  0.0000000E+00;
 -1.6000000E-01;  9.9999998E-03; -3.1999999E-01;125;  0.0000000E+00;  0.0000000E+00;  0.0000000E+00;  1.0000000E+03;  4.0000001E-01;  0.0000000E+00;0;  0.0000000E+00;  0.0000000E+00;  0.0000000E+00;0; -5.4874550E-07;  1.0000000E+04;  0.0000000E+00;  0.0000000E+00;  1.0000000E+04;  0.0000000E+00;  1.0000000E+04; -5.0270876E-07;  0.0000000E+00; -4.6036739E-08;  8.6981250E-04;
 -1.6000000E-01;  9.9999998E-03; -3.0000001E-01;126;  0.0000000E+00;  0.0000000E+00;  0.0000000E+00;  1.0000000E+03;  4.0000001E-01;  0.0000000E+00;0;  0.0000000E+00;  0.0000000E+00;  0.0000000E+00;0; -3.4812856E-06;  1.0000000E+04;  0.0000000E+00;  0.0000000E+00;  1.0000000E+04;  0.0000000E+00;  1.0000000E+04; -3.3256842E-06;  0.0000000E+00; -1.5560138E-07;  2.7159653E-03;
 -1.6000000E-01;  9.9999998E-03; -2.8000000E-01;127;  0.0000000E+00;  0.0000000E+00;  0.0000000E+00;  1.0000000E+03;  4.0000001E-01;  0.0000000E+00;0;  0.0000000E+00;  0.0000000E+00;  0.0000000E+00;0; -8.2413790E-06;  1.0000000E+04;  0.0000000E+00;  0.0000000E+00;  1.0000000E+04;  0.0000000E+00;  1.0000000E+04; -8.0993277E-06;  0.0000000E+00; -1.4205128E-07;  1.5795634E-03;
 -1.6000000E-01;  9.9999998E-03; -2.5999999E-01;128;  0.0000000E+00;  0.0000000E+00;  0.0000000E+00;  1.0000000E+03;  4.0000001E-01;  0.0000000E+00;0;  0.0000000E+00;  0.0000000E+00;  0.0000000E+00;0; -1.2361843E-05;  1.0000000E+04;  0.0000000E+00;  0.0000000E+00;  1.0000000E+04;  0.0000000E+00;  1.0000000E+04; -1.2342318E-05;  0.0000000E+00; -1.9524894E-08;  1.8715321E-03;
 -1.6000000E-01;  9.9999998E-03; -2.3999999E-01;129;  0.0000000E+00;  0.0000000E+00;  0.0000000E+00;  1.0000000E+03;  4.0000001E-01;  0.0000000E+00;0;  0.0000000E+00;  0.0000000E+00;  0.0000000E+00;0; -1.4729953E-05;  1.0000000E+04;  0.0000000E+00;  0.0000000E+00;  1.0000000E+04;  0.0000000E+00;  1.0000000E+04; -1.4761454E-05;  0.0000000E+00;  3.1500427E-08;  3.3661155E-03;
 -1.6000000E-01;  9.9999998E-03; -2.2000000E-01;130;  0.0000000E+00;  0.0000000E+00;  0.0000000E+00;  1.0000000E+03;  4.0000001E-01;  0.0000000E+00;0;  0.0000000E+00;  0.0000000E+00;  0.0000000E+00;0; -1.6409027E-05;  1.0000000E+04;  0.0000000E+00;  0.0000000E+00;  1.0000000E+04;  0.0000000E+00;  1.0000000E+04; -1.6446653E-05;  0.0000000E+00;  3.7626435E-08;  3.7893602E-03;
 -1.6000000E-01;  9.9999998E-03; -2.0000000E-01;131;  0.0000000E+00;  0.0000000E+00;  0.0000000E+00;  1.0000000E+03;  4.0000001E-01;  0.0000000E+00;0;  0.0000000E+00;  0.0000000E+00;  0.0000000E+00;0; -1.7713526E-05;  1.0000000E+04;  0.0000000E+00;  0.0000000E+00;  1.0000000E+04;  0.0000000E+00;  1.0000000E+04; -1.7752183E-05;  0.0000000E+00;  3.8656474E-08;  4.0289531E-03;
 -1.4000000E-01;  9.9999998E-03; -3.4000000E-01;165;  0.0000000E+00;  0.0000000E+00;  0.0000000E+00;  1.0000000E+03;  4.0000001E-01;  0.0000000E+00;0;  0.0000000E+00;  0.0000000E+00;  0.0000000E+00;0; -2.6383024E-05;  1.0000000E+04;  0.0000000E+00;  0.0000000E+00;  1.0000000E+04;  0.0000000E+00;  1.0000000E+04; -2.2098069E-05;  0.0000000E+00; -4.2849551E-06;  8.5044637E-02;
 -1.4000000E-01;  9.9999998E-03; -3.1999999E-01;166;  0.0000000E+00;  0.0000000E+00;  0.0000000E+00;  1.0000000E+03;  4.0000001E-01;  0.0000000E+00;0;  0.0000000E+00;  0.0000000E+00;  0.0000000E+00;0; -8.5524225E-05;  1.0000000E+04;  0.0000000E+00;  0.0000000E+00;  1.0000000E+04;  0.0000000E+00;  1.0000000E+04; -7.6232849E-05;  0.0000000E+00; -9.2913779E-06;  1.8061934E-01;
 -1.4000000E-01;  9.9999998E-03; -3.0000001E-01;167;  0.0000000E+00;  0.0000000E+00;  0.0000000E+00;  1.0000003E+03;  4.0000001E-01;  2.9628786E-01;0;  0.0000000E+00;  0.0000000E+00;  0.0000000E+00;0; -1.8213136E-04;  1.0000000E+04;  0.0000000E+00;  0.0000000E+00;  1.0000000E+04;  0.0000000E+00;  1.0000000E+04; -1.7003067E-04;  0.0000000E+00; -1.2100683E-05;  2.2050932E-01;
 -1.4000000E-01;  9.9999998E-03; -2.8000000E-01;168;  0.0000000E+00;  0.0000000E+00;  0.0000000E+00;  1.0000005E+03;  4.0000001E-01;  4.9381313E-01;0;  0.0000000E+00;  0.0000000E+00;  0.0000000E+00;0; -3.0163664E-04;  1.0000000E+04;  0.0000000E+00;  0.0000000E+00;  1.0000000E+04;  0.0000000E+00;  1.0000000E+04; -2.9101633E-04;  0.0000000E+00; -1.0620304E-05;  1.6432035E-01;
 -1.4000000E-01;  9.9999998E-03; -2.5999999E-01;169;  0.0000000E+00;  0.0000000E+00;  0.0000000E+00;  1.0000009E+03;  4.0000001E-01;  7.9010099E-01;0;  0.0000000E+00;  0.0000000E+00;  0.0000000E+00;0; -4.2018874E-04;  1.0000000E+04;  0.0000000E+00;  0.0000000E+00;  1.0000000E+04;  0.0000000E+00;  1.0000000E+04; -4.1472740E-04;  0.0000000E+00; -5.4613438E-06;  3.2428514E-02;
 -1.4000000E-01;  9.9999998E-03; -2.3999999E-01;170;  0.0000000E+00;  0.0000000E+00;  0.0000000E+00;  1.0000011E+03;  4.0000001E-01;  8.8886362E-01;0;  0.0000000E+00;  0.0000000E+00;  0.0000000E+00;0; -5.1808142E-04;  1.0000000E+04;  0.0000000E+00;  0.0000000E+00;  1.0000000E+04;  0.0000000E+00;  1.0000000E+04; -5.1853718E-04;  0.0000000E+00;  4.5577463E-07;  1.1072174E-01;
 -1.4000000E-01;  9.9999998E-03; -2.2000000E-01;171;  0.0000000E+00;  0.0000000E+00;  0.0000000E+00;  1.0000013E+03;  4.0000001E-01;  1.0863888E+00;0;  0.0000000E+00;  0.0000000E+00;  0.0000000E+00;0; -5.8874680E-04;  1.0000000E+04;  0.0000000E+00;  0.0000000E+00;  1.0000000E+04;  0.0000000E+00;  1.0000000E+04; -5.9267960E-04;  0.0000000E+00;  3.9328024E-06;  1.9678319E-01;
 -1.4000000E-01;  9.9999998E-03; -2.0000000E-01;172;  0.0000000E+00;  0.0000000E+00;  0.0000000E+00;  1.0000014E+03;  4.0000001E-01;  1.1851515E+00;0;  0.0000000E+00;  0.0000000E+00;  0.0000000E+00;0; -6.3824869E-04;  1.0000000E+04;  0.0000000E+00;  0.0000000E+00;  1.0000000E+04;  0.0000000E+00;  1.0000000E+04; -6.4289250E-04;  0.0000000E+00;  4.6437949E-06;  2.1973281E-01;
 -1.2000000E-01;  9.9999998E-03; -3.4000000E-01;206;  0.0000000E+00;  0.0000000E+00;  0.0000000E+00;  1.0000006E+03;  4.0000001E-01;  4.9381313E-01;0;  0.0000000E+00;  0.0000000E+00;  0.0000000E+00;0; -3.2377779E-04;  1.0000000E+04;  0.0000000E+00;  0.0000000E+00;  1.0000000E+04;  0.0000000E+00;  1.0000000E+04; -2.6278797E-04;  0.0000000E+00; -6.0989827E-05;  1.2218890E+00;
 -1.2000000E-01;  9.9999998E-03; -3.1999999E-01;207;  0.0000000E+00;  0.0000000E+00;  0.0000000E+00;  1.0000015E+03;  4.0000001E-01;  1.1851515E+00;0;  0.0000000E+00;  0.0000000E+00;  0.0000000E+00;0; -6.8479578E-04;  1.0000000E+04;  0.0000000E+00;  0.0000000E+00;  1.0000000E+04;  0.0000000E+00;  1.0000000E+04; -5.9760927E-04;  0.0000000E+00; -8.7186534E-05;  1.7000822E+00;
 -1.2000000E-01;  9.9999998E-03; -3.0000001E-01;208;  0.0000000E+00;  0.0000000E+00;  0.0000000E+00;  1.0000027E+03;  4.0000001E-01;  2.2715404E+00;0;  0.0000000E+00;  0.0000000E+00;  0.0000000E+00;0; -1.1800984E-03;  1.0000000E+04;  0.0000000E+00;  0.0000000E+00;  1.0000000E+04;  0.0000000E+00;  1.0000000E+04; -1.0859132E-03;  0.0000000E+00; -9.4185278E-05;  1.7400929E+00;
 -1.2000000E-01;  9.9999998E-03; -2.8000000E-01;209;  0.0000000E+00;  0.0000000E+00;  0.0000000E+00;  1.0000040E+03;  4.0000001E-01;  3.2591665E+00;0;  0.0000000E+00;  0.0000000E+00;  0.0000000E+00;0; -1.7536675E-03;  1.0000000E+04;  0.0000000E+00;  0.0000000E+00;  1.0000000E+04;  0.0000000E+00;  1.0000000E+04; -1.6755968E-03;  0.0000000E+00; -7.8070676E-05;  1.2789688E+00;
 -1.2000000E-01;  9.9999998E-03; -2.5999999E-01;210;  0.0000000E+00;  0.0000000E+00;  0.0000000E+00;  1.0000051E+03;  4.0000001E-01;  4.2467928E+00;0;  0.0000000E+00;  0.0000000E+00;  0.0000000E+00;0; -2.3216147E-03;  1.0000000E+04;  0.0000000E+00;  0.0000000E+00;  1.0000000E+04;  0.0000000E+00;  1.0000000E+04; -2.2778686E-03;  0.0000000E+00; -4.3746175E-05;  4.3724638E-01;
 -1.2000000E-01;  9.9999998E-03; -2.3999999E-01;211;  0.0000000E+00;  0.0000000E+00;  0.0000000E+00;  1.0000062E+03;  4.0000001E-01;  5.1356564E+00;0;  0.0000000E+00;  0.0000000E+00;  0.0000000E+00;0; -2.8136214E-03;  1.0000000E+04;  0.0000000E+00;  0.0000000E+00;  1.0000000E+04;  0.0000000E+00;  1.0000000E+04; -2.8092677E-03;  0.0000000E+00; -4.3537275E-06;  4.9273881E-01;
 -1.2000000E-01;  9.9999998E-03; -2.2000000E-01;212;  0.0000000E+00;  0.0000000E+00;  0.0000000E+00;  1.0000071E+03;  4.0000001E-01;  5.9257574E+00;0;  0.0000000E+00;  0.0000000E+00;  0.0000000E+00;0; -3.2008120E-03;  1.0000000E+04;  0.0000000E+00;  0.0000000E+00;  1.0000000E+04;  0.0000000E+00;  1.0000000E+04; -3.2265102E-03;  0.0000000E+00;  2.5698106E-05;  1.1982043E+00;
 -1.2000000E-01;  9.9999998E-03; -2.0000000E-01;213;  0.0000000E+00;  0.0000000E+00;  0.0000000E+00;  1.0000078E+03;  4.0000001E-01;  6.4195704E+00;0;  0.0000000E+00;  0.0000000E+00;  0.0000000E+00;0; -3.4887686E-03;  1.0000000E+04;  0.0000000E+00;  0.0000000E+00;  1.0000000E+04;  0.0000000E+00;  1.0000000E+04; -3.5291708E-03;  0.0000000E+00;  4.0402199E-05;  1.5519547E+00;
 -1.0000000E-01;  9.9999998E-03; -3.4000000E-01;247;  0.0000000E+00;  0.0000000E+00;  0.0000000E+00;  1.0000033E+03;  4.0000001E-01;  2.7653534E+00;0;  0.0000000E+00;  0.0000000E+00;  0.0000000E+00;0; -1.4626262E-03;  1.0000000E+04;  0.0000000E+00;  0.0000000E+00;  1.0000000E+04;  0.0000000E+00;  1.0000000E+04; -1.1543806E-03;  0.0000000E+00; -3.0824551E-04;  6.1940227E+00;
 -1.0000000E-01;  9.9999998E-03; -3.1999999E-01;248;  0.0000000E+00;  0.0000000E+00;  0.0000000E+00;  1.0000059E+03;  4.0000001E-01;  4.9381313E+00;0;  0.0000000E+00;  0.0000000E+00;  0.0000000E+00;0; -2.6262302E-03;  1.0000000E+04;  0.0000000E+00;  0.0000000E+00;  1.0000000E+04;  0.0000000E+00;  1.0000000E+04; -2.2490558E-03;  0.0000000E+00; -3.7717447E-04;  7.3943772E+00;
 -1.0000000E-01;  9.9999998E-03; -3.0000001E-01;249;  0.0000000E+00;  0.0000000E+00;  0.0000000E+00;  1.0000093E+03;  4.0000001E-01;  7.7034845E+00;0;  0.0000000E+00;  0.0000000E+00;  0.0000000E+00;0; -4.1254819E-03;  1.0000000E+04;  0.0000000E+00;  0.0000000E+00;  1.0000000E+04;  0.0000000E+00;  1.0000000E+04; -3.7492062E-03;  0.0000000E+00; -3.7627562E-04;  7.0439572E+00;
 -1.0000000E-01;  9.9999998E-03; -2.8000000E-01;250;  0.0000000E+00;  0.0000000E+00;  0.0000000E+00;  1.0000132E+03;  4.0000001E-01;  1.0962651E+01;0;  0.0000000E+00;  0.0000000E+00;  0.0000000E+00;0; -5.8122459E-03;  1.0000000E+04;  0.0000000E+00;  0.0000000E+00;  1.0000000E+04;  0.0000000E+00;  1.0000000E+04; -5.5103763E-03;  0.0000000E+00; -3.0186973E-04;  5.0954337E+00;
 -1.0000000E-01;  9.9999998E-03; -2.5999999E-01;251;  0.0000000E+00;  0.0000000E+00;  0.0000000E+00;  1.0000170E+03;  4.0000001E-01;  1.4123055E+01;0;  0.0000000E+00;  0.0000000E+00;  0.0000000E+00;0; -7.4694031E-03;  1.0000000E+04;  0.0000000E+00;  0.0000000E+00;  1.0000000E+04;  0.0000000E+00;  1.0000000E+04; -7.2985939E-03;  0.0000000E+00; -1.7080911E-04;  1.9550430E+00;
 -1.0000000E-01;  9.9999998E-03; -2.3999999E-01;252;  0.0000000E+00;  0.0000000E+00;  0.0000000E+00;  1.0000203E+03;  4.0000001E-01;  1.6789646E+01;0;  0.0000000E+00;  0.0000000E+00;  0.0000000E+00;0; -8.9223133E-03;  1.0000000E+04;  0.0000000E+00;  0.0000000E+00;  1.0000000E+04;  0.0000000E+00;  1.0000000E+04; -8.8988151E-03;  0.0000000E+00; -2.3498114E-05;  1.4705961E+00;
 -1.0000000E-01;  9.9999998E-03; -2.2000000E-01;253;  0.0000000E+00;  0.0000000E+00;  0.0000000E+00;  1.0000228E+03;  4.0000001E-01;  1.8863661E+01;0;  0.0000000E+00;  0.0000000E+00;  0.0000000E+00;0; -1.0099247E-02;  1.0000000E+04;  0.0000000E+00;  0.0000000E+00;  1.0000000E+04;  0.0000000E+00;  1.0000000E+04; -1.0193943E-02;  0.0000000E+00;  9.4696370E-05;  4.1916990E+00;
 -1.0000000E-01;  9.9999998E-03; -2.0000000E-01;254;  0.0000000E+00;  0.0000000E+00;  0.0000000E+00;  1.0000249E+03;  4.0000001E-01;  2.0641388E+01;0;  0.0000000E+00;  0.0000000E+00;  0.0000000E+00;0; -1.1006257E-02;  1.0000000E+04;  0.0000000E+00;  0.0000000E+00;  1.0000000E+04;  0.0000000E+00;  1.0000000E+04; -1.1168732E-02;  0.0000000E+00;  1.6247596E-04;  5.7521124E+00;
 -7.9999998E-02;  9.9999998E-03; -3.4000000E-01;288;  0.0000000E+00;  0.0000000E+00;  0.0000000E+00;  1.0000096E+03;  4.0000001E-01;  7.9997725E+00;0;  0.0000000E+00;  0.0000000E+00;  0.0000000E+00;0; -4.2232675E-03;  1.0000000E+04;  0.0000000E+00;  0.0000000E+00;  1.0000000E+04;  0.0000000E+00;  1.0000000E+04; -3.2511007E-03;  0.0000000E+00; -9.7216712E-04;  1.9643316E+01;
 -7.9999998E-02;  9.9999998E-03; -3.1999999E-01;289;  0.0000000E+00;  0.0000000E+00;  0.0000000E+00;  1.0000160E+03;  4.0000001E-01;  1.3234192E+01;0;  0.0000000E+00;  0.0000000E+00;  0.0000000E+00;0; -6.9826175E-03;  1.0000000E+04;  0.0000000E+00;  0.0000000E+00;  1.0000000E+04;  0.0000000E+00;  1.0000000E+04; -5.8791437E-03;  0.0000000E+00; -1.1034738E-03;  2.1797480E+01;
 -7.9999998E-02;  9.9999998E-03; -3.0000001E-01;290;  0.0000000E+00;  0.0000000E+00;  0.0000000E+00;  1.0000238E+03;  4.0000001E-01;  1.9752525E+01;0;  0.0000000E+00;  0.0000000E+00;  0.0000000E+00;0; -1.0432347E-02;  1.0000000E+04;  0.0000000E+00;  0.0000000E+00;  1.0000000E+04;  0.0000000E+00;  1.0000000E+04; -9.3756784E-03;  0.0000000E+00; -1.0566683E-03;  2.0000999E+01;
 -7.9999998E-02;  9.9999998E-03; -2.8000000E-01;291;  0.0000000E+00;  0.0000000E+00;  0.0000000E+00;  1.0000325E+03;  4.0000001E-01;  2.6962196E+01;0;  0.0000000E+00;  0.0000000E+00;  0.0000000E+00;0; -1.4245411E-02;  1.0000000E+04;  0.0000000E+00;  0.0000000E+00;  1.0000000E+04;  0.0000000E+00;  1.0000000E+04; -1.3414280E-02;  0.0000000E+00; -8.3113043E-04;  1.4309308E+01;
 -7.9999998E-02;  9.9999998E-03; -2.5999999E-01;292;  0.0000000E+00;  0.0000000E+00;  0.0000000E+00;  1.0000410E+03;  4.0000001E-01;  3.3974342E+01;0;  0.0000000E+00;  0.0000000E+00;  0.0000000E+00;0; -1.7960062E-02;  1.0000000E+04;  0.0000000E+00;  0.0000000E+00;  1.0000000E+04;  0.0000000E+00;  1.0000000E+04; -1.7490894E-02;  0.0000000E+00; -4.6916876E-04;  5.7427888E+00;
 -7.9999998E-02;  9.9999998E-03; -2.3999999E-01;293;  0.0000000E+00;  0.0000000E+00;  0.0000000E+00;  1.0000483E+03;  4.0000001E-01;  3.9998863E+01;0;  0.0000000E+00;  0.0000000E+00;  0.0000000E+00;0; -2.1219416E-02;  1.0000000E+04;  0.0000000E+00;  0.0000000E+00;  1.0000000E+04;  0.0000000E+00;  1.0000000E+04; -2.1150701E-02;  0.0000000E+00; -6.8715155E-05;  3.4920917E+00;
 -7.9999998E-02;  9.9999998E-03; -2.2000000E-01;294;  0.0000000E+00;  0.0000000E+00;  0.0000000E+00;  1.0000541E+03;  4.0000001E-01;  4.4838230E+01;0;  0.0000000E+00;  0.0000000E+00;  0.0000000E+00;0; -2.3887493E-02;  1.0000000E+04;  0.0000000E+00;  0.0000000E+00;  1.0000000E+04;  0.0000000E+00;  1.0000000E+04; -2.4146384E-02;  0.0000000E+00;  2.5889126E-04;  1.0954603E+01;
 -7.9999998E-02;  9.9999998E-03; -2.0000000E-01;295;  0.0000000E+00;  0.0000000E+00;  0.0000000E+00;  1.0000588E+03;  4.0000001E-01;  4.8689972E+01;0;  0.0000000E+00;  0.0000000E+00;  0.0000000E+00;0; -2.5979400E-02;  1.0000000E+04;  0.0000000E+00;  0.0000000E+00;  1.0000000E+04;  0.0000000E+00;  1.0000000E+04; -2.6437297E-02;  0.0000000E+00;  4.5789740E-04;  1.5443545E+01;
 -5.9999999E-02;  9.9999998E-03; -3.4000000E-01;329;  0.0000000E+00;  0.0000000E+00;  0.0000000E+00;  1.0000214E+03;  4.0000001E-01;  1.7777273E+01;0;  0.0000000E+00;  0.0000000E+00;  0.0000000E+00;0; -9.2764841E-03;  1.0000000E+04;  0.0000000E+00;  0.0000000E+00;  1.0000000E+04;  0.0000000E+00;  1.0000000E+04; -6.9618388E-03;  0.0000000E+00; -2.3146456E-03;  4.7089230E+01;
 -5.9999999E-02;  9.9999998E-03; -3.1999999E-01;330;  0.0000000E+00;  0.0000000E+00;  0.0000000E+00;  1.0000335E+03;  4.0000001E-01;  2.7752296E+01;0;  0.0000000E+00;  0.0000000E+00;  0.0000000E+00;0; -1.4612468E-02;  1.0000000E+04;  0.0000000E+00;  0.0000000E+00;  1.0000000E+04;  0.0000000E+00;  1.0000000E+04; -1.2088737E-02;  0.0000000E+00; -2.5237310E-03;  5.0258362E+01;
 -5.9999999E-02;  9.9999998E-03; -3.0000001E-01;331;  0.0000000E+00;  0.0000000E+00;  0.0000000E+00;  1.0000487E+03;  4.0000001E-01;  4.0393913E+01;0;  0.0000000E+00;  0.0000000E+00;  0.0000000E+00;0; -2.1166325E-02;  1.0000000E+04;  0.0000000E+00;  0.0000000E+00;  1.0000000E+04;  0.0000000E+00;  1.0000000E+04; -1.8804790E-02;  0.0000000E+00; -2.3615351E-03;  4.5177830E+01;
 -5.9999999E-02;  9.9999998E-03; -2.8000000E-01;332;  0.0000000E+00;  0.0000000E+00;  0.0000000E+00;  1.0000650E+03;  4.0000001E-01;  5.3825630E+01;0;  0.0000000E+00;  0.0000000E+00;  0.0000000E+00;0; -2.8317435E-02;  1.0000000E+04;  0.0000000E+00;  0.0000000E+00;  1.0000000E+04;  0.0000000E+00;  1.0000000E+04; -2.6485601E-02;  0.0000000E+00; -1.8318329E-03;  3.2069065E+01;
 -5.9999999E-02;  9.9999998E-03; -2.5999999E-01;333;  0.0000000E+00;  0.0000000E+00;  0.0000000E+00;  1.0000806E+03;  4.0000001E-01;  6.6763535E+01;0;  0.0000000E+00;  0.0000000E+00;  0.0000000E+00;0; -3.5209727E-02;  1.0000000E+04;  0.0000000E+00;  0.0000000E+00;  1.0000000E+04;  0.0000000E+00;  1.0000000E+04; -3.4184292E-02;  0.0000000E+00; -1.0254339E-03;  1.3118093E+01;
 -5.9999999E-02;  9.9999998E-03; -2.3999999E-01;334;  0.0000000E+00;  0.0000000E+00;  0.0000000E+00;  1.0000942E+03;  4.0000001E-01;  7.8022476E+01;0;  0.0000000E+00;  0.0000000E+00;  0.0000000E+00;0; -4.1222744E-02;  1.0000000E+04;  0.0000000E+00;  0.0000000E+00;  1.0000000E+04;  0.0000000E+00;  1.0000000E+04; -4.1074991E-02;  0.0000000E+00; -1.4775107E-04;  7.0327563E+00;
 -5.9999999E-02;  9.9999998E-03; -2.2000000E-01;335;  0.0000000E+00;  0.0000000E+00;  0.0000000E+00;  1.0001052E+03;  4.0000001E-01;  8.7207397E+01;0;  0.0000000E+00;  0.0000000E+00;  0.0000000E+00;0; -4.6154663E-02;  1.0000000E+04;  0.0000000E+00;  0.0000000E+00;  1.0000000E+04;  0.0000000E+00;  1.0000000E+04; -4.6728387E-02;  0.0000000E+00;  5.7372422E-04;  2.3370049E+01;
 -5.9999999E-02;  9.9999998E-03; -2.0000000E-01;336;  0.0000000E+00;  0.0000000E+00;  0.0000000E+00;  1.0001136E+03;  4.0000001E-01;  9.4120781E+01;0;  0.0000000E+00;  0.0000000E+00;  0.0000000E+00;0; -5.0053604E-02;  1.0000000E+04;  0.0000000E+00;  0.0000000E+00;  1.0000000E+04;  0.0000000E+00;  1.0000000E+04; -5.1078215E-02;  0.0000000E+00;  1.0246123E-03;  3.3414879E+01;
 -3.9999999E-02;  9.9999998E-03; -3.4000000E-01;370;  0.0000000E+00;  0.0000000E+00;  0.0000000E+00;  1.0000387E+03;  4.0000001E-01;  3.2097855E+01;0;  0.0000000E+00;  0.0000000E+00;  0.0000000E+00;0; -1.6756734E-02;  1.0000000E+04;  0.0000000E+00;  0.0000000E+00;  1.0000000E+04;  0.0000000E+00;  1.0000000E+04; -1.2222957E-02;  0.0000000E+00; -4.5337770E-03;  9.2971436E+01;
 -3.9999999E-02;  9.9999998E-03; -3.1999999E-01;371;  0.0000000E+00;  0.0000000E+00;  0.0000000E+00;  1.0000591E+03;  4.0000001E-01;  4.8986263E+01;0;  0.0000000E+00;  0.0000000E+00;  0.0000000E+00;0; -2.5588149E-02;  1.0000000E+04;  0.0000000E+00;  0.0000000E+00;  1.0000000E+04;  0.0000000E+00;  1.0000000E+04; -2.0750642E-02;  0.0000000E+00; -4.8375078E-03;  9.7217438E+01;
 -3.9999999E-02;  9.9999998E-03; -3.0000001E-01;372;  0.0000000E+00;  0.0000000E+00;  0.0000000E+00;  1.0000838E+03;  4.0000001E-01;  6.9430122E+01;0;  0.0000000E+00;  0.0000000E+00;  0.0000000E+00;0; -3.6299378E-02;  1.0000000E+04;  0.0000000E+00;  0.0000000E+00;  1.0000000E+04;  0.0000000E+00;  1.0000000E+04; -3.1832963E-02;  0.0000000E+00; -4.4664163E-03;  8.6418510E+01;
 -3.9999999E-02;  9.9999998E-03; -2.8000000E-01;373;  0.0000000E+00;  0.0000000E+00;  0.0000000E+00;  1.0001102E+03;  4.0000001E-01;  9.1256668E+01;0;  0.0000000E+00;  0.0000000E+00;  0.0000000E+00;0; -4.7830034E-02;  1.0000000E+04;  0.0000000E+00;  0.0000000E+00;  1.0000000E+04;  0.0000000E+00;  1.0000000E+04; -4.4408478E-02;  0.0000000E+00; -3.4215574E-03;  6.0862869E+01;
 -3.9999999E-02;  9.9999998E-03; -2.5999999E-01;374;  0.0000000E+00;  0.0000000E+00;  0.0000000E+00;  1.0001352E+03;  4.0000001E-01;  1.1199682E+02;0;  0.0000000E+00;  0.0000000E+00;  0.0000000E+00;0; -5.8776252E-02;  1.0000000E+04;  0.0000000E+00;  0.0000000E+00;  1.0000000E+04;  0.0000000E+00;  1.0000000E+04; -5.6890771E-02;  0.0000000E+00; -1.8854820E-03;  2.4910444E+01;
 -3.9999999E-02;  9.9999998E-03; -2.3999999E-01;375;  0.0000000E+00;  0.0000000E+00;  0.0000000E+00;  1.0001564E+03;  4.0000001E-01;  1.2957657E+02;0;  0.0000000E+00;  0.0000000E+00;  0.0000000E+00;0; -6.8230011E-02;  1.0000000E+04;  0.0000000E+00;  0.0000000E+00;  1.0000000E+04;  0.0000000E+00;  1.0000000E+04; -6.7979403E-02;  0.0000000E+00; -2.5060424E-04;  1.2564706E+01;
 -3.9999999E-02;  9.9999998E-03; -2.2000000E-01;376;  0.0000000E+00;  0.0000000E+00;  0.0000000E+00;  1.0001738E+03;  4.0000001E-01;  1.4399591E+02;0;  0.0000000E+00;  0.0000000E+00;  0.0000000E+00;0; -7.5967476E-02;  1.0000000E+04;  0.0000000E+00;  0.0000000E+00;  1.0000000E+04;  0.0000000E+00;  1.0000000E+04; -7.7051893E-02;  0.0000000E+00;  1.0844157E-03;  4.2717106E+01;
 -3.9999999E-02;  9.9999998E-03; -2.0000000E-01;377;  0.0000000E+00;  0.0000000E+00;  0.0000000E+00;  1.0001873E+03;  4.0000001E-01;  1.5515608E+02;0;  0.0000000E+00;  0.0000000E+00;  0.0000000E+00;0; -8.2106411E-02;  1.0000000E+04;  0.0000000E+00;  0.0000000E+00;  1.0000000E+04;  0.0000000E+00;  1.0000000E+04; -8.4036067E-02;  0.0000000E+00;  1.9296568E-03;  6.1394588E+01;
 -2.0000000E-02;  9.9999998E-03; -3.4000000E-01;411;  0.0000000E+00;  0.0000000E+00;  0.0000000E+00;  1.0000605E+03;  4.0000001E-01;  5.0072651E+01;0;  0.0000000E+00;  0.0000000E+00;  0.0000000E+00;0; -2.6056977E-02;  1.0000000E+04;  0.0000000E+00;  0.0000000E+00;  1.0000000E+04;  0.0000000E+00;  1.0000000E+04; -1.8420679E-02;  0.0000000E+00; -7.6362970E-03;  1.5807117E+02;
 -2.0000000E-02;  9.9999998E-03; -3.1999999E-01;412;  0.0000000E+00;  0.0000000E+00;  0.0000000E+00;  1.0000906E+03;  4.0000001E-01;  7.5059593E+01;0;  0.0000000E+00;  0.0000000E+00;  0.0000000E+00;0; -3.8929906E-02;  1.0000000E+04;  0.0000000E+00;  0.0000000E+00;  1.0000000E+04;  0.0000000E+00;  1.0000000E+04; -3.0874275E-02;  0.0000000E+00; -8.0556320E-03;  1.6358025E+02;
 -2.0000000E-02;  9.9999998E-03; -3.0000001E-01;413;  0.0000000E+00;  0.0000000E+00;  0.0000000E+00;  1.0001263E+03;  4.0000001E-01;  1.0468839E+02;0;  0.0000000E+00;  0.0000000E+00;  0.0000000E+00;0; -5.4315079E-02;  1.0000000E+04;  0.0000000E+00;  0.0000000E+00;  1.0000000E+04;  0.0000000E+00;  1.0000000E+04; -4.6943475E-02;  0.0000000E+00; -7.3716030E-03;  1.4438129E+02;
 -2.0000000E-02;  9.9999998E-03; -2.8000000E-01;414;  0.0000000E+00;  0.0000000E+00;  0.0000000E+00;  1.0001638E+03;  4.0000001E-01;  1.3569984E+02;0;  0.0000000E+00;  0.0000000E+00;  0.0000000E+00;0; -7.0573337E-02;  1.0000000E+04;  0.0000000E+00;  0.0000000E+00;  1.0000000E+04;  0.0000000E+00;  1.0000000E+04; -6.5008730E-02;  0.0000000E+00; -5.5646077E-03;  1.0051437E+02;
 -2.0000000E-02;  9.9999998E-03; -2.5999999E-01;415;  0.0000000E+00;  0.0000000E+00;  0.0000000E+00;  1.0001984E+03;  4.0000001E-01;  1.6434100E+02;0;  0.0000000E+00;  0.0000000E+00;  0.0000000E+00;0; -8.5690886E-02;  1.0000000E+04;  0.0000000E+00;  0.0000000E+00;  1.0000000E+04;  0.0000000E+00;  1.0000000E+04; -8.2698219E-02;  0.0000000E+00; -2.9926677E-03;  4.0399010E+01;
 -2.0000000E-02;  9.9999998E-03; -2.3999999E-01;416;  0.0000000E+00;  0.0000000E+00;  0.0000000E+00;  1.0002277E+03;  4.0000001E-01;  1.8863661E+02;0;  0.0000000E+00;  0.0000000E+00;  0.0000000E+00;0; -9.8607101E-02;  1.0000000E+04;  0.0000000E+00;  0.0000000E+00;  1.0000000E+04;  0.0000000E+00;  1.0000000E+04; -9.8264411E-02;  0.0000000E+00; -3.4268660E-04;  2.0442017E+01;
 -2.0000000E-02;  9.9999998E-03; -2.2000000E-01;417;  0.0000000E+00;  0.0000000E+00;  0.0000000E+00;  1.0002515E+03;  4.0000001E-01;  2.0829037E+02;0;  0.0000000E+00;  0.0000000E+00;  0.0000000E+00;0; -1.0914324E-01;  1.0000000E+04;  0.0000000E+00;  0.0000000E+00;  1.0000000E+04;  0.0000000E+00;  1.0000000E+04; -1.1093497E-01;  0.0000000E+00;  1.7917319E-03;  6.8683159E+01;
 -2.0000000E-02;  9.9999998E-03; -2.0000000E-01;418;  0.0000000E+00;  0.0000000E+00;  0.0000000E+00;  1.0002700E+03;  4.0000001E-01;  2.2369734E+02;0;  0.0000000E+00;  0.0000000E+00;  0.0000000E+00;0; -1.1750647E-01;  1.0000000E+04;  0.0000000E+00;  0.0000000E+00;  1.0000000E+04;  0.0000000E+00;  1.0000000E+04; -1.2065640E-01;  0.0000000E+00;  3.1499297E-03;  9.8542854E+01;
  0.0000000E+00;  9.9999998E-03; -3.4000000E-01;452;  0.0000000E+00;  0.0000000E+00;  0.0000000E+00;  1.0000842E+03;  4.0000001E-01;  6.9825172E+01;0;  0.0000000E+00;  0.0000000E+00;  0.0000000E+00;0; -3.5904169E-02;  1.0000000E+04;  0.0000000E+00;  0.0000000E+00;  1.0000000E+04;  0.0000000E+00;  1.0000000E+04; -2.4578663E-02;  0.0000000E+00; -1.1325507E-02;  2.3710190E+02;
  0.0000000E+00;  9.9999998E-03; -3.1999999E-01;453;  0.0000000E+00;  0.0000000E+00;  0.0000000E+00;  1.0001237E+03;  4.0000001E-01;  1.0241684E+02;0;  0.0000000E+00;  0.0000000E+00;  0.0000000E+00;0; -5.2718334E-02;  1.0000000E+04;  0.0000000E+00;  0.0000000E+00;  1.0000000E+04;  0.0000000E+00;  1.0000000E+04; -4.0853478E-02;  0.0000000E+00; -1.1864854E-02;  2.4384251E+02;
  0.0000000E+00;  9.9999998E-03; -3.0000001E-01;454;  0.0000000E+00;  0.0000000E+00;  0.0000000E+00;  1.0001695E+03;  4.0000001E-01;  1.4044044E+02;0;  0.0000000E+00;  0.0000000E+00;  0.0000000E+00;0; -7.2300091E-02;  1.0000000E+04;  0.0000000E+00;  0.0000000E+00;  1.0000000E+04;  0.0000000E+00;  1.0000000E+04; -6.1575536E-02;  0.0000000E+00; -1.0724557E-02;  2.1281941E+02;
  2.0000000E-02;  9.9999998E-03; -3.4000000E-01;464;  0.0000000E+00;  0.0000000E+00;  0.0000000E+00;  1.0001064E+03;  4.0000001E-01;  8.8195023E+01;0;  0.0000000E+00;  0.0000000E+00;  0.0000000E+00;0; -4.4879511E-02;  1.0000000E+04;  0.0000000E+00;  0.0000000E+00;  1.0000000E+04;  0.0000000E+00;  1.0000000E+04; -2.9878851E-02;  0.0000000E+00; -1.5000662E-02;  3.1843887E+02;
  2.0000000E-02;  9.9999998E-03; -3.1999999E-01;465;  0.0000000E+00;  0.0000000E+00;  0.0000000E+00;  1.0001541E+03;  4.0000001E-01;  1.2770007E+02;0;  0.0000000E+00;  0.0000000E+00;  0.0000000E+00;0; -6.4909779E-02;  1.0000000E+04;  0.0000000E+00;  0.0000000E+00;  1.0000000E+04;  0.0000000E+00;  1.0000000E+04; -4.9305163E-02;  0.0000000E+00; -1.5604618E-02;  3.2529291E+02;
  3.9999999E-02;  9.9999998E-03; -3.4000000E-01;474;  0.0000000E+00;  0.0000000E+00;  0.0000000E+00;  1.0001259E+03;  4.0000001E-01;  1.0429333E+02;0;  0.0000000E+00;  0.0000000E+00;  0.0000000E+00;0; -5.2226353E-02;  1.0000000E+04;  0.0000000E+00;  0.0000000E+00;  1.0000000E+04;  0.0000000E+00;  1.0000000E+04; -3.4225248E-02;  0.0000000E+00; -1.8001106E-02;  3.8886215E+02;
  3.9999999E-02;  9.9999998E-03; -3.1999999E-01;475;  0.0000000E+00;  0.0000000E+00;  0.0000000E+00;  1.0001804E+03;  4.0000001E-01;  1.4942786E+02;0;  0.0000000E+00;  0.0000000E+00;  0.0000000E+00;0; -7.4689195E-02;  1.0000000E+04;  0.0000000E+00;  0.0000000E+00;  1.0000000E+04;  0.0000000E+00;  1.0000000E+04; -5.6172132E-02;  0.0000000E+00; -1.8517058E-02;  3.9273523E+02;
  5.9999999E-02;  9.9999998E-03; -3.4000000E-01;484;  0.0000000E+00;  0.0000000E+00;  0.0000000E+00;  1.0001434E+03;  4.0000001E-01;  1.1881144E+02;0;  0.0000000E+00;  0.0000000E+00;  0.0000000E+00;0; -5.8234032E-02;  1.0000000E+04;  0.0000000E+00;  0.0000000E+00;  1.0000000E+04;  0.0000000E+00;  1.0000000E+04; -3.8249724E-02;  0.0000000E+00; -1.9984309E-02;  4.4130130E+02;
  5.9999999E-02;  9.9999998E-03; -3.1999999E-01;485;  0.0000000E+00;  0.0000000E+00;  0.0000000E+00;  1.0002043E+03;  4.0000001E-01;  1.6927914E+02;0;  0.0000000E+00;  0.0000000E+00;  0.0000000E+00;0; -8.2843371E-02;  1.0000000E+04;  0.0000000E+00;  0.0000000E+00;  1.0000000E+04;  0.0000000E+00;  1.0000000E+04; -6.2547877E-02;  0.0000000E+00; -2.0295495E-02;  4.3975861E+02;
  7.9999998E-02;  9.9999998E-03; -3.4000000E-01;494;  0.0000000E+00;  0.0000000E+00;  0.0000000E+00;  1.0001622E+03;  4.0000001E-01;  1.3431717E+02;0;  0.0000000E+00;  0.0000000E+00;  0.0000000E+00;0; -6.4210542E-02;  1.0000000E+04;  0.0000000E+00;  0.0000000E+00;  1.0000000E+04;  0.0000000E+00;  1.0000000E+04; -4.3177415E-02;  0.0000000E+00; -2.1033129E-02;  4.7893918E+02;
  7.9999998E-02;  9.9999998E-03; -3.1999999E-01;495;  0.0000000E+00;  0.0000000E+00;  0.0000000E+00;  1.0002305E+03;  4.0000001E-01;  1.9090816E+02;0;  0.0000000E+00;  0.0000000E+00;  0.0000000E+00;0; -9.1175564E-02;  1.0000000E+04;  0.0000000E+00;  0.0000000E+00;  1.0000000E+04;  0.0000000E+00;  1.0000000E+04; -7.0094235E-02;  0.0000000E+00; -2.1081330E-02;  4.7029391E+02;
  1.0000000E-01;  9.9999998E-03; -3.4000000E-01;504;  0.0000000E+00;  0.0000000E+00;  0.0000000E+00;  1.0001874E+03;  4.0000001E-01;  1.5525485E+02;0;  0.0000000E+00;  0.0000000E+00;  0.0000000E+00;0; -7.2217032E-02;  1.0000000E+04;  0.0000000E+00;  0.0000000E+00;  1.0000000E+04;  0.0000000E+00;  1.0000000E+04; -5.0644666E-02;  0.0000000E+00; -2.1572366E-02;  5.4595087E+02;
  1.0000000E-01;  9.9999998E-03; -3.1999999E-01;505;  0.0000000E+00;  0.0000000E+00;  0.0000000E+00;  1.0002661E+03;  4.0000001E-01;  2.2043817E+02;0;  0.0000000E+00;  0.0000000E+00;  0.0000000E+00;0; -1.0233606E-01;  1.0000000E+04;  0.0000000E+00;  0.0000000E+00;  1.0000000E+04;  0.0000000E+00;  1.0000000E+04; -8.0983847E-02;  0.0000000E+00; -2.1352215E-02;  5.4937366E+02;
  1.2000000E-01;  9.9999998E-03; -3.4000000E-01;514;  0.0000000E+00;  0.0000000E+00;  0.0000000E+00;  1.0002263E+03;  4.0000001E-01;  1.8745146E+02;0;  0.0000000E+00;  0.0000000E+00;  0.0000000E+00;0; -8.4741727E-02;  1.0000000E+04;  0.0000000E+00;  0.0000000E+00;  1.0000000E+04;  0.0000000E+00;  1.0000000E+04; -6.2418740E-02;  0.0000000E+00; -2.2322984E-02;  8.7715149E+02;
  1.2000000E-01;  9.9999998E-03; -3.1999999E-01;515;  0.0000000E+00;  0.0000000E+00;  0.0000000E+00;  1.0003187E+03;  4.0000001E-01;  2.6409125E+02;0;  0.0000000E+00;  0.0000000E+00;  0.0000000E+00;0; -1.1932039E-01;  1.0000000E+04;  0.0000000E+00;  0.0000000E+00;  1.0000000E+04;  0.0000000E+00;  1.0000000E+04; -9.7444415E-02;  0.0000000E+00; -2.1875968E-02;  1.0795297E+03;
  1.4000000E-01;  9.9999998E-03; -3.4000000E-01;524;  0.0000000E+00;  0.0000000E+00;  0.0000000E+00;  1.0002869E+03;  4.0000001E-01;  2.3762288E+02;0;  0.0000000E+00;  0.0000000E+00;  0.0000000E+00;0; -1.0453618E-01;  1.0000000E+04;  0.0000000E+00;  0.0000000E+00;  1.0000000E+04;  0.0000000E+00;  1.0000000E+04; -8.0201000E-02;  0.0000000E+00; -2.4335174E-02;  1.9228038E+03;
  1.4000000E-01;  9.9999998E-03; -3.1999999E-01;525;  0.0000000E+00;  0.0000000E+00;  0.0000000E+00;  1.0003984E+03;  4.0000001E-01;  3.3006470E+02;0;  0.0000000E+00;  0.0000000E+00;  0.0000000E+00;0; -1.4513168E-01;  1.0000000E+04;  0.0000000E+00;  0.0000000E+00;  1.0000000E+04;  0.0000000E+00;  1.0000000E+04; -1.2140132E-01;  0.0000000E+00; -2.3730360E-02;  2.7350422E+03;
  1.6000000E-01;  9.9999998E-03; -3.4000000E-01;534;  0.0000000E+00;  0.0000000E+00;  0.0000000E+00;  1.0003767E+03;  4.0000001E-01;  3.1208990E+02;0;  0.0000000E+00;  0.0000000E+00;  0.0000000E+00;0; -1.3369295E-01;  1.0000000E+04;  0.0000000E+00;  0.0000000E+00;  1.0000000E+04;  0.0000000E+00;  1.0000000E+04; -1.0456213E-01;  0.0000000E+00; -2.9130816E-02;  4.1052813E+03;
  1.6000000E-01;  9.9999998E-03; -3.1999999E-01;535;  0.0000000E+00;  0.0000000E+00;  0.0000000E+00;  1.0005125E+03;  4.0000001E-01;  4.2458051E+02;0;  0.0000000E+00;  0.0000000E+00;  0.0000000E+00;0; -1.8181716E-01;  1.0000000E+04;  0.0000000E+00;  0.0000000E+00;  1.0000000E+04;  0.0000000E+00;  1.0000000E+04; -1.5336464E-01;  0.0000000E+00; -2.8452519E-02;  6.2167900E+03;
  1.8000001E-01;  9.9999998E-03; -3.4000000E-01;544;  0.0000000E+00;  0.0000000E+00;  0.0000000E+00;  1.0004962E+03;  4.0000001E-01;  4.1105005E+02;0;  0.0000000E+00;  0.0000000E+00;  0.0000000E+00;0; -1.7139120E-01;  1.0000000E+04;  0.0000000E+00;  0.0000000E+00;  1.0000000E+04;  0.0000000E+00;  1.0000000E+04; -1.3244179E-01;  0.0000000E+00; -3.8949411E-02;  7.4992559E+03;
  1.8000001E-01;  9.9999998E-03; -3.1999999E-01;545;  0.0000000E+00;  0.0000000E+00;  0.0000000E+00;  1.0006608E+03;  4.0000001E-01;  5.4744122E+02;0;  0.0000000E+00;  0.0000000E+00;  0.0000000E+00;0; -2.2844127E-01;  1.0000000E+04;  0.0000000E+00;  0.0000000E+00;  1.0000000E+04;  0.0000000E+00;  1.0000000E+04; -1.9006903E-01;  0.0000000E+00; -3.8372226E-02;  1.1942099E+04;
  2.0000000E-01;  9.9999998E-03; -3.4000000E-01;553;  0.0000000E+00;  0.0000000E+00;  0.0000000E+00;  1.0006356E+03;  4.0000001E-01;  5.2650354E+02;0;  0.0000000E+00;  0.0000000E+00;  0.0000000E+00;0; -2.1402951E-01;  1.0000000E+04;  0.0000000E+00;  0.0000000E+00;  1.0000000E+04;  0.0000000E+00;  1.0000000E+04; -1.5725373E-01;  0.0000000E+00; -5.6775775E-02;  1.1144743E+04;
  2.0000000E-01;  9.9999998E-03; -3.1999999E-01;554;  0.0000000E+00;  0.0000000E+00;  0.0000000E+00;  1.0008342E+03;  4.0000001E-01;  6.9114087E+02;0;  0.0000000E+00;  0.0000000E+00;  0.0000000E+00;0; -2.8097829E-01;  1.0000000E+04;  0.0000000E+00;  0.0000000E+00;  1.0000000E+04;  0.0000000E+00;  1.0000000E+04; -2.2418004E-01;  0.0000000E+00; -5.6798249E-02;  1.8846389E+04;
 -2.2000000E-01;  9.9999998E-03; -1.8000001E-01;10;  0.0000000E+00;  0.0000000E+00;  0.0000000E+00;  1.0000000E+03;  4.0000001E-01;  0.0000000E+00;0;  0.0000000E+00;  0.0000000E+00;  0.0000000E+00;0;  0.0000000E+00;  1.0000000E+04;  0.0000000E+00;  0.0000000E+00;  1.0000000E+04;  0.0000000E+00;  1.0000000E+04;  0.0000000E+00;  0.0000000E+00;  0.0000000E+00;  0.0000000E+00;
 -2.2000000E-01;  9.9999998E-03; -1.6000000E-01;11;  0.0000000E+00;  0.0000000E+00;  0.0000000E+00;  1.0000000E+03;  4.0000001E-01;  0.0000000E+00;0;  0.0000000E+00;  0.0000000E+00;  0.0000000E+00;0;  0.0000000E+00;  1.0000000E+04;  0.0000000E+00;  0.0000000E+00;  1.0000000E+04;  0.0000000E+00;  1.0000000E+04;  0.0000000E+00;  0.0000000E+00;  0.0000000E+00;  0.0000000E+00;
 -2.2000000E-01;  9.9999998E-03; -1.4000000E-01;12;  0.0000000E+00;  0.0000000E+00;  0.0000000E+00;  1.0000000E+03;  4.0000001E-01;  0.0000000E+00;0;  0.0000000E+00;  0.0000000E+00;  0.0000000E+00;0;  0.0000000E+00;  1.0000000E+04;  0.0000000E+00;  0.0000000E+00;  1.0000000E+04;  0.0000000E+00;  1.0000000E+04;  0.0000000E+00;  0.0000000E+00;  0.0000000E+00;  0.0000000E+00;
 -2.2000000E-01;  9.9999998E-03; -1.2000000E-01;13;  0.0000000E+00;  0.0000000E+00;  0.0000000E+00;  1.0000000E+03;  4.0000001E-01;  0.0000000E+00;0;  0.0000000E+00;  0.0000000E+00;  0.0000000E+00;0;  0.0000000E+00;  1.0000000E+04;  0.0000000E+00;  0.0000000E+00;  1.0000000E+04;  0.0000000E+00;  1.0000000E+04;  0.0000000E+00;  0.0000000E+00;  0.0000000E+00;  0.0000000E+00;
 -2.2000000E-01;  9.9999998E-03; -1.0000000E-01;14;  0.0000000E+00;  0.0000000E+00;  0.0000000E+00;  1.0000000E+03;  4.0000001E-01;  0.0000000E+00;0;  0.0000000E+00;  0.0000000E+00;  0.0000000E+00;0;  0.0000000E+00;  1.0000000E+04;  0.0000000E+00;  0.0000000E+00;  1.0000000E+04;  0.0000000E+00;  1.0000000E+04;  0.0000000E+00;  0.0000000E+00;  0.0000000E+00;  0.0000000E+00;
 -2.2000000E-01;  9.9999998E-03; -7.9999998E-02;15;  0.0000000E+00;  0.0000000E+00;  0.0000000E+00;  1.0000000E+03;  4.0000001E-01;  0.0000000E+00;0;  0.0000000E+00;  0.0000000E+00;  0.0000000E+00;0;  0.0000000E+00;  1.0000000E+04;  0.0000000E+00;  0.0000000E+00;  1.0000000E+04;  0.0000000E+00;  1.0000000E+04;  0.0000000E+00;  0.0000000E+00;  0.0000000E+00;  0.0000000E+00;
 -2.2000000E-01;  9.9999998E-03; -5.9999999E-02;16;  0.0000000E+00;  0.0000000E+00;  0.0000000E+00;  1.0000000E+03;  4.0000001E-01;  0.0000000E+00;0;  0.0000000E+00;  0.0000000E+00;  0.0000000E+00;0;  0.0000000E+00;  1.0000000E+04;  0.0000000E+00;  0.0000000E+00;  1.0000000E+04;  0.0000000E+00;  1.0000000E+04;  0.0000000E+00;  0.0000000E+00;  0.0000000E+00;  0.0000000E+00;
 -2.2000000E-01;  9.9999998E-03; -3.9999999E-02;17;  0.0000000E+00;  0.0000000E+00;  0.0000000E+00;  1.0000000E+03;  4.0000001E-01;  0.0000000E+00;0;  0.0000000E+00;  0.0000000E+00;  0.0000000E+00;0;  0.0000000E+00;  1.0000000E+04;  0.0000000E+00;  0.0000000E+00;  1.0000000E+04;  0.0000000E+00;  1.0000000E+04;  0.0000000E+00;  0.0000000E+00;  0.0000000E+00;  0.0000000E+00;
 -2.2000000E-01;  9.9999998E-03; -2.0000000E-02;18;  0.0000000E+00;  0.0000000E+00;  0.0000000E+00;  1.0000000E+03;  4.0000001E-01;  0.0000000E+00;0;  0.0000000E+00;  0.0000000E+00;  0.0000000E+00;0;  0.0000000E+00;  1.0000000E+04;  0.0000000E+00;  0.0000000E+00;  1.0000000E+04;  0.0000000E+00;  1.0000000E+04;  0.0000000E+00;  0.0000000E+00;  0.0000000E+00;  0.0000000E+00;
 -2.0000000E-01;  9.9999998E-03; -1.8000001E-01;50;  0.0000000E+00;  0.0000000E+00;  0.0000000E+00;  1.0000000E+03;  4.0000001E-01;  0.0000000E+00;0;  0.0000000E+00;  0.0000000E+00;  0.0000000E+00;0;  0.0000000E+00;  1.0000000E+04;  0.0000000E+00;  0.0000000E+00;  1.0000000E+04;  0.0000000E+00;  1.0000000E+04;  0.0000000E+00;  0.0000000E+00;  0.0000000E+00;  0.0000000E+00;
 -2.0000000E-01;  9.9999998E-03; -1.6000000E-01;51;  0.0000000E+00;  0.0000000E+00;  0.0000000E+00;  1.0000000E+03;  4.0000001E-01;  0.0000000E+00;0;  0.0000000E+00;  0.0000000E+00;  0.0000000E+00;0;  0.0000000E+00;  1.0000000E+04;  0.0000000E+00;  0.0000000E+00;  1.0000000E+04;  0.0000000E+00;  1.0000000E+04;  0.0000000E+00;  0.0000000E+00;  0.0000000E+00;  0.0000000E+00;
 -2.0000000E-01;  9.9999998E-03; -1.4000000E-01;52;  0.0000000E+00;  0.0000000E+00;  0.0000000E+00;  1.0000000E+03;  4.0000001E-01;  0.0000000E+00;0;  0.0000000E+00;  0.0000000E+00;  0.0000000E+00;0;  0.0000000E+00;  1.0000000E+04;  0.0000000E+00;  0.0000000E+00;  1.0000000E+04;  0.0000000E+00;  1.0000000E+04;  0.0000000E+00;  0.0000000E+00;  0.0000000E+00;  0.0000000E+00;
 -2.0000000E-01;  9.9999998E-03; -1.2000000E-01;53;  0.0000000E+00;  0.0000000E+00;  0.0000000E+00;  1.0000000E+03;  4.0000001E-01;  0.0000000E+00;0;  0.0000000E+00;  0.0000000E+00;  0.0000000E+00;0;  0.0000000E+00;  1.0000000E+04;  0.0000000E+00;  0.0000000E+00;  1.0000000E+04;  0.0000000E+00;  1.0000000E+04;  0.0000000E+00;  0.0000000E+00;  0.0000000E+00;  0.0000000E+00;
 -2.0000000E-01;  9.9999998E-03; -1.0000000E-01;54;  0.0000000E+00;  0.0000000E+00;  0.0000000E+00;  1.0000000E+03;  4.0000001E-01;  0.0000000E+00;0;  0.0000000E+00;  0.0000000E+00;  0.0000000E+00;0;  0.0000000E+00;  1.0000000E+04;  0.0000000E+00;  0.0000000E+00;  1.0000000E+04;  0.0000000E+00;  1.0000000E+04;  0.0000000E+00;  0.0000000E+00;  0.0000000E+00;  0.0000000E+00;
 -2.0000000E-01;  9.9999998E-03; -7.9999998E-02;55;  0.0000000E+00;  0.0000000E+00;  0.0000000E+00;  1.0000000E+03;  4.0000001E-01;  0.0000000E+00;0;  0.0000000E+00;  0.0000000E+00;  0.0000000E+00;0;  0.0000000E+00;  1.0000000E+04;  0.0000000E+00;  0.0000000E+00;  1.0000000E+04;  0.0000000E+00;  1.0000000E+04;  0.0000000E+00;  0.0000000E+00;  0.0000000E+00;  0.0000000E+00;
 -2.0000000E-01;  9.9999998E-03; -5.9999999E-02;56;  0.0000000E+00;  0.0000000E+00;  0.0000000E+00;  1.0000000E+03;  4.0000001E-01;  0.0000000E+00;0;  0.0000000E+00;  0.0000000E+00;  0.0000000E+00;0;  0.0000000E+00;  1.0000000E+04;  0.0000000E+00;  0.0000000E+00;  1.0000000E+04;  0.0000000E+00;  1.0000000E+04;  0.0000000E+00;  0.0000000E+00;  0.0000000E+00;  0.0000000E+00;
 -2.0000000E-01;  9.9999998E-03; -3.9999999E-02;57;  0.0000000E+00;  0.0000000E+00;  0.0000000E+00;  1.0000000E+03;  4.0000001E-01;  0.0000000E+00;0;  0.0000000E+00;  0.0000000E+00;  0.0000000E+00;0;  0.0000000E+00;  1.0000000E+04;  0.0000000E+00;  0.0000000E+00;  1.0000000E+04;  0.0000000E+00;  1.0000000E+04;  0.0000000E+00;  0.0000000E+00;  0.0000000E+00;  0.0000000E+00;
 -2.0000000E-01;  9.9999998E-03; -2.0000000E-02;58;  0.0000000E+00;  0.0000000E+00;  0.0000000E+00;  1.0000000E+03;  4.0000001E-01;  0.0000000E+00;0;  0.0000000E+00;  0.0000000E+00;  0.0000000E+00;0;  0.0000000E+00;  1.0000000E+04;  0.0000000E+00;  0.0000000E+00;  1.0000000E+04;  0.0000000E+00;  1.0000000E+04;  0.0000000E+00;  0.0000000E+00;  0.0000000E+00;  0.0000000E+00;
 -1.8000001E-01;  9.9999998E-03; -1.8000001E-01;91;  0.0000000E+00;  0.0000000E+00;  0.0000000E+00;  1.0000000E+03;  4.0000001E-01;  0.0000000E+00;0;  0.0000000E+00;  0.0000000E+00;  0.0000000E+00;0;  0.0000000E+00;  1.0000000E+04;  0.0000000E+00;  0.0000000E+00;  1.0000000E+04;  0.0000000E+00;  1.0000000E+04;  0.0000000E+00;  0.0000000E+00;  0.0000000E+00;  0.0000000E+00;
 -1.8000001E-01;  9.9999998E-03; -1.6000000E-01;92;  0.0000000E+00;  0.0000000E+00;  0.0000000E+00;  1.0000000E+03;  4.0000001E-01;  0.0000000E+00;0;  0.0000000E+00;  0.0000000E+00;  0.0000000E+00;0;  0.0000000E+00;  1.0000000E+04;  0.0000000E+00;  0.0000000E+00;  1.0000000E+04;  0.0000000E+00;  1.0000000E+04;  0.0000000E+00;  0.0000000E+00;  0.0000000E+00;  0.0000000E+00;
 -1.8000001E-01;  9.9999998E-03; -1.4000000E-01;93;  0.0000000E+00;  0.0000000E+00;  0.0000000E+00;  1.0000000E+03;  4.0000001E-01;  0.0000000E+00;0;  0.0000000E+00;  0.0000000E+00;  0.0000000E+00;0;  0.0000000E+00;  1.0000000E+04;  0.0000000E+00;  0.0000000E+00;  1.0000000E+04;  0.0000000E+00;  1.0000000E+04;  0.0000000E+00;  0.0000000E+00;  0.0000000E+00;  0.0000000E+00;
 -1.8000001E-01;  9.9999998E-03; -1.2000000E-01;94;  0.0000000E+00;  0.0000000E+00;  0.0000000E+00;  1.0000000E+03;  4.0000001E-01;  0.0000000E+00;0;  0.0000000E+00;  0.0000000E+00;  0.0000000E+00;0;  0.0000000E+00;  1.0000000E+04;  0.0000000E+00;  0.0000000E+00;  1.0000000E+04;  0.0000000E+00;  1.0000000E+04;  0.0000000E+00;  0.0000000E+00;  0.0000000E+00;  0.0000000E+00;
 -1.8000001E-01;  9.9999998E-03; -1.0000000E-01;95;  0.0000000E+00;  0.0000000E+00;  0.0000000E+00;  1.0000000E+03;  4.0000001E-01;  0.0000000E+00;0;  0.0000000E+00;  0.0000000E+00;  0.0000000E+00;0;  0.0000000E+00;  1.0000000E+04;  0.0000000E+00;  0.0000000E+00;  1.0000000E+04;  0.0000000E+00;  1.0000000E+04;  0.0000000E+00;  0.0000000E+00;  0.0000000E+00;  0.0000000E+00;
 -1.8000001E-01;  9.9999998E-03; -7.9999998E-02;96;  0.0000000E+00;  0.0000000E+00;  0.0000000E+00;  1.0000000E+03;  4.0000001E-01;  0.0000000E+00;0;  0.0000000E+00;  0.0000000E+00;  0.0000000E+00;0;  0.0000000E+00;  1.0000000E+04;  0.0000000E+00;  0.0000000E+00;  1.0000000E+04;  0.0000000E+00;  1.0000000E+04;  0.0000000E+00;  0.0000000E+00;  0.0000000E+00;  0.0000000E+00;
 -1.8000001E-01;  9.9999998E-03; -5.9999999E-02;97;  0.0000000E+00;  0.0000000E+00;  0.0000000E+00;  1.0000000E+03;  4.0000001E-01;  0.0000000E+00;0;  0.0000000E+00;  0.0000000E+00;  0.0000000E+00;0;  0.0000000E+00;  1.0000000E+04;  0.0000000E+00;  0.0000000E+00;  1.0000000E+04;  0.0000000E+00;  1.0000000E+04;  0.0000000E+00;  0.0000000E+00;  0.0000000E+00;  0.0000000E+00;
 -1.8000001E-01;  9.9999998E-03; -3.9999999E-02;98;  0.0000000E+00;  0.0000000E+00;  0.0000000E+00;  1.0000000E+03;  4.0000001E-01;  0.0000000E+00;0;  0.0000000E+00;  0.0000000E+00;  0.0000000E+00;0;  0.0000000E+00;  1.0000000E+04;  0.0000000E+00;  0.0000000E+00;  1.0000000E+04;  0.0000000E+00;  1.0000000E+04;  0.0000000E+00;  0.0000000E+00;  0.0000000E+00;  0.0000000E+00;
 -1.8000001E-01;  9.9999998E-03; -2.0000000E-02;99;  0.0000000E+00;  0.0000000E+00;  0.0000000E+00;  1.0000000E+03;  4.0000001E-01;  0.0000000E+00;0;  0.0000000E+00;  0.0000000E+00;  0.0000000E+00;0;  0.0000000E+00;  1.0000000E+04;  0.0000000E+00;  0.0000000E+00;  1.0000000E+04;  0.0000000E+00;  1.0000000E+04;  0.0000000E+00;  0.0000000E+00;  0.0000000E+00;  0.0000000E+00;
 -1.6000000E-01;  9.9999998E-03; -1.8000001E-01;132;  0.0000000E+00;  0.0000000E+00;  0.0000000E+00;  1.0000000E+03;  4.0000001E-01;  0.0000000E+00;0;  0.0000000E+00;  0.0000000E+00;  0.0000000E+00;0; -1.8677487E-05;  1.0000000E+04;  0.0000000E+00;  0.0000000E+00;  1.0000000E+04;  0.0000000E+00;  1.0000000E+04; -1.8714667E-05;  0.0000000E+00;  3.7180644E-08;  4.1403691E-03;
 -1.6000000E-01;  9.9999998E-03; -1.6000000E-01;133;  0.0000000E+00;  0.0000000E+00;  0.0000000E+00;  1.0000000E+03;  4.0000001E-01;  0.0000000E+00;0;  0.0000000E+00;  0.0000000E+00;  0.0000000E+00;0; -1.9357152E-05;  1.0000000E+04;  0.0000000E+00;  0.0000000E+00;  1.0000000E+04;  0.0000000E+00;  1.0000000E+04; -1.9391526E-05;  0.0000000E+00;  3.4374210E-08;  4.1630059E-03;
 -1.6000000E-01;  9.9999998E-03; -1.4000000E-01;134;  0.0000000E+00;  0.0000000E+00;  0.0000000E+00;  1.0000000E+03;  4.0000001E-01;  0.0000000E+00;0;  0.0000000E+00;  0.0000000E+00;  0.0000000E+00;0; -1.9813097E-05;  1.0000000E+04;  0.0000000E+00;  0.0000000E+00;  1.0000000E+04;  0.0000000E+00;  1.0000000E+04; -1.9843912E-05;  0.0000000E+00;  3.0815748E-08;  4.1289921E-03;
 -1.6000000E-01;  9.9999998E-03; -1.2000000E-01;135;  0.0000000E+00;  0.0000000E+00;  0.0000000E+00;  1.0000000E+03;  4.0000001E-01;  0.0000000E+00;0;  0.0000000E+00;  0.0000000E+00;  0.0000000E+00;0; -2.0101535E-05;  1.0000000E+04;  0.0000000E+00;  0.0000000E+00;  1.0000000E+04;  0.0000000E+00;  1.0000000E+04; -2.0129090E-05;  0.0000000E+00;  2.7553730E-08;  4.0710540E-03;
 -1.6000000E-01;  9.9999998E-03; -1.0000000E-01;136;  0.0000000E+00;  0.0000000E+00;  0.0000000E+00;  1.0000000E+03;  4.0000001E-01;  0.0000000E+00;0;  0.0000000E+00;  0.0000000E+00;  0.0000000E+00;0; -2.0272215E-05;  1.0000000E+04;  0.0000000E+00;  0.0000000E+00;  1.0000000E+04;  0.0000000E+00;  1.0000000E+04; -2.0296793E-05;  0.0000000E+00;  2.4577616E-08;  4.0002940E-03;
 -1.6000000E-01;  9.9999998E-03; -7.9999998E-02;137;  0.0000000E+00;  0.0000000E+00;  0.0000000E+00;  1.0000000E+03;  4.0000001E-01;  0.0000000E+00;0;  0.0000000E+00;  0.0000000E+00;  0.0000000E+00;0; -2.0364811E-05;  1.0000000E+04;  0.0000000E+00;  0.0000000E+00;  1.0000000E+04;  0.0000000E+00;  1.0000000E+04; -2.0386509E-05;  0.0000000E+00;  2.1698146E-08;  3.9257049E-03;
 -1.6000000E-01;  9.9999998E-03; -5.9999999E-02;138;  0.0000000E+00;  0.0000000E+00;  0.0000000E+00;  1.0000000E+03;  4.0000001E-01;  0.0000000E+00;0;  0.0000000E+00;  0.0000000E+00;  0.0000000E+00;0; -2.0408652E-05;  1.0000000E+04;  0.0000000E+00;  0.0000000E+00;  1.0000000E+04;  0.0000000E+00;  1.0000000E+04; -2.0427975E-05;  0.0000000E+00;  1.9322904E-08;  3.8588033E-03;
 -1.6000000E-01;  9.9999998E-03; -3.9999999E-02;139;  0.0000000E+00;  0.0000000E+00;  0.0000000E+00;  1.0000000E+03;  4.0000001E-01;  0.0000000E+00;0;  0.0000000E+00;  0.0000000E+00;  0.0000000E+00;0; -2.0425574E-05;  1.0000000E+04;  0.0000000E+00;  0.0000000E+00;  1.0000000E+04;  0.0000000E+00;  1.0000000E+04; -2.0443145E-05;  0.0000000E+00;  1.7571780E-08;  3.8059389E-03;
 -1.6000000E-01;  9.9999998E-03; -2.0000000E-02;140;  0.0000000E+00;  0.0000000E+00;  0.0000000E+00;  1.0000000E+03;  4.0000001E-01;  0.0000000E+00;0;  0.0000000E+00;  0.0000000E+00;  0.0000000E+00;0; -2.0430209E-05;  1.0000000E+04;  0.0000000E+00;  0.0000000E+00;  1.0000000E+04;  0.0000000E+00;  1.0000000E+04; -2.0446645E-05;  0.0000000E+00;  1.6436859E-08;  3.7722043E-03;
 -1.4000000E-01;  9.9999998E-03; -1.8000001E-01;173;  0.0000000E+00;  0.0000000E+00;  0.0000000E+00;  1.0000015E+03;  4.0000001E-01;  1.1851515E+00;0;  0.0000000E+00;  0.0000000E+00;  0.0000000E+00;0; -6.7503884E-04;  1.0000000E+04;  0.0000000E+00;  0.0000000E+00;  1.0000000E+04;  0.0000000E+00;  1.0000000E+04; -6.7959726E-04;  0.0000000E+00;  4.5584216E-06;  2.2238557E-01;
 -1.4000000E-01;  9.9999998E-03; -1.6000000E-01;174;  0.0000000E+00;  0.0000000E+00;  0.0000000E+00;  1.0000015E+03;  4.0000001E-01;  1.2839141E+00;0;  0.0000000E+00;  0.0000000E+00;  0.0000000E+00;0; -7.0171559E-04;  1.0000000E+04;  0.0000000E+00;  0.0000000E+00;  1.0000000E+04;  0.0000000E+00;  1.0000000E+04; -7.0597761E-04;  0.0000000E+00;  4.2620186E-06;  2.1776834E-01;
 -1.4000000E-01;  9.9999998E-03; -1.4000000E-01;175;  0.0000000E+00;  0.0000000E+00;  0.0000000E+00;  1.0000015E+03;  4.0000001E-01;  1.2839141E+00;0;  0.0000000E+00;  0.0000000E+00;  0.0000000E+00;0; -7.2017452E-04;  1.0000000E+04;  0.0000000E+00;  0.0000000E+00;  1.0000000E+04;  0.0000000E+00;  1.0000000E+04; -7.2405365E-04;  0.0000000E+00;  3.8791395E-06;  2.0928028E-01;
 -1.4000000E-01;  9.9999998E-03; -1.2000000E-01;176;  0.0000000E+00;  0.0000000E+00;  0.0000000E+00;  1.0000016E+03;  4.0000001E-01;  1.2839141E+00;0;  0.0000000E+00;  0.0000000E+00;  0.0000000E+00;0; -7.3233619E-04;  1.0000000E+04;  0.0000000E+00;  0.0000000E+00;  1.0000000E+04;  0.0000000E+00;  1.0000000E+04; -7.3581515E-04;  0.0000000E+00;  3.4789452E-06;  1.9922812E-01;
 -1.4000000E-01;  9.9999998E-03; -1.0000000E-01;177;  0.0000000E+00;  0.0000000E+00;  0.0000000E+00;  1.0000016E+03;  4.0000001E-01;  1.2839141E+00;0;  0.0000000E+00;  0.0000000E+00;  0.0000000E+00;0; -7.3992240E-04;  1.0000000E+04;  0.0000000E+00;  0.0000000E+00;  1.0000000E+04;  0.0000000E+00;  1.0000000E+04; -7.4302114E-04;  0.0000000E+00;  3.0987512E-06;  1.8905757E-01;
 -1.4000000E-01;  9.9999998E-03; -7.9999998E-02;178;  0.0000000E+00;  0.0000000E+00;  0.0000000E+00;  1.0000016E+03;  4.0000001E-01;  1.2839141E+00;0;  0.0000000E+00;  0.0000000E+00;  0.0000000E+00;0; -7.4435846E-04;  1.0000000E+04;  0.0000000E+00;  0.0000000E+00;  1.0000000E+04;  0.0000000E+00;  1.0000000E+04; -7.4711803E-04;  0.0000000E+00;  2.7595815E-06;  1.7967409E-01;
 -1.4000000E-01;  9.9999998E-03; -5.9999999E-02;179;  0.0000000E+00;  0.0000000E+00;  0.0000000E+00;  1.0000016E+03;  4.0000001E-01;  1.2839141E+00;0;  0.0000000E+00;  0.0000000E+00;  0.0000000E+00;0; -7.4676052E-04;  1.0000000E+04;  0.0000000E+00;  0.0000000E+00;  1.0000000E+04;  0.0000000E+00;  1.0000000E+04; -7.4923411E-04;  0.0000000E+00;  2.4736041E-06;  1.7166282E-01;
 -1.4000000E-01;  9.9999998E-03; -3.9999999E-02;180;  0.0000000E+00;  0.0000000E+00;  0.0000000E+00;  1.0000016E+03;  4.0000001E-01;  1.2839141E+00;0;  0.0000000E+00;  0.0000000E+00;  0.0000000E+00;0; -7.4793678E-04;  1.0000000E+04;  0.0000000E+00;  0.0000000E+00;  1.0000000E+04;  0.0000000E+00;  1.0000000E+04; -7.5019314E-04;  0.0000000E+00;  2.2563790E-06;  1.6555572E-01;
 -1.4000000E-01;  9.9999998E-03; -2.0000000E-02;181;  0.0000000E+00;  0.0000000E+00;  0.0000000E+00;  1.0000016E+03;  4.0000001E-01;  1.2839141E+00;0;  0.0000000E+00;  0.0000000E+00;  0.0000000E+00;0; -7.4843201E-04;  1.0000000E+04;  0.0000000E+00;  0.0000000E+00;  1.0000000E+04;  0.0000000E+00;  1.0000000E+04; -7.5055362E-04;  0.0000000E+00;  2.1216206E-06;  1.6174541E-01;
 -1.2000000E-01;  9.9999998E-03; -1.8000001E-01;214;  0.0000000E+00;  0.0000000E+00;  0.0000000E+00;  1.0000083E+03;  4.0000001E-01;  6.9133835E+00;0;  0.0000000E+00;  0.0000000E+00;  0.0000000E+00;0; -3.6982954E-03;  1.0000000E+04;  0.0000000E+00;  0.0000000E+00;  1.0000000E+04;  0.0000000E+00;  1.0000000E+04; -3.7409400E-03;  0.0000000E+00;  4.2644620E-05;  1.6187376E+00;
 -1.2000000E-01;  9.9999998E-03; -1.6000000E-01;215;  0.0000000E+00;  0.0000000E+00;  0.0000000E+00;  1.0000085E+03;  4.0000001E-01;  7.1109090E+00;0;  0.0000000E+00;  0.0000000E+00;  0.0000000E+00;0; -3.8508789E-03;  1.0000000E+04;  0.0000000E+00;  0.0000000E+00;  1.0000000E+04;  0.0000000E+00;  1.0000000E+04; -3.8913733E-03;  0.0000000E+00;  4.0494484E-05;  1.5739911E+00;
 -1.2000000E-01;  9.9999998E-03; -1.4000000E-01;216;  0.0000000E+00;  0.0000000E+00;  0.0000000E+00;  1.0000087E+03;  4.0000001E-01;  7.2096715E+00;0;  0.0000000E+00;  0.0000000E+00;  0.0000000E+00;0; -3.9585540E-03;  1.0000000E+04;  0.0000000E+00;  0.0000000E+00;  1.0000000E+04;  0.0000000E+00;  1.0000000E+04; -3.9957645E-03;  0.0000000E+00;  3.7210353E-05;  1.4919392E+00;
 -1.2000000E-01;  9.9999998E-03; -1.2000000E-01;217;  0.0000000E+00;  0.0000000E+00;  0.0000000E+00;  1.0000089E+03;  4.0000001E-01;  7.4071970E+00;0;  0.0000000E+00;  0.0000000E+00;  0.0000000E+00;0; -4.0311520E-03;  1.0000000E+04;  0.0000000E+00;  0.0000000E+00;  1.0000000E+04;  0.0000000E+00;  1.0000000E+04; -4.0647411E-03;  0.0000000E+00;  3.3589135E-05;  1.3950615E+00;
 -1.2000000E-01;  9.9999998E-03; -1.0000000E-01;218;  0.0000000E+00;  0.0000000E+00;  0.0000000E+00;  1.0000090E+03;  4.0000001E-01;  7.4071970E+00;0;  0.0000000E+00;  0.0000000E+00;  0.0000000E+00;0; -4.0777936E-03;  1.0000000E+04;  0.0000000E+00;  0.0000000E+00;  1.0000000E+04;  0.0000000E+00;  1.0000000E+04; -4.1078664E-03;  0.0000000E+00;  3.0072686E-05;  1.2976164E+00;
 -1.2000000E-01;  9.9999998E-03; -7.9999998E-02;219;  0.0000000E+00;  0.0000000E+00;  0.0000000E+00;  1.0000090E+03;  4.0000001E-01;  7.4071970E+00;0;  0.0000000E+00;  0.0000000E+00;  0.0000000E+00;0; -4.1062073E-03;  1.0000000E+04;  0.0000000E+00;  0.0000000E+00;  1.0000000E+04;  0.0000000E+00;  1.0000000E+04; -4.1331155E-03;  0.0000000E+00;  2.6908288E-05;  1.2084268E+00;
 -1.2000000E-01;  9.9999998E-03; -5.9999999E-02;220;  0.0000000E+00;  0.0000000E+00;  0.0000000E+00;  1.0000090E+03;  4.0000001E-01;  7.5059595E+00;0;  0.0000000E+00;  0.0000000E+00;  0.0000000E+00;0; -4.1224724E-03;  1.0000000E+04;  0.0000000E+00;  0.0000000E+00;  1.0000000E+04;  0.0000000E+00;  1.0000000E+04; -4.1467352E-03;  0.0000000E+00;  2.4262643E-05;  1.1333808E+00;
 -1.2000000E-01;  9.9999998E-03; -3.9999999E-02;221;  0.0000000E+00;  0.0000000E+00;  0.0000000E+00;  1.0000090E+03;  4.0000001E-01;  7.5059595E+00;0;  0.0000000E+00;  0.0000000E+00;  0.0000000E+00;0; -4.1310899E-03;  1.0000000E+04;  0.0000000E+00;  0.0000000E+00;  1.0000000E+04;  0.0000000E+00;  1.0000000E+04; -4.1533513E-03;  0.0000000E+00;  2.2261594E-05;  1.0766364E+00;
 -1.2000000E-01;  9.9999998E-03; -2.0000000E-02;222;  0.0000000E+00;  0.0000000E+00;  0.0000000E+00;  1.0000090E+03;  4.0000001E-01;  7.5059595E+00;0;  0.0000000E+00;  0.0000000E+00;  0.0000000E+00;0; -4.1350941E-03;  1.0000000E+04;  0.0000000E+00;  0.0000000E+00;  1.0000000E+04;  0.0000000E+00;  1.0000000E+04; -4.1561075E-03;  0.0000000E+00;  2.1013278E-05;  1.0413015E+00;
 -1.0000000E-01;  9.9999998E-03; -1.8000001E-01;255;  0.0000000E+00;  0.0000000E+00;  0.0000000E+00;  1.0000261E+03;  4.0000001E-01;  2.1629015E+01;0;  0.0000000E+00;  0.0000000E+00;  0.0000000E+00;0; -1.1683429E-02;  1.0000000E+04;  0.0000000E+00;  0.0000000E+00;  1.0000000E+04;  0.0000000E+00;  1.0000000E+04; -1.1868724E-02;  0.0000000E+00;  1.8529460E-04;  6.2761564E+00;
 -1.0000000E-01;  9.9999998E-03; -1.6000000E-01;256;  0.0000000E+00;  0.0000000E+00;  0.0000000E+00;  1.0000273E+03;  4.0000001E-01;  2.2616640E+01;0;  0.0000000E+00;  0.0000000E+00;  0.0000000E+00;0; -1.2178157E-02;  1.0000000E+04;  0.0000000E+00;  0.0000000E+00;  1.0000000E+04;  0.0000000E+00;  1.0000000E+04; -1.2359184E-02;  0.0000000E+00;  1.8102703E-04;  6.1589975E+00;
 -1.0000000E-01;  9.9999998E-03; -1.4000000E-01;257;  0.0000000E+00;  0.0000000E+00;  0.0000000E+00;  1.0000280E+03;  4.0000001E-01;  2.3110455E+01;0;  0.0000000E+00;  0.0000000E+00;  0.0000000E+00;0; -1.2531066E-02;  1.0000000E+04;  0.0000000E+00;  0.0000000E+00;  1.0000000E+04;  0.0000000E+00;  1.0000000E+04; -1.2699167E-02;  0.0000000E+00;  1.6810081E-04;  5.8102937E+00;
 -1.0000000E-01;  9.9999998E-03; -1.2000000E-01;258;  0.0000000E+00;  0.0000000E+00;  0.0000000E+00;  1.0000282E+03;  4.0000001E-01;  2.3406742E+01;0;  0.0000000E+00;  0.0000000E+00;  0.0000000E+00;0; -1.2772887E-02;  1.0000000E+04;  0.0000000E+00;  0.0000000E+00;  1.0000000E+04;  0.0000000E+00;  1.0000000E+04; -1.2925729E-02;  0.0000000E+00;  1.5284169E-04;  5.3848591E+00;
 -1.0000000E-01;  9.9999998E-03; -1.0000000E-01;259;  0.0000000E+00;  0.0000000E+00;  0.0000000E+00;  1.0000287E+03;  4.0000001E-01;  2.3801792E+01;0;  0.0000000E+00;  0.0000000E+00;  0.0000000E+00;0; -1.2931363E-02;  1.0000000E+04;  0.0000000E+00;  0.0000000E+00;  1.0000000E+04;  0.0000000E+00;  1.0000000E+04; -1.3068995E-02;  0.0000000E+00;  1.3763136E-04;  4.9520850E+00;
 -1.0000000E-01;  9.9999998E-03; -7.9999998E-02;260;  0.0000000E+00;  0.0000000E+00;  0.0000000E+00;  1.0000290E+03;  4.0000001E-01;  2.3999317E+01;0;  0.0000000E+00;  0.0000000E+00;  0.0000000E+00;0; -1.3030385E-02;  1.0000000E+04;  0.0000000E+00;  0.0000000E+00;  1.0000000E+04;  0.0000000E+00;  1.0000000E+04; -1.3154207E-02;  0.0000000E+00;  1.2382219E-04;  4.5552287E+00;
 -1.0000000E-01;  9.9999998E-03; -5.9999999E-02;261;  0.0000000E+00;  0.0000000E+00;  0.0000000E+00;  1.0000291E+03;  4.0000001E-01;  2.4098080E+01;0;  0.0000000E+00;  0.0000000E+00;  0.0000000E+00;0; -1.3089005E-02;  1.0000000E+04;  0.0000000E+00;  0.0000000E+00;  1.0000000E+04;  0.0000000E+00;  1.0000000E+04; -1.3201254E-02;  0.0000000E+00;  1.1224964E-04;  4.2217765E+00;
 -1.0000000E-01;  9.9999998E-03; -3.9999999E-02;262;  0.0000000E+00;  0.0000000E+00;  0.0000000E+00;  1.0000291E+03;  4.0000001E-01;  2.4098080E+01;0;  0.0000000E+00;  0.0000000E+00;  0.0000000E+00;0; -1.3121370E-02;  1.0000000E+04;  0.0000000E+00;  0.0000000E+00;  1.0000000E+04;  0.0000000E+00;  1.0000000E+04; -1.3224891E-02;  0.0000000E+00;  1.0352125E-04;  3.9705424E+00;
 -1.0000000E-01;  9.9999998E-03; -2.0000000E-02;263;  0.0000000E+00;  0.0000000E+00;  0.0000000E+00;  1.0000291E+03;  4.0000001E-01;  2.4098080E+01;0;  0.0000000E+00;  0.0000000E+00;  0.0000000E+00;0; -1.3137098E-02;  1.0000000E+04;  0.0000000E+00;  0.0000000E+00;  1.0000000E+04;  0.0000000E+00;  1.0000000E+04; -1.3235181E-02;  0.0000000E+00;  9.8082201E-05;  3.8144603E+00;
 -7.9999998E-02;  9.9999998E-03; -1.8000001E-01;296;  0.0000000E+00;  0.0000000E+00;  0.0000000E+00;  1.0000621E+03;  4.0000001E-01;  5.1455326E+01;0;  0.0000000E+00;  0.0000000E+00;  0.0000000E+00;0; -2.7570691E-02;  1.0000000E+04;  0.0000000E+00;  0.0000000E+00;  1.0000000E+04;  0.0000000E+00;  1.0000000E+04; -2.8109027E-02;  0.0000000E+00;  5.3833611E-04;  1.7192369E+01;
 -7.9999998E-02;  9.9999998E-03; -1.6000000E-01;297;  0.0000000E+00;  0.0000000E+00;  0.0000000E+00;  1.0000648E+03;  4.0000001E-01;  5.3726868E+01;0;  0.0000000E+00;  0.0000000E+00;  0.0000000E+00;0; -2.8748609E-02;  1.0000000E+04;  0.0000000E+00;  0.0000000E+00;  1.0000000E+04;  0.0000000E+00;  1.0000000E+04; -2.9290348E-02;  0.0000000E+00;  5.4173864E-04;  1.7126066E+01;
 -7.9999998E-02;  9.9999998E-03; -1.4000000E-01;298;  0.0000000E+00;  0.0000000E+00;  0.0000000E+00;  1.0000663E+03;  4.0000001E-01;  5.4912018E+01;0;  0.0000000E+00;  0.0000000E+00;  0.0000000E+00;0; -2.9595288E-02;  1.0000000E+04;  0.0000000E+00;  0.0000000E+00;  1.0000000E+04;  0.0000000E+00;  1.0000000E+04; -3.0104276E-02;  0.0000000E+00;  5.0898740E-04;  1.6166521E+01;
 -7.9999998E-02;  9.9999998E-03; -1.2000000E-01;299;  0.0000000E+00;  0.0000000E+00;  0.0000000E+00;  1.0000674E+03;  4.0000001E-01;  5.5899647E+01;0;  0.0000000E+00;  0.0000000E+00;  0.0000000E+00;0; -3.0181775E-02;  1.0000000E+04;  0.0000000E+00;  0.0000000E+00;  1.0000000E+04;  0.0000000E+00;  1.0000000E+04; -3.0648142E-02;  0.0000000E+00;  4.6636804E-04;  1.4927419E+01;
 -7.9999998E-02;  9.9999998E-03; -1.0000000E-01;300;  0.0000000E+00;  0.0000000E+00;  0.0000000E+00;  1.0000684E+03;  4.0000001E-01;  5.6689747E+01;0;  0.0000000E+00;  0.0000000E+00;  0.0000000E+00;0; -3.0571301E-02;  1.0000000E+04;  0.0000000E+00;  0.0000000E+00;  1.0000000E+04;  0.0000000E+00;  1.0000000E+04; -3.0993845E-02;  0.0000000E+00;  4.2254524E-04;  1.3644979E+01;
 -7.9999998E-02;  9.9999998E-03; -7.9999998E-02;301;  0.0000000E+00;  0.0000000E+00;  0.0000000E+00;  1.0000687E+03;  4.0000001E-01;  5.6986034E+01;0;  0.0000000E+00;  0.0000000E+00;  0.0000000E+00;0; -3.0818785E-02;  1.0000000E+04;  0.0000000E+00;  0.0000000E+00;  1.0000000E+04;  0.0000000E+00;  1.0000000E+04; -3.1201042E-02;  0.0000000E+00;  3.8225699E-04;  1.2461045E+01;
 -7.9999998E-02;  9.9999998E-03; -5.9999999E-02;302;  0.0000000E+00;  0.0000000E+00;  0.0000000E+00;  1.0000689E+03;  4.0000001E-01;  5.7084797E+01;0;  0.0000000E+00;  0.0000000E+00;  0.0000000E+00;0; -3.0968379E-02;  1.0000000E+04;  0.0000000E+00;  0.0000000E+00;  1.0000000E+04;  0.0000000E+00;  1.0000000E+04; -3.1316739E-02;  0.0000000E+00;  3.4835964E-04;  1.1464688E+01;
 -7.9999998E-02;  9.9999998E-03; -3.9999999E-02;303;  0.0000000E+00;  0.0000000E+00;  0.0000000E+00;  1.0000691E+03;  4.0000001E-01;  5.7282322E+01;0;  0.0000000E+00;  0.0000000E+00;  0.0000000E+00;0; -3.1053038E-02;  1.0000000E+04;  0.0000000E+00;  0.0000000E+00;  1.0000000E+04;  0.0000000E+00;  1.0000000E+04; -3.1375803E-02;  0.0000000E+00;  3.2276529E-04;  1.0714173E+01;
 -7.9999998E-02;  9.9999998E-03; -2.0000000E-02;304;  0.0000000E+00;  0.0000000E+00;  0.0000000E+00;  1.0000691E+03;  4.0000001E-01;  5.7282322E+01;0;  0.0000000E+00;  0.0000000E+00;  0.0000000E+00;0; -3.1095212E-02;  1.0000000E+04;  0.0000000E+00;  0.0000000E+00;  1.0000000E+04;  0.0000000E+00;  1.0000000E+04; -3.1402044E-02;  0.0000000E+00;  3.0683179E-04;  1.0248384E+01;
 -5.9999999E-02;  9.9999998E-03; -1.8000001E-01;337;  0.0000000E+00;  0.0000000E+00;  0.0000000E+00;  1.0001201E+03;  4.0000001E-01;  9.9552727E+01;0;  0.0000000E+00;  0.0000000E+00;  0.0000000E+00;0; -5.3054117E-02;  1.0000000E+04;  0.0000000E+00;  0.0000000E+00;  1.0000000E+04;  0.0000000E+00;  1.0000000E+04; -5.4275572E-02;  0.0000000E+00;  1.2214573E-03;  3.7563751E+01;
 -5.9999999E-02;  9.9999998E-03; -1.6000000E-01;338;  0.0000000E+00;  0.0000000E+00;  0.0000000E+00;  1.0001249E+03;  4.0000001E-01;  1.0350323E+02;0;  0.0000000E+00;  0.0000000E+00;  0.0000000E+00;0; -5.5300232E-02;  1.0000000E+04;  0.0000000E+00;  0.0000000E+00;  1.0000000E+04;  0.0000000E+00;  1.0000000E+04; -5.6549065E-02;  0.0000000E+00;  1.2488326E-03;  3.7714741E+01;
 -5.9999999E-02;  9.9999998E-03; -1.4000000E-01;339;  0.0000000E+00;  0.0000000E+00;  0.0000000E+00;  1.0001282E+03;  4.0000001E-01;  1.0626859E+02;0;  0.0000000E+00;  0.0000000E+00;  0.0000000E+00;0; -5.6927636E-02;  1.0000000E+04;  0.0000000E+00;  0.0000000E+00;  1.0000000E+04;  0.0000000E+00;  1.0000000E+04; -5.8116399E-02;  0.0000000E+00;  1.1887624E-03;  3.5736485E+01;
 -5.9999999E-02;  9.9999998E-03; -1.2000000E-01;340;  0.0000000E+00;  0.0000000E+00;  0.0000000E+00;  1.0001307E+03;  4.0000001E-01;  1.0824384E+02;0;  0.0000000E+00;  0.0000000E+00;  0.0000000E+00;0; -5.8063310E-02;  1.0000000E+04;  0.0000000E+00;  0.0000000E+00;  1.0000000E+04;  0.0000000E+00;  1.0000000E+04; -5.9161015E-02;  0.0000000E+00;  1.0977036E-03;  3.2956093E+01;
 -5.9999999E-02;  9.9999998E-03; -1.0000000E-01;341;  0.0000000E+00;  0.0000000E+00;  0.0000000E+00;  1.0001318E+03;  4.0000001E-01;  1.0913270E+02;0;  0.0000000E+00;  0.0000000E+00;  0.0000000E+00;0; -5.8824498E-02;  1.0000000E+04;  0.0000000E+00;  0.0000000E+00;  1.0000000E+04;  0.0000000E+00;  1.0000000E+04; -5.9825428E-02;  0.0000000E+00;  1.0009279E-03;  3.0026474E+01;
 -5.9999999E-02;  9.9999998E-03; -7.9999998E-02;342;  0.0000000E+00;  0.0000000E+00;  0.0000000E+00;  1.0001326E+03;  4.0000001E-01;  1.0992280E+02;0;  0.0000000E+00;  0.0000000E+00;  0.0000000E+00;0; -5.9313573E-02;  1.0000000E+04;  0.0000000E+00;  0.0000000E+00;  1.0000000E+04;  0.0000000E+00;  1.0000000E+04; -6.0224194E-02;  0.0000000E+00;  9.1062149E-04;  2.7299332E+01;
 -5.9999999E-02;  9.9999998E-03; -5.9999999E-02;343;  0.0000000E+00;  0.0000000E+00;  0.0000000E+00;  1.0001332E+03;  4.0000001E-01;  1.1041661E+02;0;  0.0000000E+00;  0.0000000E+00;  0.0000000E+00;0; -5.9613336E-02;  1.0000000E+04;  0.0000000E+00;  0.0000000E+00;  1.0000000E+04;  0.0000000E+00;  1.0000000E+04; -6.0447510E-02;  0.0000000E+00;  8.3417294E-04;  2.4996704E+01;
 -5.9999999E-02;  9.9999998E-03; -3.9999999E-02;344;  0.0000000E+00;  0.0000000E+00;  0.0000000E+00;  1.0001334E+03;  4.0000001E-01;  1.1051537E+02;0;  0.0000000E+00;  0.0000000E+00;  0.0000000E+00;0; -5.9785675E-02;  1.0000000E+04;  0.0000000E+00;  0.0000000E+00;  1.0000000E+04;  0.0000000E+00;  1.0000000E+04; -6.0562007E-02;  0.0000000E+00;  7.7633082E-04;  2.3260721E+01;
 -5.9999999E-02;  9.9999998E-03; -2.0000000E-02;345;  0.0000000E+00;  0.0000000E+00;  0.0000000E+00;  1.0001335E+03;  4.0000001E-01;  1.1061414E+02;0;  0.0000000E+00;  0.0000000E+00;  0.0000000E+00;0; -5.9872858E-02;  1.0000000E+04;  0.0000000E+00;  0.0000000E+00;  1.0000000E+04;  0.0000000E+00;  1.0000000E+04; -6.0613163E-02;  0.0000000E+00;  7.4030348E-04;  2.2183352E+01;
 -3.9999999E-02;  9.9999998E-03; -1.8000001E-01;378;  0.0000000E+00;  0.0000000E+00;  0.0000000E+00;  1.0001976E+03;  4.0000001E-01;  1.6364967E+02;0;  0.0000000E+00;  0.0000000E+00;  0.0000000E+00;0; -8.6863272E-02;  1.0000000E+04;  0.0000000E+00;  0.0000000E+00;  1.0000000E+04;  0.0000000E+00;  1.0000000E+04; -8.9178257E-02;  0.0000000E+00;  2.3149841E-03;  6.9320633E+01;
 -3.9999999E-02;  9.9999998E-03; -1.6000000E-01;379;  0.0000000E+00;  0.0000000E+00;  0.0000000E+00;  1.0002052E+03;  4.0000001E-01;  1.6997047E+02;0;  0.0000000E+00;  0.0000000E+00;  0.0000000E+00;0; -9.0452954E-02;  1.0000000E+04;  0.0000000E+00;  0.0000000E+00;  1.0000000E+04;  0.0000000E+00;  1.0000000E+04; -9.2840567E-02;  0.0000000E+00;  2.3876159E-03;  6.9837952E+01;
 -3.9999999E-02;  9.9999998E-03; -1.4000000E-01;380;  0.0000000E+00;  0.0000000E+00;  0.0000000E+00;  1.0002106E+03;  4.0000001E-01;  1.7441479E+02;0;  0.0000000E+00;  0.0000000E+00;  0.0000000E+00;0; -9.3070231E-02;  1.0000000E+04;  0.0000000E+00;  0.0000000E+00;  1.0000000E+04;  0.0000000E+00;  1.0000000E+04; -9.5366232E-02;  0.0000000E+00;  2.2960012E-03;  6.6359398E+01;
 -3.9999999E-02;  9.9999998E-03; -1.2000000E-01;381;  0.0000000E+00;  0.0000000E+00;  0.0000000E+00;  1.0002142E+03;  4.0000001E-01;  1.7747644E+02;0;  0.0000000E+00;  0.0000000E+00;  0.0000000E+00;0; -9.4906829E-02;  1.0000000E+04;  0.0000000E+00;  0.0000000E+00;  1.0000000E+04;  0.0000000E+00;  1.0000000E+04; -9.7043142E-02;  0.0000000E+00;  2.1363108E-03;  6.1182858E+01;
 -3.9999999E-02;  9.9999998E-03; -1.0000000E-01;382;  0.0000000E+00;  0.0000000E+00;  0.0000000E+00;  1.0002167E+03;  4.0000001E-01;  1.7955045E+02;0;  0.0000000E+00;  0.0000000E+00;  0.0000000E+00;0; -9.6144959E-02;  1.0000000E+04;  0.0000000E+00;  0.0000000E+00;  1.0000000E+04;  0.0000000E+00;  1.0000000E+04; -9.8105676E-02;  0.0000000E+00;  1.9607136E-03;  5.5639423E+01;
 -3.9999999E-02;  9.9999998E-03; -7.9999998E-02;383;  0.0000000E+00;  0.0000000E+00;  0.0000000E+00;  1.0002180E+03;  4.0000001E-01;  1.8053807E+02;0;  0.0000000E+00;  0.0000000E+00;  0.0000000E+00;0; -9.6946955E-02;  1.0000000E+04;  0.0000000E+00;  0.0000000E+00;  1.0000000E+04;  0.0000000E+00;  1.0000000E+04; -9.8741159E-02;  0.0000000E+00;  1.7942060E-03;  5.0436932E+01;
 -3.9999999E-02;  9.9999998E-03; -5.9999999E-02;384;  0.0000000E+00;  0.0000000E+00;  0.0000000E+00;  1.0002188E+03;  4.0000001E-01;  1.8122942E+02;0;  0.0000000E+00;  0.0000000E+00;  0.0000000E+00;0; -9.7443268E-02;  1.0000000E+04;  0.0000000E+00;  0.0000000E+00;  1.0000000E+04;  0.0000000E+00;  1.0000000E+04; -9.9095479E-02;  0.0000000E+00;  1.6522130E-03;  4.6027824E+01;
 -3.9999999E-02;  9.9999998E-03; -3.9999999E-02;385;  0.0000000E+00;  0.0000000E+00;  0.0000000E+00;  1.0002191E+03;  4.0000001E-01;  1.8152570E+02;0;  0.0000000E+00;  0.0000000E+00;  0.0000000E+00;0; -9.7731844E-02;  1.0000000E+04;  0.0000000E+00;  0.0000000E+00;  1.0000000E+04;  0.0000000E+00;  1.0000000E+04; -9.9276297E-02;  0.0000000E+00;  1.5444512E-03;  4.2698807E+01;
 -3.9999999E-02;  9.9999998E-03; -2.0000000E-02;386;  0.0000000E+00;  0.0000000E+00;  0.0000000E+00;  1.0002193E+03;  4.0000001E-01;  1.8172322E+02;0;  0.0000000E+00;  0.0000000E+00;  0.0000000E+00;0; -9.7879417E-02;  1.0000000E+04;  0.0000000E+00;  0.0000000E+00;  1.0000000E+04;  0.0000000E+00;  1.0000000E+04; -9.9356674E-02;  0.0000000E+00;  1.4772550E-03;  4.0631962E+01;
 -2.0000000E-02;  9.9999998E-03; -1.8000001E-01;419;  0.0000000E+00;  0.0000000E+00;  0.0000000E+00;  1.0002841E+03;  4.0000001E-01;  2.3535133E+02;0;  0.0000000E+00;  0.0000000E+00;  0.0000000E+00;0; -1.2400681E-01;  1.0000000E+04;  0.0000000E+00;  0.0000000E+00;  1.0000000E+04;  0.0000000E+00;  1.0000000E+04; -1.2779391E-01;  0.0000000E+00;  3.7871033E-03;  1.1135576E+02;
 -2.0000000E-02;  9.9999998E-03; -1.6000000E-01;420;  0.0000000E+00;  0.0000000E+00;  0.0000000E+00;  1.0002944E+03;  4.0000001E-01;  2.4394368E+02;0;  0.0000000E+00;  0.0000000E+00;  0.0000000E+00;0; -1.2893608E-01;  1.0000000E+04;  0.0000000E+00;  0.0000000E+00;  1.0000000E+04;  0.0000000E+00;  1.0000000E+04; -1.3286434E-01;  0.0000000E+00;  3.9282544E-03;  1.1231531E+02;
 -2.0000000E-02;  9.9999998E-03; -1.4000000E-01;421;  0.0000000E+00;  0.0000000E+00;  0.0000000E+00;  1.0003018E+03;  4.0000001E-01;  2.5006697E+02;0;  0.0000000E+00;  0.0000000E+00;  0.0000000E+00;0; -1.3254532E-01;  1.0000000E+04;  0.0000000E+00;  0.0000000E+00;  1.0000000E+04;  0.0000000E+00;  1.0000000E+04; -1.3635209E-01;  0.0000000E+00;  3.8067738E-03;  1.0686078E+02;
 -2.0000000E-02;  9.9999998E-03; -1.2000000E-01;422;  0.0000000E+00;  0.0000000E+00;  0.0000000E+00;  1.0003068E+03;  4.0000001E-01;  2.5421500E+02;0;  0.0000000E+00;  0.0000000E+00;  0.0000000E+00;0; -1.3508590E-01;  1.0000000E+04;  0.0000000E+00;  0.0000000E+00;  1.0000000E+04;  0.0000000E+00;  1.0000000E+04; -1.3865545E-01;  0.0000000E+00;  3.5695576E-03;  9.8561539E+01;
 -2.0000000E-02;  9.9999998E-03; -1.0000000E-01;423;  0.0000000E+00;  0.0000000E+00;  0.0000000E+00;  1.0003101E+03;  4.0000001E-01;  2.5688159E+02;0;  0.0000000E+00;  0.0000000E+00;  0.0000000E+00;0; -1.3680577E-01;  1.0000000E+04;  0.0000000E+00;  0.0000000E+00;  1.0000000E+04;  0.0000000E+00;  1.0000000E+04; -1.4010455E-01;  0.0000000E+00;  3.2987720E-03;  8.9542511E+01;
 -2.0000000E-02;  9.9999998E-03; -7.9999998E-02;424;  0.0000000E+00;  0.0000000E+00;  0.0000000E+00;  1.0003121E+03;  4.0000001E-01;  2.5856055E+02;0;  0.0000000E+00;  0.0000000E+00;  0.0000000E+00;0; -1.3792634E-01;  1.0000000E+04;  0.0000000E+00;  0.0000000E+00;  1.0000000E+04;  0.0000000E+00;  1.0000000E+04; -1.4096384E-01;  0.0000000E+00;  3.0375037E-03;  8.1014473E+01;
 -2.0000000E-02;  9.9999998E-03; -5.9999999E-02;425;  0.0000000E+00;  0.0000000E+00;  0.0000000E+00;  1.0003132E+03;  4.0000001E-01;  2.5944940E+02;0;  0.0000000E+00;  0.0000000E+00;  0.0000000E+00;0; -1.3862519E-01;  1.0000000E+04;  0.0000000E+00;  0.0000000E+00;  1.0000000E+04;  0.0000000E+00;  1.0000000E+04; -1.4143805E-01;  0.0000000E+00;  2.8128591E-03;  7.3759865E+01;
 -2.0000000E-02;  9.9999998E-03; -3.9999999E-02;426;  0.0000000E+00;  0.0000000E+00;  0.0000000E+00;  1.0003137E+03;  4.0000001E-01;  2.5984445E+02;0;  0.0000000E+00;  0.0000000E+00;  0.0000000E+00;0; -1.3903499E-01;  1.0000000E+04;  0.0000000E+00;  0.0000000E+00;  1.0000000E+04;  0.0000000E+00;  1.0000000E+04; -1.4167671E-01;  0.0000000E+00;  2.6417228E-03;  6.8273109E+01;
 -2.0000000E-02;  9.9999998E-03; -2.0000000E-02;427;  0.0000000E+00;  0.0000000E+00;  0.0000000E+00;  1.0003140E+03;  4.0000001E-01;  2.6014075E+02;0;  0.0000000E+00;  0.0000000E+00;  0.0000000E+00;0; -1.3924626E-01;  1.0000000E+04;  0.0000000E+00;  0.0000000E+00;  1.0000000E+04;  0.0000000E+00;  1.0000000E+04; -1.4178109E-01;  0.0000000E+00;  2.5348333E-03;  6.4864525E+01;
 -2.2000000E-01;  9.9999998E-03;  0.0000000E+00;19;  0.0000000E+00;  0.0000000E+00;  0.0000000E+00;  1.0000000E+03;  4.0000001E-01;  0.0000000E+00;0;  0.0000000E+00;  0.0000000E+00;  0.0000000E+00;0;  0.0000000E+00;  1.0000000E+04;  0.0000000E+00;  0.0000000E+00;  1.0000000E+04;  0.0000000E+00;  1.0000000E+04;  0.0000000E+00;  0.0000000E+00;  0.0000000E+00;  0.0000000E+00;
 -2.2000000E-01;  9.9999998E-03;  2.0000000E-02;20;  0.0000000E+00;  0.0000000E+00;  0.0000000E+00;  1.0000000E+03;  4.0000001E-01;  0.0000000E+00;0;  0.0000000E+00;  0.0000000E+00;  0.0000000E+00;0;  0.0000000E+00;  1.0000000E+04;  0.0000000E+00;  0.0000000E+00;  1.0000000E+04;  0.0000000E+00;  1.0000000E+04;  0.0000000E+00;  0.0000000E+00;  0.0000000E+00;  0.0000000E+00;
 -2.2000000E-01;  9.9999998E-03;  3.9999999E-02;21;  0.0000000E+00;  0.0000000E+00;  0.0000000E+00;  1.0000000E+03;  4.0000001E-01;  0.0000000E+00;0;  0.0000000E+00;  0.0000000E+00;  0.0000000E+00;0;  0.0000000E+00;  1.0000000E+04;  0.0000000E+00;  0.0000000E+00;  1.0000000E+04;  0.0000000E+00;  1.0000000E+04;  0.0000000E+00;  0.0000000E+00;  0.0000000E+00;  0.0000000E+00;
 -2.2000000E-01;  9.9999998E-03;  5.9999999E-02;22;  0.0000000E+00;  0.0000000E+00;  0.0000000E+00;  1.0000000E+03;  4.0000001E-01;  0.0000000E+00;0;  0.0000000E+00;  0.0000000E+00;  0.0000000E+00;0;  0.0000000E+00;  1.0000000E+04;  0.0000000E+00;  0.0000000E+00;  1.0000000E+04;  0.0000000E+00;  1.0000000E+04;  0.0000000E+00;  0.0000000E+00;  0.0000000E+00;  0.0000000E+00;
 -2.2000000E-01;  9.9999998E-03;  7.9999998E-02;23;  0.0000000E+00;  0.0000000E+00;  0.0000000E+00;  1.0000000E+03;  4.0000001E-01;  0.0000000E+00;0;  0.0000000E+00;  0.0000000E+00;  0.0000000E+00;0;  0.0000000E+00;  1.0000000E+04;  0.0000000E+00;  0.0000000E+00;  1.0000000E+04;  0.0000000E+00;  1.0000000E+04;  0.0000000E+00;  0.0000000E+00;  0.0000000E+00;  0.0000000E+00;
 -2.2000000E-01;  9.9999998E-03;  1.0000000E-01;24;  0.0000000E+00;  0.0000000E+00;  0.0000000E+00;  1.0000000E+03;  4.0000001E-01;  0.0000000E+00;0;  0.0000000E+00;  0.0000000E+00;  0.0000000E+00;0;  0.0000000E+00;  1.0000000E+04;  0.0000000E+00;  0.0000000E+00;  1.0000000E+04;  0.0000000E+00;  1.0000000E+04;  0.0000000E+00;  0.0000000E+00;  0.0000000E+00;  0.0000000E+00;
 -2.2000000E-01;  9.9999998E-03;  1.2000000E-01;25;  0.0000000E+00;  0.0000000E+00;  0.0000000E+00;  1.0000000E+03;  4.0000001E-01;  0.0000000E+00;0;  0.0000000E+00;  0.0000000E+00;  0.0000000E+00;0;  0.0000000E+00;  1.0000000E+04;  0.0000000E+00;  0.0000000E+00;  1.0000000E+04;  0.0000000E+00;  1.0000000E+04;  0.0000000E+00;  0.0000000E+00;  0.0000000E+00;  0.0000000E+00;
 -2.2000000E-01;  9.9999998E-03;  1.4000000E-01;26;  0.0000000E+00;  0.0000000E+00;  0.0000000E+00;  1.0000000E+03;  4.0000001E-01;  0.0000000E+00;0;  0.0000000E+00;  0.0000000E+00;  0.0000000E+00;0;  0.0000000E+00;  1.0000000E+04;  0.0000000E+00;  0.0000000E+00;  1.0000000E+04;  0.0000000E+00;  1.0000000E+04;  0.0000000E+00;  0.0000000E+00;  0.0000000E+00;  0.0000000E+00;
 -2.0000000E-01;  9.9999998E-03;  0.0000000E+00;59;  0.0000000E+00;  0.0000000E+00;  0.0000000E+00;  1.0000000E+03;  4.0000001E-01;  0.0000000E+00;0;  0.0000000E+00;  0.0000000E+00;  0.0000000E+00;0;  0.0000000E+00;  1.0000000E+04;  0.0000000E+00;  0.0000000E+00;  1.0000000E+04;  0.0000000E+00;  1.0000000E+04;  0.0000000E+00;  0.0000000E+00;  0.0000000E+00;  0.0000000E+00;
 -2.0000000E-01;  9.9999998E-03;  2.0000000E-02;60;  0.0000000E+00;  0.0000000E+00;  0.0000000E+00;  1.0000000E+03;  4.0000001E-01;  0.0000000E+00;0;  0.0000000E+00;  0.0000000E+00;  0.0000000E+00;0;  0.0000000E+00;  1.0000000E+04;  0.0000000E+00;  0.0000000E+00;  1.0000000E+04;  0.0000000E+00;  1.0000000E+04;  0.0000000E+00;  0.0000000E+00;  0.0000000E+00;  0.0000000E+00;
 -2.0000000E-01;  9.9999998E-03;  3.9999999E-02;61;  0.0000000E+00;  0.0000000E+00;  0.0000000E+00;  1.0000000E+03;  4.0000001E-01;  0.0000000E+00;0;  0.0000000E+00;  0.0000000E+00;  0.0000000E+00;0;  0.0000000E+00;  1.0000000E+04;  0.0000000E+00;  0.0000000E+00;  1.0000000E+04;  0.0000000E+00;  1.0000000E+04;  0.0000000E+00;  0.0000000E+00;  0.0000000E+00;  0.0000000E+00;
 -2.0000000E-01;  9.9999998E-03;  5.9999999E-02;62;  0.0000000E+00;  0.0000000E+00;  0.0000000E+00;  1.0000000E+03;  4.0000001E-01;  0.0000000E+00;0;  0.0000000E+00;  0.0000000E+00;  0.0000000E+00;0;  0.0000000E+00;  1.0000000E+04;  0.0000000E+00;  0.0000000E+00;  1.0000000E+04;  0.0000000E+00;  1.0000000E+04;  0.0000000E+00;  0.0000000E+00;  0.0000000E+00;  0.0000000E+00;
 -2.0000000E-01;  9.9999998E-03;  7.9999998E-02;63;  0.0000000E+00;  0.0000000E+00;  0.0000000E+00;  1.0000000E+03;  4.0000001E-01;  0.0000000E+00;0;  0.0000000E+00;  0.0000000E+00;  0.0000000E+00;0;  0.0000000E+00;  1.0000000E+04;  0.0000000E+00;  0.0000000E+00;  1.0000000E+04;  0.0000000E+00;  1.0000000E+04;  0.0000000E+00;  0.0000000E+00;  0.0000000E+00;  0.0000000E+00;
 -2.0000000E-01;  9.9999998E-03;  1.0000000E-01;64;  0.0000000E+00;  0.0000000E+00;  0.0000000E+00;  1.0000000E+03;  4.0000001E-01;  0.0000000E+00;0;  0.0000000E+00;  0.0000000E+00;  0.0000000E+00;0;  0.0000000E+00;  1.0000000E+04;  0.0000000E+00;  0.0000000E+00;  1.0000000E+04;  0.0000000E+00;  1.0000000E+04;  0.0000000E+00;  0.0000000E+00;  0.0000000E+00;  0.0000000E+00;
 -2.0000000E-01;  9.9999998E-03;  1.2000000E-01;65;  0.0000000E+00;  0.0000000E+00;  0.0000000E+00;  1.0000000E+03;  4.0000001E-01;  0.0000000E+00;0;  0.0000000E+00;  0.0000000E+00;  0.0000000E+00;0;  0.0000000E+00;  1.0000000E+04;  0.0000000E+00;  0.0000000E+00;  1.0000000E+04;  0.0000000E+00;  1.0000000E+04;  0.0000000E+00;  0.0000000E+00;  0.0000000E+00;  0.0000000E+00;
 -2.0000000E-01;  9.9999998E-03;  1.4000000E-01;66;  0.0000000E+00;  0.0000000E+00;  0.0000000E+00;  1.0000000E+03;  4.0000001E-01;  0.0000000E+00;0;  0.0000000E+00;  0.0000000E+00;  0.0000000E+00;0;  0.0000000E+00;  1.0000000E+04;  0.0000000E+00;  0.0000000E+00;  1.0000000E+04;  0.0000000E+00;  1.0000000E+04;  0.0000000E+00;  0.0000000E+00;  0.0000000E+00;  0.0000000E+00;
 -1.8000001E-01;  9.9999998E-03;  0.0000000E+00;100;  0.0000000E+00;  0.0000000E+00;  0.0000000E+00;  1.0000000E+03;  4.0000001E-01;  0.0000000E+00;0;  0.0000000E+00;  0.0000000E+00;  0.0000000E+00;0;  0.0000000E+00;  1.0000000E+04;  0.0000000E+00;  0.0000000E+00;  1.0000000E+04;  0.0000000E+00;  1.0000000E+04;  0.0000000E+00;  0.0000000E+00;  0.0000000E+00;  0.0000000E+00;
 -1.8000001E-01;  9.9999998E-03;  2.0000000E-02;101;  0.0000000E+00;  0.0000000E+00;  0.0000000E+00;  1.0000000E+03;  4.0000001E-01;  0.0000000E+00;0;  0.0000000E+00;  0.0000000E+00;  0.0000000E+00;0;  0.0000000E+00;  1.0000000E+04;  0.0000000E+00;  0.0000000E+00;  1.0000000E+04;  0.0000000E+00;  1.0000000E+04;  0.0000000E+00;  0.0000000E+00;  0.0000000E+00;  0.0000000E+00;
 -1.8000001E-01;  9.9999998E-03;  3.9999999E-02;102;  0.0000000E+00;  0.0000000E+00;  0.0000000E+00;  1.0000000E+03;  4.0000001E-01;  0.0000000E+00;0;  0.0000000E+00;  0.0000000E+00;  0.0000000E+00;0;  0.0000000E+00;  1.0000000E+04;  0.0000000E+00;  0.0000000E+00;  1.0000000E+04;  0.0000000E+00;  1.0000000E+04;  0.0000000E+00;  0.0000000E+00;  0.0000000E+00;  0.0000000E+00;
 -1.8000001E-01;  9.9999998E-03;  5.9999999E-02;103;  0.0000000E+00;  0.0000000E+00;  0.0000000E+00;  1.0000000E+03;  4.0000001E-01;  0.0000000E+00;0;  0.0000000E+00;  0.0000000E+00;  0.0000000E+00;0;  0.0000000E+00;  1.0000000E+04;  0.0000000E+00;  0.0000000E+00;  1.0000000E+04;  0.0000000E+00;  1.0000000E+04;  0.0000000E+00;  0.0000000E+00;  0.0000000E+00;  0.0000000E+00;
 -1.8000001E-01;  9.9999998E-03;  7.9999998E-02;104;  0.0000000E+00;  0.0000000E+00;  0.0000000E+00;  1.0000000E+03;  4.0000001E-01;  0.0000000E+00;0;  0.0000000E+00;  0.0000000E+00;  0.0000000E+00;0;  0.0000000E+00;  1.0000000E+04;  0.0000000E+00;  0.0000000E+00;  1.0000000E+04;  0.0000000E+00;  1.0000000E+04;  0.0000000E+00;  0.0000000E+00;  0.0000000E+00;  0.0000000E+00;
 -1.8000001E-01;  9.9999998E-03;  1.0000000E-01;105;  0.0000000E+00;  0.0000000E+00;  0.0000000E+00;  1.0000000E+03;  4.0000001E-01;  0.0000000E+00;0;  0.0000000E+00;  0.0000000E+00;  0.0000000E+00;0;  0.0000000E+00;  1.0000000E+04;  0.0000000E+00;  0.0000000E+00;  1.0000000E+04;  0.0000000E+00;  1.0000000E+04;  0.0000000E+00;  0.0000000E+00;  0.0000000E+00;  0.0000000E+00;
 -1.8000001E-01;  9.9999998E-03;  1.2000000E-01;106;  0.0000000E+00;  0.0000000E+00;  0.0000000E+00;  1.0000000E+03;  4.0000001E-01;  0.0000000E+00;0;  0.0000000E+00;  0.0000000E+00;  0.0000000E+00;0;  0.0000000E+00;  1.0000000E+04;  0.0000000E+00;  0.0000000E+00;  1.0000000E+04;  0.0000000E+00;  1.0000000E+04;  0.0000000E+00;  0.0000000E+00;  0.0000000E+00;  0.0000000E+00;
 -1.8000001E-01;  9.9999998E-03;  1.4000000E-01;107;  0.0000000E+00;  0.0000000E+00;  0.0000000E+00;  1.0000000E+03;  4.0000001E-01;  0.0000000E+00;0;  0.0000000E+00;  0.0000000E+00;  0.0000000E+00;0;  0.0000000E+00;  1.0000000E+04;  0.0000000E+00;  0.0000000E+00;  1.0000000E+04;  0.0000000E+00;  1.0000000E+04;  0.0000000E+00;  0.0000000E+00;  0.0000000E+00;  0.0000000E+00;
 -1.6000000E-01;  9.9999998E-03;  0.0000000E+00;141;  0.0000000E+00;  0.0000000E+00;  0.0000000E+00;  1.0000000E+03;  4.0000001E-01;  0.0000000E+00;0;  0.0000000E+00;  0.0000000E+00;  0.0000000E+00;0; -2.0430813E-05;  1.0000000E+04;  0.0000000E+00;  0.0000000E+00;  1.0000000E+04;  0.0000000E+00;  1.0000000E+04; -2.0446858E-05;  0.0000000E+00;  1.6044609E-08;  3.7607178E-03;
 -1.6000000E-01;  9.9999998E-03;  2.0000000E-02;142;  0.0000000E+00;  0.0000000E+00;  0.0000000E+00;  1.0000000E+03;  4.0000001E-01;  0.0000000E+00;0;  0.0000000E+00;  0.0000000E+00;  0.0000000E+00;0; -2.0430212E-05;  1.0000000E+04;  0.0000000E+00;  0.0000000E+00;  1.0000000E+04;  0.0000000E+00;  1.0000000E+04; -2.0446649E-05;  0.0000000E+00;  1.6436843E-08;  3.7722043E-03;
 -1.6000000E-01;  9.9999998E-03;  3.9999999E-02;143;  0.0000000E+00;  0.0000000E+00;  0.0000000E+00;  1.0000000E+03;  4.0000001E-01;  0.0000000E+00;0;  0.0000000E+00;  0.0000000E+00;  0.0000000E+00;0; -2.0425576E-05;  1.0000000E+04;  0.0000000E+00;  0.0000000E+00;  1.0000000E+04;  0.0000000E+00;  1.0000000E+04; -2.0443147E-05;  0.0000000E+00;  1.7571788E-08;  3.8059375E-03;
 -1.6000000E-01;  9.9999998E-03;  5.9999999E-02;144;  0.0000000E+00;  0.0000000E+00;  0.0000000E+00;  1.0000000E+03;  4.0000001E-01;  0.0000000E+00;0;  0.0000000E+00;  0.0000000E+00;  0.0000000E+00;0; -2.0408654E-05;  1.0000000E+04;  0.0000000E+00;  0.0000000E+00;  1.0000000E+04;  0.0000000E+00;  1.0000000E+04; -2.0427977E-05;  0.0000000E+00;  1.9322925E-08;  3.8588031E-03;
 -1.6000000E-01;  9.9999998E-03;  7.9999998E-02;145;  0.0000000E+00;  0.0000000E+00;  0.0000000E+00;  1.0000000E+03;  4.0000001E-01;  0.0000000E+00;0;  0.0000000E+00;  0.0000000E+00;  0.0000000E+00;0; -2.0364809E-05;  1.0000000E+04;  0.0000000E+00;  0.0000000E+00;  1.0000000E+04;  0.0000000E+00;  1.0000000E+04; -2.0386507E-05;  0.0000000E+00;  2.1698165E-08;  3.9257049E-03;
 -1.6000000E-01;  9.9999998E-03;  1.0000000E-01;146;  0.0000000E+00;  0.0000000E+00;  0.0000000E+00;  1.0000000E+03;  4.0000001E-01;  0.0000000E+00;0;  0.0000000E+00;  0.0000000E+00;  0.0000000E+00;0; -2.0272209E-05;  1.0000000E+04;  0.0000000E+00;  0.0000000E+00;  1.0000000E+04;  0.0000000E+00;  1.0000000E+04; -2.0296788E-05;  0.0000000E+00;  2.4577623E-08;  4.0002950E-03;
 -1.6000000E-01;  9.9999998E-03;  1.2000000E-01;147;  0.0000000E+00;  0.0000000E+00;  0.0000000E+00;  1.0000000E+03;  4.0000001E-01;  0.0000000E+00;0;  0.0000000E+00;  0.0000000E+00;  0.0000000E+00;0; -2.0101543E-05;  1.0000000E+04;  0.0000000E+00;  0.0000000E+00;  1.0000000E+04;  0.0000000E+00;  1.0000000E+04; -2.0129097E-05;  0.0000000E+00;  2.7553755E-08;  4.0710550E-03;
 -1.6000000E-01;  9.9999998E-03;  1.4000000E-01;148;  0.0000000E+00;  0.0000000E+00;  0.0000000E+00;  1.0000000E+03;  4.0000001E-01;  0.0000000E+00;0;  0.0000000E+00;  0.0000000E+00;  0.0000000E+00;0; -1.9813100E-05;  1.0000000E+04;  0.0000000E+00;  0.0000000E+00;  1.0000000E+04;  0.0000000E+00;  1.0000000E+04; -1.9843916E-05;  0.0000000E+00;  3.0815826E-08;  4.1289921E-03;
 -1.4000000E-01;  9.9999998E-03;  0.0000000E+00;182;  0.0000000E+00;  0.0000000E+00;  0.0000000E+00;  1.0000016E+03;  4.0000001E-01;  1.2839141E+00;0;  0.0000000E+00;  0.0000000E+00;  0.0000000E+00;0; -7.4856228E-04;  1.0000000E+04;  0.0000000E+00;  0.0000000E+00;  1.0000000E+04;  0.0000000E+00;  1.0000000E+04; -7.5063831E-04;  0.0000000E+00;  2.0760174E-06;  1.6044840E-01;
 -1.4000000E-01;  9.9999998E-03;  2.0000000E-02;183;  0.0000000E+00;  0.0000000E+00;  0.0000000E+00;  1.0000016E+03;  4.0000001E-01;  1.2839141E+00;0;  0.0000000E+00;  0.0000000E+00;  0.0000000E+00;0; -7.4843201E-04;  1.0000000E+04;  0.0000000E+00;  0.0000000E+00;  1.0000000E+04;  0.0000000E+00;  1.0000000E+04; -7.5055362E-04;  0.0000000E+00;  2.1216208E-06;  1.6174541E-01;
 -1.4000000E-01;  9.9999998E-03;  3.9999999E-02;184;  0.0000000E+00;  0.0000000E+00;  0.0000000E+00;  1.0000016E+03;  4.0000001E-01;  1.2839141E+00;0;  0.0000000E+00;  0.0000000E+00;  0.0000000E+00;0; -7.4793684E-04;  1.0000000E+04;  0.0000000E+00;  0.0000000E+00;  1.0000000E+04;  0.0000000E+00;  1.0000000E+04; -7.5019320E-04;  0.0000000E+00;  2.2563793E-06;  1.6555569E-01;
 -1.4000000E-01;  9.9999998E-03;  5.9999999E-02;185;  0.0000000E+00;  0.0000000E+00;  0.0000000E+00;  1.0000016E+03;  4.0000001E-01;  1.2839141E+00;0;  0.0000000E+00;  0.0000000E+00;  0.0000000E+00;0; -7.4676058E-04;  1.0000000E+04;  0.0000000E+00;  0.0000000E+00;  1.0000000E+04;  0.0000000E+00;  1.0000000E+04; -7.4923417E-04;  0.0000000E+00;  2.4736057E-06;  1.7166281E-01;
 -1.4000000E-01;  9.9999998E-03;  7.9999998E-02;186;  0.0000000E+00;  0.0000000E+00;  0.0000000E+00;  1.0000016E+03;  4.0000001E-01;  1.2839141E+00;0;  0.0000000E+00;  0.0000000E+00;  0.0000000E+00;0; -7.4435852E-04;  1.0000000E+04;  0.0000000E+00;  0.0000000E+00;  1.0000000E+04;  0.0000000E+00;  1.0000000E+04; -7.4711809E-04;  0.0000000E+00;  2.7595831E-06;  1.7967415E-01;
 -1.4000000E-01;  9.9999998E-03;  1.0000000E-01;187;  0.0000000E+00;  0.0000000E+00;  0.0000000E+00;  1.0000016E+03;  4.0000001E-01;  1.2839141E+00;0;  0.0000000E+00;  0.0000000E+00;  0.0000000E+00;0; -7.3992234E-04;  1.0000000E+04;  0.0000000E+00;  0.0000000E+00;  1.0000000E+04;  0.0000000E+00;  1.0000000E+04; -7.4302108E-04;  0.0000000E+00;  3.0987526E-06;  1.8905762E-01;
 -1.4000000E-01;  9.9999998E-03;  1.2000000E-01;188;  0.0000000E+00;  0.0000000E+00;  0.0000000E+00;  1.0000016E+03;  4.0000001E-01;  1.2839141E+00;0;  0.0000000E+00;  0.0000000E+00;  0.0000000E+00;0; -7.3233608E-04;  1.0000000E+04;  0.0000000E+00;  0.0000000E+00;  1.0000000E+04;  0.0000000E+00;  1.0000000E+04; -7.3581503E-04;  0.0000000E+00;  3.4789489E-06;  1.9922815E-01;
 -1.4000000E-01;  9.9999998E-03;  1.4000000E-01;189;  0.0000000E+00;  0.0000000E+00;  0.0000000E+00;  1.0000015E+03;  4.0000001E-01;  1.2839141E+00;0;  0.0000000E+00;  0.0000000E+00;  0.0000000E+00;0; -7.2017440E-04;  1.0000000E+04;  0.0000000E+00;  0.0000000E+00;  1.0000000E+04;  0.0000000E+00;  1.0000000E+04; -7.2405353E-04;  0.0000000E+00;  3.8791436E-06;  2.0928033E-01;
 -1.2000000E-01;  9.9999998E-03;  0.0000000E+00;223;  0.0000000E+00;  0.0000000E+00;  0.0000000E+00;  1.0000090E+03;  4.0000001E-01;  7.5059595E+00;0;  0.0000000E+00;  0.0000000E+00;  0.0000000E+00;0; -4.1362387E-03;  1.0000000E+04;  0.0000000E+00;  0.0000000E+00;  1.0000000E+04;  0.0000000E+00;  1.0000000E+04; -4.1568284E-03;  0.0000000E+00;  2.0589856E-05;  1.0293196E+00;
 -1.2000000E-01;  9.9999998E-03;  2.0000000E-02;224;  0.0000000E+00;  0.0000000E+00;  0.0000000E+00;  1.0000090E+03;  4.0000001E-01;  7.5059595E+00;0;  0.0000000E+00;  0.0000000E+00;  0.0000000E+00;0; -4.1350937E-03;  1.0000000E+04;  0.0000000E+00;  0.0000000E+00;  1.0000000E+04;  0.0000000E+00;  1.0000000E+04; -4.1561071E-03;  0.0000000E+00;  2.1013275E-05;  1.0413013E+00;
 -1.2000000E-01;  9.9999998E-03;  3.9999999E-02;225;  0.0000000E+00;  0.0000000E+00;  0.0000000E+00;  1.0000090E+03;  4.0000001E-01;  7.5059595E+00;0;  0.0000000E+00;  0.0000000E+00;  0.0000000E+00;0; -4.1310890E-03;  1.0000000E+04;  0.0000000E+00;  0.0000000E+00;  1.0000000E+04;  0.0000000E+00;  1.0000000E+04; -4.1533504E-03;  0.0000000E+00;  2.2261596E-05;  1.0766362E+00;
 -1.2000000E-01;  9.9999998E-03;  5.9999999E-02;226;  0.0000000E+00;  0.0000000E+00;  0.0000000E+00;  1.0000090E+03;  4.0000001E-01;  7.5059595E+00;0;  0.0000000E+00;  0.0000000E+00;  0.0000000E+00;0; -4.1224714E-03;  1.0000000E+04;  0.0000000E+00;  0.0000000E+00;  1.0000000E+04;  0.0000000E+00;  1.0000000E+04; -4.1467343E-03;  0.0000000E+00;  2.4262647E-05;  1.1333805E+00;
 -1.2000000E-01;  9.9999998E-03;  7.9999998E-02;227;  0.0000000E+00;  0.0000000E+00;  0.0000000E+00;  1.0000090E+03;  4.0000001E-01;  7.4071970E+00;0;  0.0000000E+00;  0.0000000E+00;  0.0000000E+00;0; -4.1062082E-03;  1.0000000E+04;  0.0000000E+00;  0.0000000E+00;  1.0000000E+04;  0.0000000E+00;  1.0000000E+04; -4.1331165E-03;  0.0000000E+00;  2.6908305E-05;  1.2084267E+00;
 -1.2000000E-01;  9.9999998E-03;  1.0000000E-01;228;  0.0000000E+00;  0.0000000E+00;  0.0000000E+00;  1.0000090E+03;  4.0000001E-01;  7.4071970E+00;0;  0.0000000E+00;  0.0000000E+00;  0.0000000E+00;0; -4.0777950E-03;  1.0000000E+04;  0.0000000E+00;  0.0000000E+00;  1.0000000E+04;  0.0000000E+00;  1.0000000E+04; -4.1078678E-03;  0.0000000E+00;  3.0072708E-05;  1.2976165E+00;
 -1.2000000E-01;  9.9999998E-03;  1.2000000E-01;229;  0.0000000E+00;  0.0000000E+00;  0.0000000E+00;  1.0000089E+03;  4.0000001E-01;  7.4071970E+00;0;  0.0000000E+00;  0.0000000E+00;  0.0000000E+00;0; -4.0311529E-03;  1.0000000E+04;  0.0000000E+00;  0.0000000E+00;  1.0000000E+04;  0.0000000E+00;  1.0000000E+04; -4.0647420E-03;  0.0000000E+00;  3.3589160E-05;  1.3950619E+00;
 -1.2000000E-01;  9.9999998E-03;  1.4000000E-01;230;  0.0000000E+00;  0.0000000E+00;  0.0000000E+00;  1.0000087E+03;  4.0000001E-01;  7.2096715E+00;0;  0.0000000E+00;  0.0000000E+00;  0.0000000E+00;0; -3.9585545E-03;  1.0000000E+04;  0.0000000E+00;  0.0000000E+00;  1.0000000E+04;  0.0000000E+00;  1.0000000E+04; -3.9957650E-03;  0.0000000E+00;  3.7210375E-05;  1.4919393E+00;
 -1.0000000E-01;  9.9999998E-03;  0.0000000E+00;264;  0.0000000E+00;  0.0000000E+00;  0.0000000E+00;  1.0000291E+03;  4.0000001E-01;  2.4098080E+01;0;  0.0000000E+00;  0.0000000E+00;  0.0000000E+00;0; -1.3141737E-02;  1.0000000E+04;  0.0000000E+00;  0.0000000E+00;  1.0000000E+04;  0.0000000E+00;  1.0000000E+04; -1.3237969E-02;  0.0000000E+00;  9.6231961E-05;  3.7615182E+00;
 -1.0000000E-01;  9.9999998E-03;  2.0000000E-02;265;  0.0000000E+00;  0.0000000E+00;  0.0000000E+00;  1.0000291E+03;  4.0000001E-01;  2.4098080E+01;0;  0.0000000E+00;  0.0000000E+00;  0.0000000E+00;0; -1.3137100E-02;  1.0000000E+04;  0.0000000E+00;  0.0000000E+00;  1.0000000E+04;  0.0000000E+00;  1.0000000E+04; -1.3235183E-02;  0.0000000E+00;  9.8082230E-05;  3.8144593E+00;
 -1.0000000E-01;  9.9999998E-03;  3.9999999E-02;266;  0.0000000E+00;  0.0000000E+00;  0.0000000E+00;  1.0000291E+03;  4.0000001E-01;  2.4098080E+01;0;  0.0000000E+00;  0.0000000E+00;  0.0000000E+00;0; -1.3121369E-02;  1.0000000E+04;  0.0000000E+00;  0.0000000E+00;  1.0000000E+04;  0.0000000E+00;  1.0000000E+04; -1.3224890E-02;  0.0000000E+00;  1.0352131E-04;  3.9705420E+00;
 -1.0000000E-01;  9.9999998E-03;  5.9999999E-02;267;  0.0000000E+00;  0.0000000E+00;  0.0000000E+00;  1.0000291E+03;  4.0000001E-01;  2.4098080E+01;0;  0.0000000E+00;  0.0000000E+00;  0.0000000E+00;0; -1.3089006E-02;  1.0000000E+04;  0.0000000E+00;  0.0000000E+00;  1.0000000E+04;  0.0000000E+00;  1.0000000E+04; -1.3201255E-02;  0.0000000E+00;  1.1224969E-04;  4.2217765E+00;
 -1.0000000E-01;  9.9999998E-03;  7.9999998E-02;268;  0.0000000E+00;  0.0000000E+00;  0.0000000E+00;  1.0000290E+03;  4.0000001E-01;  2.3999317E+01;0;  0.0000000E+00;  0.0000000E+00;  0.0000000E+00;0; -1.3030389E-02;  1.0000000E+04;  0.0000000E+00;  0.0000000E+00;  1.0000000E+04;  0.0000000E+00;  1.0000000E+04; -1.3154211E-02;  0.0000000E+00;  1.2382228E-04;  4.5552287E+00;
 -1.0000000E-01;  9.9999998E-03;  1.0000000E-01;269;  0.0000000E+00;  0.0000000E+00;  0.0000000E+00;  1.0000287E+03;  4.0000001E-01;  2.3801792E+01;0;  0.0000000E+00;  0.0000000E+00;  0.0000000E+00;0; -1.2931367E-02;  1.0000000E+04;  0.0000000E+00;  0.0000000E+00;  1.0000000E+04;  0.0000000E+00;  1.0000000E+04; -1.3068999E-02;  0.0000000E+00;  1.3763153E-04;  4.9520860E+00;
 -1.0000000E-01;  9.9999998E-03;  1.2000000E-01;270;  0.0000000E+00;  0.0000000E+00;  0.0000000E+00;  1.0000282E+03;  4.0000001E-01;  2.3406742E+01;0;  0.0000000E+00;  0.0000000E+00;  0.0000000E+00;0; -1.2772887E-02;  1.0000000E+04;  0.0000000E+00;  0.0000000E+00;  1.0000000E+04;  0.0000000E+00;  1.0000000E+04; -1.2925729E-02;  0.0000000E+00;  1.5284182E-04;  5.3848600E+00;
 -1.0000000E-01;  9.9999998E-03;  1.4000000E-01;271;  0.0000000E+00;  0.0000000E+00;  0.0000000E+00;  1.0000280E+03;  4.0000001E-01;  2.3110455E+01;0;  0.0000000E+00;  0.0000000E+00;  0.0000000E+00;0; -1.2531072E-02;  1.0000000E+04;  0.0000000E+00;  0.0000000E+00;  1.0000000E+04;  0.0000000E+00;  1.0000000E+04; -1.2699173E-02;  0.0000000E+00;  1.6810096E-04;  5.8102956E+00;
 -7.9999998E-02;  9.9999998E-03;  0.0000000E+00;305;  0.0000000E+00;  0.0000000E+00;  0.0000000E+00;  1.0000691E+03;  4.0000001E-01;  5.7282322E+01;0;  0.0000000E+00;  0.0000000E+00;  0.0000000E+00;0; -3.1107863E-02;  1.0000000E+04;  0.0000000E+00;  0.0000000E+00;  1.0000000E+04;  0.0000000E+00;  1.0000000E+04; -3.1409282E-02;  0.0000000E+00;  3.0141880E-04;  1.0090501E+01;
 -7.9999998E-02;  9.9999998E-03;  2.0000000E-02;306;  0.0000000E+00;  0.0000000E+00;  0.0000000E+00;  1.0000691E+03;  4.0000001E-01;  5.7282322E+01;0;  0.0000000E+00;  0.0000000E+00;  0.0000000E+00;0; -3.1095216E-02;  1.0000000E+04;  0.0000000E+00;  0.0000000E+00;  1.0000000E+04;  0.0000000E+00;  1.0000000E+04; -3.1402048E-02;  0.0000000E+00;  3.0683188E-04;  1.0248384E+01;
 -7.9999998E-02;  9.9999998E-03;  3.9999999E-02;307;  0.0000000E+00;  0.0000000E+00;  0.0000000E+00;  1.0000691E+03;  4.0000001E-01;  5.7282322E+01;0;  0.0000000E+00;  0.0000000E+00;  0.0000000E+00;0; -3.1053046E-02;  1.0000000E+04;  0.0000000E+00;  0.0000000E+00;  1.0000000E+04;  0.0000000E+00;  1.0000000E+04; -3.1375811E-02;  0.0000000E+00;  3.2276523E-04;  1.0714172E+01;
 -7.9999998E-02;  9.9999998E-03;  5.9999999E-02;308;  0.0000000E+00;  0.0000000E+00;  0.0000000E+00;  1.0000689E+03;  4.0000001E-01;  5.7084797E+01;0;  0.0000000E+00;  0.0000000E+00;  0.0000000E+00;0; -3.0968390E-02;  1.0000000E+04;  0.0000000E+00;  0.0000000E+00;  1.0000000E+04;  0.0000000E+00;  1.0000000E+04; -3.1316750E-02;  0.0000000E+00;  3.4835961E-04;  1.1464688E+01;
 -7.9999998E-02;  9.9999998E-03;  7.9999998E-02;309;  0.0000000E+00;  0.0000000E+00;  0.0000000E+00;  1.0000687E+03;  4.0000001E-01;  5.6986034E+01;0;  0.0000000E+00;  0.0000000E+00;  0.0000000E+00;0; -3.0818785E-02;  1.0000000E+04;  0.0000000E+00;  0.0000000E+00;  1.0000000E+04;  0.0000000E+00;  1.0000000E+04; -3.1201042E-02;  0.0000000E+00;  3.8225728E-04;  1.2461047E+01;
 -7.9999998E-02;  9.9999998E-03;  1.0000000E-01;310;  0.0000000E+00;  0.0000000E+00;  0.0000000E+00;  1.0000684E+03;  4.0000001E-01;  5.6689747E+01;0;  0.0000000E+00;  0.0000000E+00;  0.0000000E+00;0; -3.0571312E-02;  1.0000000E+04;  0.0000000E+00;  0.0000000E+00;  1.0000000E+04;  0.0000000E+00;  1.0000000E+04; -3.0993856E-02;  0.0000000E+00;  4.2254562E-04;  1.3644984E+01;
 -7.9999998E-02;  9.9999998E-03;  1.2000000E-01;311;  0.0000000E+00;  0.0000000E+00;  0.0000000E+00;  1.0000674E+03;  4.0000001E-01;  5.5899647E+01;0;  0.0000000E+00;  0.0000000E+00;  0.0000000E+00;0; -3.0181777E-02;  1.0000000E+04;  0.0000000E+00;  0.0000000E+00;  1.0000000E+04;  0.0000000E+00;  1.0000000E+04; -3.0648146E-02;  0.0000000E+00;  4.6636854E-04;  1.4927425E+01;
 -7.9999998E-02;  9.9999998E-03;  1.4000000E-01;312;  0.0000000E+00;  0.0000000E+00;  0.0000000E+00;  1.0000663E+03;  4.0000001E-01;  5.4912018E+01;0;  0.0000000E+00;  0.0000000E+00;  0.0000000E+00;0; -2.9595299E-02;  1.0000000E+04;  0.0000000E+00;  0.0000000E+00;  1.0000000E+04;  0.0000000E+00;  1.0000000E+04; -3.0104287E-02;  0.0000000E+00;  5.0898764E-04;  1.6166523E+01;
 -5.9999999E-02;  9.9999998E-03;  0.0000000E+00;346;  0.0000000E+00;  0.0000000E+00;  0.0000000E+00;  1.0001335E+03;  4.0000001E-01;  1.1061414E+02;0;  0.0000000E+00;  0.0000000E+00;  0.0000000E+00;0; -5.9899300E-02;  1.0000000E+04;  0.0000000E+00;  0.0000000E+00;  1.0000000E+04;  0.0000000E+00;  1.0000000E+04; -6.0627367E-02;  0.0000000E+00;  7.2806585E-04;  2.1818197E+01;
 -5.9999999E-02;  9.9999998E-03;  2.0000000E-02;347;  0.0000000E+00;  0.0000000E+00;  0.0000000E+00;  1.0001335E+03;  4.0000001E-01;  1.1061414E+02;0;  0.0000000E+00;  0.0000000E+00;  0.0000000E+00;0; -5.9872866E-02;  1.0000000E+04;  0.0000000E+00;  0.0000000E+00;  1.0000000E+04;  0.0000000E+00;  1.0000000E+04; -6.0613170E-02;  0.0000000E+00;  7.4030377E-04;  2.2183350E+01;
 -5.9999999E-02;  9.9999998E-03;  3.9999999E-02;348;  0.0000000E+00;  0.0000000E+00;  0.0000000E+00;  1.0001334E+03;  4.0000001E-01;  1.1051537E+02;0;  0.0000000E+00;  0.0000000E+00;  0.0000000E+00;0; -5.9785679E-02;  1.0000000E+04;  0.0000000E+00;  0.0000000E+00;  1.0000000E+04;  0.0000000E+00;  1.0000000E+04; -6.0562011E-02;  0.0000000E+00;  7.7633059E-04;  2.3260723E+01;
 -5.9999999E-02;  9.9999998E-03;  5.9999999E-02;349;  0.0000000E+00;  0.0000000E+00;  0.0000000E+00;  1.0001332E+03;  4.0000001E-01;  1.1041661E+02;0;  0.0000000E+00;  0.0000000E+00;  0.0000000E+00;0; -5.9613343E-02;  1.0000000E+04;  0.0000000E+00;  0.0000000E+00;  1.0000000E+04;  0.0000000E+00;  1.0000000E+04; -6.0447518E-02;  0.0000000E+00;  8.3417294E-04;  2.4996704E+01;
 -5.9999999E-02;  9.9999998E-03;  7.9999998E-02;350;  0.0000000E+00;  0.0000000E+00;  0.0000000E+00;  1.0001326E+03;  4.0000001E-01;  1.0992280E+02;0;  0.0000000E+00;  0.0000000E+00;  0.0000000E+00;0; -5.9313580E-02;  1.0000000E+04;  0.0000000E+00;  0.0000000E+00;  1.0000000E+04;  0.0000000E+00;  1.0000000E+04; -6.0224202E-02;  0.0000000E+00;  9.1062213E-04;  2.7299337E+01;
 -5.9999999E-02;  9.9999998E-03;  1.0000000E-01;351;  0.0000000E+00;  0.0000000E+00;  0.0000000E+00;  1.0001318E+03;  4.0000001E-01;  1.0913270E+02;0;  0.0000000E+00;  0.0000000E+00;  0.0000000E+00;0; -5.8824498E-02;  1.0000000E+04;  0.0000000E+00;  0.0000000E+00;  1.0000000E+04;  0.0000000E+00;  1.0000000E+04; -5.9825428E-02;  0.0000000E+00;  1.0009286E-03;  3.0026476E+01;
 -5.9999999E-02;  9.9999998E-03;  1.2000000E-01;352;  0.0000000E+00;  0.0000000E+00;  0.0000000E+00;  1.0001307E+03;  4.0000001E-01;  1.0824384E+02;0;  0.0000000E+00;  0.0000000E+00;  0.0000000E+00;0; -5.8063317E-02;  1.0000000E+04;  0.0000000E+00;  0.0000000E+00;  1.0000000E+04;  0.0000000E+00;  1.0000000E+04; -5.9161022E-02;  0.0000000E+00;  1.0977049E-03;  3.2956100E+01;
 -5.9999999E-02;  9.9999998E-03;  1.4000000E-01;353;  0.0000000E+00;  0.0000000E+00;  0.0000000E+00;  1.0001282E+03;  4.0000001E-01;  1.0626859E+02;0;  0.0000000E+00;  0.0000000E+00;  0.0000000E+00;0; -5.6927625E-02;  1.0000000E+04;  0.0000000E+00;  0.0000000E+00;  1.0000000E+04;  0.0000000E+00;  1.0000000E+04; -5.8116388E-02;  0.0000000E+00;  1.1887628E-03;  3.5736492E+01;
 -3.9999999E-02;  9.9999998E-03;  0.0000000E+00;387;  0.0000000E+00;  0.0000000E+00;  0.0000000E+00;  1.0002193E+03;  4.0000001E-01;  1.8172322E+02;0;  0.0000000E+00;  0.0000000E+00;  0.0000000E+00;0; -9.7924411E-02;  1.0000000E+04;  0.0000000E+00;  0.0000000E+00;  1.0000000E+04;  0.0000000E+00;  1.0000000E+04; -9.9378832E-02;  0.0000000E+00;  1.4544225E-03;  3.9931461E+01;
 -3.9999999E-02;  9.9999998E-03;  2.0000000E-02;388;  0.0000000E+00;  0.0000000E+00;  0.0000000E+00;  1.0002193E+03;  4.0000001E-01;  1.8172322E+02;0;  0.0000000E+00;  0.0000000E+00;  0.0000000E+00;0; -9.7879395E-02;  1.0000000E+04;  0.0000000E+00;  0.0000000E+00;  1.0000000E+04;  0.0000000E+00;  1.0000000E+04; -9.9356651E-02;  0.0000000E+00;  1.4772544E-03;  4.0631969E+01;
 -3.9999999E-02;  9.9999998E-03;  3.9999999E-02;389;  0.0000000E+00;  0.0000000E+00;  0.0000000E+00;  1.0002191E+03;  4.0000001E-01;  1.8152570E+02;0;  0.0000000E+00;  0.0000000E+00;  0.0000000E+00;0; -9.7731873E-02;  1.0000000E+04;  0.0000000E+00;  0.0000000E+00;  1.0000000E+04;  0.0000000E+00;  1.0000000E+04; -9.9276327E-02;  0.0000000E+00;  1.5444511E-03;  4.2698818E+01;
 -3.9999999E-02;  9.9999998E-03;  5.9999999E-02;390;  0.0000000E+00;  0.0000000E+00;  0.0000000E+00;  1.0002188E+03;  4.0000001E-01;  1.8122942E+02;0;  0.0000000E+00;  0.0000000E+00;  0.0000000E+00;0; -9.7443290E-02;  1.0000000E+04;  0.0000000E+00;  0.0000000E+00;  1.0000000E+04;  0.0000000E+00;  1.0000000E+04; -9.9095501E-02;  0.0000000E+00;  1.6522130E-03;  4.6027832E+01;
 -3.9999999E-02;  9.9999998E-03;  7.9999998E-02;391;  0.0000000E+00;  0.0000000E+00;  0.0000000E+00;  1.0002180E+03;  4.0000001E-01;  1.8053807E+02;0;  0.0000000E+00;  0.0000000E+00;  0.0000000E+00;0; -9.6946970E-02;  1.0000000E+04;  0.0000000E+00;  0.0000000E+00;  1.0000000E+04;  0.0000000E+00;  1.0000000E+04; -9.8741174E-02;  0.0000000E+00;  1.7942067E-03;  5.0436939E+01;
 -3.9999999E-02;  9.9999998E-03;  1.0000000E-01;392;  0.0000000E+00;  0.0000000E+00;  0.0000000E+00;  1.0002167E+03;  4.0000001E-01;  1.7955045E+02;0;  0.0000000E+00;  0.0000000E+00;  0.0000000E+00;0; -9.6144959E-02;  1.0000000E+04;  0.0000000E+00;  0.0000000E+00;  1.0000000E+04;  0.0000000E+00;  1.0000000E+04; -9.8105676E-02;  0.0000000E+00;  1.9607139E-03;  5.5639431E+01;
 -3.9999999E-02;  9.9999998E-03;  1.2000000E-01;393;  0.0000000E+00;  0.0000000E+00;  0.0000000E+00;  1.0002142E+03;  4.0000001E-01;  1.7747644E+02;0;  0.0000000E+00;  0.0000000E+00;  0.0000000E+00;0; -9.4906807E-02;  1.0000000E+04;  0.0000000E+00;  0.0000000E+00;  1.0000000E+04;  0.0000000E+00;  1.0000000E+04; -9.7043119E-02;  0.0000000E+00;  2.1363120E-03;  6.1182880E+01;
 -3.9999999E-02;  9.9999998E-03;  1.4000000E-01;394;  0.0000000E+00;  0.0000000E+00;  0.0000000E+00;  1.0002106E+03;  4.0000001E-01;  1.7441479E+02;0;  0.0000000E+00;  0.0000000E+00;  0.0000000E+00;0; -9.3070261E-02;  1.0000000E+04;  0.0000000E+00;  0.0000000E+00;  1.0000000E+04;  0.0000000E+00;  1.0000000E+04; -9.5366262E-02;  0.0000000E+00;  2.2960023E-03;  6.6359421E+01;
 -2.0000000E-02;  9.9999998E-03;  0.0000000E+00;428;  0.0000000E+00;  0.0000000E+00;  0.0000000E+00;  1.0003140E+03;  4.0000001E-01;  2.6014075E+02;0;  0.0000000E+00;  0.0000000E+00;  0.0000000E+00;0; -1.3931106E-01;  1.0000000E+04;  0.0000000E+00;  0.0000000E+00;  1.0000000E+04;  0.0000000E+00;  1.0000000E+04; -1.4180955E-01;  0.0000000E+00;  2.4984989E-03;  6.3709232E+01;
 -2.0000000E-02;  9.9999998E-03;  2.0000000E-02;429;  0.0000000E+00;  0.0000000E+00;  0.0000000E+00;  1.0003140E+03;  4.0000001E-01;  2.6014075E+02;0;  0.0000000E+00;  0.0000000E+00;  0.0000000E+00;0; -1.3924630E-01;  1.0000000E+04;  0.0000000E+00;  0.0000000E+00;  1.0000000E+04;  0.0000000E+00;  1.0000000E+04; -1.4178114E-01;  0.0000000E+00;  2.5348323E-03;  6.4864525E+01;
 -2.0000000E-02;  9.9999998E-03;  3.9999999E-02;430;  0.0000000E+00;  0.0000000E+00;  0.0000000E+00;  1.0003137E+03;  4.0000001E-01;  2.5984445E+02;0;  0.0000000E+00;  0.0000000E+00;  0.0000000E+00;0; -1.3903508E-01;  1.0000000E+04;  0.0000000E+00;  0.0000000E+00;  1.0000000E+04;  0.0000000E+00;  1.0000000E+04; -1.4167680E-01;  0.0000000E+00;  2.6417226E-03;  6.8273102E+01;
 -2.0000000E-02;  9.9999998E-03;  5.9999999E-02;431;  0.0000000E+00;  0.0000000E+00;  0.0000000E+00;  1.0003132E+03;  4.0000001E-01;  2.5944940E+02;0;  0.0000000E+00;  0.0000000E+00;  0.0000000E+00;0; -1.3862516E-01;  1.0000000E+04;  0.0000000E+00;  0.0000000E+00;  1.0000000E+04;  0.0000000E+00;  1.0000000E+04; -1.4143802E-01;  0.0000000E+00;  2.8128587E-03;  7.3759865E+01;
 -2.0000000E-02;  9.9999998E-03;  7.9999998E-02;432;  0.0000000E+00;  0.0000000E+00;  0.0000000E+00;  1.0003121E+03;  4.0000001E-01;  2.5856055E+02;0;  0.0000000E+00;  0.0000000E+00;  0.0000000E+00;0; -1.3792637E-01;  1.0000000E+04;  0.0000000E+00;  0.0000000E+00;  1.0000000E+04;  0.0000000E+00;  1.0000000E+04; -1.4096387E-01;  0.0000000E+00;  3.0375032E-03;  8.1014465E+01;
 -2.0000000E-02;  9.9999998E-03;  1.0000000E-01;433;  0.0000000E+00;  0.0000000E+00;  0.0000000E+00;  1.0003101E+03;  4.0000001E-01;  2.5688159E+02;0;  0.0000000E+00;  0.0000000E+00;  0.0000000E+00;0; -1.3680576E-01;  1.0000000E+04;  0.0000000E+00;  0.0000000E+00;  1.0000000E+04;  0.0000000E+00;  1.0000000E+04; -1.4010453E-01;  0.0000000E+00;  3.2987732E-03;  8.9542519E+01;
 -2.0000000E-02;  9.9999998E-03;  1.2000000E-01;434;  0.0000000E+00;  0.0000000E+00;  0.0000000E+00;  1.0003068E+03;  4.0000001E-01;  2.5421500E+02;0;  0.0000000E+00;  0.0000000E+00;  0.0000000E+00;0; -1.3508590E-01;  1.0000000E+04;  0.0000000E+00;  0.0000000E+00;  1.0000000E+04;  0.0000000E+00;  1.0000000E+04; -1.3865545E-01;  0.0000000E+00;  3.5695594E-03;  9.8561554E+01;
 -2.0000000E-02;  9.9999998E-03;  1.4000000E-01;435;  0.0000000E+00;  0.0000000E+00;  0.0000000E+00;  1.0003018E+03;  4.0000001E-01;  2.5006697E+02;0;  0.0000000E+00;  0.0000000E+00;  0.0000000E+00;0; -1.3254528E-01;  1.0000000E+04;  0.0000000E+00;  0.0000000E+00;  1.0000000E+04;  0.0000000E+00;  1.0000000E+04; -1.3635205E-01;  0.0000000E+00;  3.8067745E-03;  1.0686080E+02;
 -2.2000000E-01;  9.9999998E-03;  1.6000000E-01;27;  0.0000000E+00;  0.0000000E+00;  0.0000000E+00;  1.0000000E+03;  4.0000001E-01;  0.0000000E+00;0;  0.0000000E+00;  0.0000000E+00;  0.0000000E+00;0;  0.0000000E+00;  1.0000000E+04;  0.0000000E+00;  0.0000000E+00;  1.0000000E+04;  0.0000000E+00;  1.0000000E+04;  0.0000000E+00;  0.0000000E+00;  0.0000000E+00;  0.0000000E+00;
 -2.2000000E-01;  9.9999998E-03;  1.8000001E-01;28;  0.0000000E+00;  0.0000000E+00;  0.0000000E+00;  1.0000000E+03;  4.0000001E-01;  0.0000000E+00;0;  0.0000000E+00;  0.0000000E+00;  0.0000000E+00;0;  0.0000000E+00;  1.0000000E+04;  0.0000000E+00;  0.0000000E+00;  1.0000000E+04;  0.0000000E+00;  1.0000000E+04;  0.0000000E+00;  0.0000000E+00;  0.0000000E+00;  0.0000000E+00;
 -2.2000000E-01;  9.9999998E-03;  2.0000000E-01;29;  0.0000000E+00;  0.0000000E+00;  0.0000000E+00;  1.0000000E+03;  4.0000001E-01;  0.0000000E+00;0;  0.0000000E+00;  0.0000000E+00;  0.0000000E+00;0;  0.0000000E+00;  1.0000000E+04;  0.0000000E+00;  0.0000000E+00;  1.0000000E+04;  0.0000000E+00;  1.0000000E+04;  0.0000000E+00;  0.0000000E+00;  0.0000000E+00;  0.0000000E+00;
 -2.2000000E-01;  9.9999998E-03;  2.2000000E-01;30;  0.0000000E+00;  0.0000000E+00;  0.0000000E+00;  1.0000000E+03;  4.0000001E-01;  0.0000000E+00;0;  0.0000000E+00;  0.0000000E+00;  0.0000000E+00;0;  0.0000000E+00;  1.0000000E+04;  0.0000000E+00;  0.0000000E+00;  1.0000000E+04;  0.0000000E+00;  1.0000000E+04;  0.0000000E+00;  0.0000000E+00;  0.0000000E+00;  0.0000000E+00;
 -2.2000000E-01;  9.9999998E-03;  2.3999999E-01;31;  0.0000000E+00;  0.0000000E+00;  0.0000000E+00;  1.0000000E+03;  4.0000001E-01;  0.0000000E+00;0;  0.0000000E+00;  0.0000000E+00;  0.0000000E+00;0;  0.0000000E+00;  1.0000000E+04;  0.0000000E+00;  0.0000000E+00;  1.0000000E+04;  0.0000000E+00;  1.0000000E+04;  0.0000000E+00;  0.0000000E+00;  0.0000000E+00;  0.0000000E+00;
 -2.2000000E-01;  9.9999998E-03;  2.5999999E-01;32;  0.0000000E+00;  0.0000000E+00;  0.0000000E+00;  1.0000000E+03;  4.0000001E-01;  0.0000000E+00;0;  0.0000000E+00;  0.0000000E+00;  0.0000000E+00;0;  0.0000000E+00;  1.0000000E+04;  0.0000000E+00;  0.0000000E+00;  1.0000000E+04;  0.0000000E+00;  1.0000000E+04;  0.0000000E+00;  0.0000000E+00;  0.0000000E+00;  0.0000000E+00;
 -2.2000000E-01;  9.9999998E-03;  2.8000000E-01;33;  0.0000000E+00;  0.0000000E+00;  0.0000000E+00;  1.0000000E+03;  4.0000001E-01;  0.0000000E+00;0;  0.0000000E+00;  0.0000000E+00;  0.0000000E+00;0;  0.0000000E+00;  1.0000000E+04;  0.0000000E+00;  0.0000000E+00;  1.0000000E+04;  0.0000000E+00;  1.0000000E+04;  0.0000000E+00;  0.0000000E+00;  0.0000000E+00;  0.0000000E+00;
 -2.2000000E-01;  9.9999998E-03;  3.0000001E-01;34;  0.0000000E+00;  0.0000000E+00;  0.0000000E+00;  1.0000000E+03;  4.0000001E-01;  0.0000000E+00;0;  0.0000000E+00;  0.0000000E+00;  0.0000000E+00;0;  0.0000000E+00;  1.0000000E+04;  0.0000000E+00;  0.0000000E+00;  1.0000000E+04;  0.0000000E+00;  1.0000000E+04;  0.0000000E+00;  0.0000000E+00;  0.0000000E+00;  0.0000000E+00;
 -2.2000000E-01;  9.9999998E-03;  3.1999999E-01;35;  0.0000000E+00;  0.0000000E+00;  0.0000000E+00;  1.0000000E+03;  4.0000001E-01;  0.0000000E+00;0;  0.0000000E+00;  0.0000000E+00;  0.0000000E+00;0;  0.0000000E+00;  1.0000000E+04;  0.0000000E+00;  0.0000000E+00;  1.0000000E+04;  0.0000000E+00;  1.0000000E+04;  0.0000000E+00;  0.0000000E+00;  0.0000000E+00;  0.0000000E+00;
 -2.0000000E-01;  9.9999998E-03;  1.6000000E-01;67;  0.0000000E+00;  0.0000000E+00;  0.0000000E+00;  1.0000000E+03;  4.0000001E-01;  0.0000000E+00;0;  0.0000000E+00;  0.0000000E+00;  0.0000000E+00;0;  0.0000000E+00;  1.0000000E+04;  0.0000000E+00;  0.0000000E+00;  1.0000000E+04;  0.0000000E+00;  1.0000000E+04;  0.0000000E+00;  0.0000000E+00;  0.0000000E+00;  0.0000000E+00;
 -2.0000000E-01;  9.9999998E-03;  1.8000001E-01;68;  0.0000000E+00;  0.0000000E+00;  0.0000000E+00;  1.0000000E+03;  4.0000001E-01;  0.0000000E+00;0;  0.0000000E+00;  0.0000000E+00;  0.0000000E+00;0;  0.0000000E+00;  1.0000000E+04;  0.0000000E+00;  0.0000000E+00;  1.0000000E+04;  0.0000000E+00;  1.0000000E+04;  0.0000000E+00;  0.0000000E+00;  0.0000000E+00;  0.0000000E+00;
 -2.0000000E-01;  9.9999998E-03;  2.0000000E-01;69;  0.0000000E+00;  0.0000000E+00;  0.0000000E+00;  1.0000000E+03;  4.0000001E-01;  0.0000000E+00;0;  0.0000000E+00;  0.0000000E+00;  0.0000000E+00;0;  0.0000000E+00;  1.0000000E+04;  0.0000000E+00;  0.0000000E+00;  1.0000000E+04;  0.0000000E+00;  1.0000000E+04;  0.0000000E+00;  0.0000000E+00;  0.0000000E+00;  0.0000000E+00;
 -2.0000000E-01;  9.9999998E-03;  2.2000000E-01;70;  0.0000000E+00;  0.0000000E+00;  0.0000000E+00;  1.0000000E+03;  4.0000001E-01;  0.0000000E+00;0;  0.0000000E+00;  0.0000000E+00;  0.0000000E+00;0;  0.0000000E+00;  1.0000000E+04;  0.0000000E+00;  0.0000000E+00;  1.0000000E+04;  0.0000000E+00;  1.0000000E+04;  0.0000000E+00;  0.0000000E+00;  0.0000000E+00;  0.0000000E+00;
 -2.0000000E-01;  9.9999998E-03;  2.3999999E-01;71;  0.0000000E+00;  0.0000000E+00;  0.0000000E+00;  1.0000000E+03;  4.0000001E-01;  0.0000000E+00;0;  0.0000000E+00;  0.0000000E+00;  0.0000000E+00;0;  0.0000000E+00;  1.0000000E+04;  0.0000000E+00;  0.0000000E+00;  1.0000000E+04;  0.0000000E+00;  1.0000000E+04;  0.0000000E+00;  0.0000000E+00;  0.0000000E+00;  0.0000000E+00;
 -2.0000000E-01;  9.9999998E-03;  2.5999999E-01;72;  0.0000000E+00;  0.0000000E+00;  0.0000000E+00;  1.0000000E+03;  4.0000001E-01;  0.0000000E+00;0;  0.0000000E+00;  0.0000000E+00;  0.0000000E+00;0;  0.0000000E+00;  1.0000000E+04;  0.0000000E+00;  0.0000000E+00;  1.0000000E+04;  0.0000000E+00;  1.0000000E+04;  0.0000000E+00;  0.0000000E+00;  0.0000000E+00;  0.0000000E+00;
 -2.0000000E-01;  9.9999998E-03;  2.8000000E-01;73;  0.0000000E+00;  0.0000000E+00;  0.0000000E+00;  1.0000000E+03;  4.0000001E-01;  0.0000000E+00;0;  0.0000000E+00;  0.0000000E+00;  0.0000000E+00;0;  0.0000000E+00;  1.0000000E+04;  0.0000000E+00;  0.0000000E+00;  1.0000000E+04;  0.0000000E+00;  1.0000000E+04;  0.0000000E+00;  0.0000000E+00;  0.0000000E+00;  0.0000000E+00;
 -2.0000000E-01;  9.9999998E-03;  3.0000001E-01;74;  0.0000000E+00;  0.0000000E+00;  0.0000000E+00;  1.0000000E+03;  4.0000001E-01;  0.0000000E+00;0;  0.0000000E+00;  0.0000000E+00;  0.0000000E+00;0;  0.0000000E+00;  1.0000000E+04;  0.0000000E+00;  0.0000000E+00;  1.0000000E+04;  0.0000000E+00;  1.0000000E+04;  0.0000000E+00;  0.0000000E+00;  0.0000000E+00;  0.0000000E+00;
 -2.0000000E-01;  9.9999998E-03;  3.1999999E-01;75;  0.0000000E+00;  0.0000000E+00;  0.0000000E+00;  1.0000000E+03;  4.0000001E-01;  0.0000000E+00;0;  0.0000000E+00;  0.0000000E+00;  0.0000000E+00;0;  0.0000000E+00;  1.0000000E+04;  0.0000000E+00;  0.0000000E+00;  1.0000000E+04;  0.0000000E+00;  1.0000000E+04;  0.0000000E+00;  0.0000000E+00;  0.0000000E+00;  0.0000000E+00;
 -1.8000001E-01;  9.9999998E-03;  1.6000000E-01;108;  0.0000000E+00;  0.0000000E+00;  0.0000000E+00;  1.0000000E+03;  4.0000001E-01;  0.0000000E+00;0;  0.0000000E+00;  0.0000000E+00;  0.0000000E+00;0;  0.0000000E+00;  1.0000000E+04;  0.0000000E+00;  0.0000000E+00;  1.0000000E+04;  0.0000000E+00;  1.0000000E+04;  0.0000000E+00;  0.0000000E+00;  0.0000000E+00;  0.0000000E+00;
 -1.8000001E-01;  9.9999998E-03;  1.8000001E-01;109;  0.0000000E+00;  0.0000000E+00;  0.0000000E+00;  1.0000000E+03;  4.0000001E-01;  0.0000000E+00;0;  0.0000000E+00;  0.0000000E+00;  0.0000000E+00;0;  0.0000000E+00;  1.0000000E+04;  0.0000000E+00;  0.0000000E+00;  1.0000000E+04;  0.0000000E+00;  1.0000000E+04;  0.0000000E+00;  0.0000000E+00;  0.0000000E+00;  0.0000000E+00;
 -1.8000001E-01;  9.9999998E-03;  2.0000000E-01;110;  0.0000000E+00;  0.0000000E+00;  0.0000000E+00;  1.0000000E+03;  4.0000001E-01;  0.0000000E+00;0;  0.0000000E+00;  0.0000000E+00;  0.0000000E+00;0;  0.0000000E+00;  1.0000000E+04;  0.0000000E+00;  0.0000000E+00;  1.0000000E+04;  0.0000000E+00;  1.0000000E+04;  0.0000000E+00;  0.0000000E+00;  0.0000000E+00;  0.0000000E+00;
 -1.8000001E-01;  9.9999998E-03;  2.2000000E-01;111;  0.0000000E+00;  0.0000000E+00;  0.0000000E+00;  1.0000000E+03;  4.0000001E-01;  0.0000000E+00;0;  0.0000000E+00;  0.0000000E+00;  0.0000000E+00;0;  0.0000000E+00;  1.0000000E+04;  0.0000000E+00;  0.0000000E+00;  1.0000000E+04;  0.0000000E+00;  1.0000000E+04;  0.0000000E+00;  0.0000000E+00;  0.0000000E+00;  0.0000000E+00;
 -1.8000001E-01;  9.9999998E-03;  2.3999999E-01;112;  0.0000000E+00;  0.0000000E+00;  0.0000000E+00;  1.0000000E+03;  4.0000001E-01;  0.0000000E+00;0;  0.0000000E+00;  0.0000000E+00;  0.0000000E+00;0;  0.0000000E+00;  1.0000000E+04;  0.0000000E+00;  0.0000000E+00;  1.0000000E+04;  0.0000000E+00;  1.0000000E+04;  0.0000000E+00;  0.0000000E+00;  0.0000000E+00;  0.0000000E+00;
 -1.8000001E-01;  9.9999998E-03;  2.5999999E-01;113;  0.0000000E+00;  0.0000000E+00;  0.0000000E+00;  1.0000000E+03;  4.0000001E-01;  0.0000000E+00;0;  0.0000000E+00;  0.0000000E+00;  0.0000000E+00;0;  0.0000000E+00;  1.0000000E+04;  0.0000000E+00;  0.0000000E+00;  1.0000000E+04;  0.0000000E+00;  1.0000000E+04;  0.0000000E+00;  0.0000000E+00;  0.0000000E+00;  0.0000000E+00;
 -1.8000001E-01;  9.9999998E-03;  2.8000000E-01;114;  0.0000000E+00;  0.0000000E+00;  0.0000000E+00;  1.0000000E+03;  4.0000001E-01;  0.0000000E+00;0;  0.0000000E+00;  0.0000000E+00;  0.0000000E+00;0;  0.0000000E+00;  1.0000000E+04;  0.0000000E+00;  0.0000000E+00;  1.0000000E+04;  0.0000000E+00;  1.0000000E+04;  0.0000000E+00;  0.0000000E+00;  0.0000000E+00;  0.0000000E+00;
 -1.8000001E-01;  9.9999998E-03;  3.0000001E-01;115;  0.0000000E+00;  0.0000000E+00;  0.0000000E+00;  1.0000000E+03;  4.0000001E-01;  0.0000000E+00;0;  0.0000000E+00;  0.0000000E+00;  0.0000000E+00;0;  0.0000000E+00;  1.0000000E+04;  0.0000000E+00;  0.0000000E+00;  1.0000000E+04;  0.0000000E+00;  1.0000000E+04;  0.0000000E+00;  0.0000000E+00;  0.0000000E+00;  0.0000000E+00;
 -1.8000001E-01;  9.9999998E-03;  3.1999999E-01;116;  0.0000000E+00;  0.0000000E+00;  0.0000000E+00;  1.0000000E+03;  4.0000001E-01;  0.0000000E+00;0;  0.0000000E+00;  0.0000000E+00;  0.0000000E+00;0;  0.0000000E+00;  1.0000000E+04;  0.0000000E+00;  0.0000000E+00;  1.0000000E+04;  0.0000000E+00;  1.0000000E+04;  0.0000000E+00;  0.0000000E+00;  0.0000000E+00;  0.0000000E+00;
 -1.6000000E-01;  9.9999998E-03;  1.6000000E-01;149;  0.0000000E+00;  0.0000000E+00;  0.0000000E+00;  1.0000000E+03;  4.0000001E-01;  0.0000000E+00;0;  0.0000000E+00;  0.0000000E+00;  0.0000000E+00;0; -1.9357149E-05;  1.0000000E+04;  0.0000000E+00;  0.0000000E+00;  1.0000000E+04;  0.0000000E+00;  1.0000000E+04; -1.9391522E-05;  0.0000000E+00;  3.4374267E-08;  4.1630063E-03;
 -1.6000000E-01;  9.9999998E-03;  1.8000001E-01;150;  0.0000000E+00;  0.0000000E+00;  0.0000000E+00;  1.0000000E+03;  4.0000001E-01;  0.0000000E+00;0;  0.0000000E+00;  0.0000000E+00;  0.0000000E+00;0; -1.8677487E-05;  1.0000000E+04;  0.0000000E+00;  0.0000000E+00;  1.0000000E+04;  0.0000000E+00;  1.0000000E+04; -1.8714667E-05;  0.0000000E+00;  3.7180587E-08;  4.1403691E-03;
 -1.6000000E-01;  9.9999998E-03;  2.0000000E-01;151;  0.0000000E+00;  0.0000000E+00;  0.0000000E+00;  1.0000000E+03;  4.0000001E-01;  0.0000000E+00;0;  0.0000000E+00;  0.0000000E+00;  0.0000000E+00;0; -1.7713524E-05;  1.0000000E+04;  0.0000000E+00;  0.0000000E+00;  1.0000000E+04;  0.0000000E+00;  1.0000000E+04; -1.7752182E-05;  0.0000000E+00;  3.8656388E-08;  4.0289531E-03;
 -1.6000000E-01;  9.9999998E-03;  2.2000000E-01;152;  0.0000000E+00;  0.0000000E+00;  0.0000000E+00;  1.0000000E+03;  4.0000001E-01;  0.0000000E+00;0;  0.0000000E+00;  0.0000000E+00;  0.0000000E+00;0; -1.6409025E-05;  1.0000000E+04;  0.0000000E+00;  0.0000000E+00;  1.0000000E+04;  0.0000000E+00;  1.0000000E+04; -1.6446651E-05;  0.0000000E+00;  3.7626428E-08;  3.7893595E-03;
 -1.6000000E-01;  9.9999998E-03;  2.3999999E-01;153;  0.0000000E+00;  0.0000000E+00;  0.0000000E+00;  1.0000000E+03;  4.0000001E-01;  0.0000000E+00;0;  0.0000000E+00;  0.0000000E+00;  0.0000000E+00;0; -1.4729955E-05;  1.0000000E+04;  0.0000000E+00;  0.0000000E+00;  1.0000000E+04;  0.0000000E+00;  1.0000000E+04; -1.4761456E-05;  0.0000000E+00;  3.1500488E-08;  3.3661157E-03;
 -1.6000000E-01;  9.9999998E-03;  2.5999999E-01;154;  0.0000000E+00;  0.0000000E+00;  0.0000000E+00;  1.0000000E+03;  4.0000001E-01;  0.0000000E+00;0;  0.0000000E+00;  0.0000000E+00;  0.0000000E+00;0; -1.2361848E-05;  1.0000000E+04;  0.0000000E+00;  0.0000000E+00;  1.0000000E+04;  0.0000000E+00;  1.0000000E+04; -1.2342323E-05;  0.0000000E+00; -1.9524840E-08;  1.8715319E-03;
 -1.6000000E-01;  9.9999998E-03;  2.8000000E-01;155;  0.0000000E+00;  0.0000000E+00;  0.0000000E+00;  1.0000000E+03;  4.0000001E-01;  0.0000000E+00;0;  0.0000000E+00;  0.0000000E+00;  0.0000000E+00;0; -8.2413835E-06;  1.0000000E+04;  0.0000000E+00;  0.0000000E+00;  1.0000000E+04;  0.0000000E+00;  1.0000000E+04; -8.0993323E-06;  0.0000000E+00; -1.4205133E-07;  1.5795620E-03;
 -1.6000000E-01;  9.9999998E-03;  3.0000001E-01;156;  0.0000000E+00;  0.0000000E+00;  0.0000000E+00;  1.0000000E+03;  4.0000001E-01;  0.0000000E+00;0;  0.0000000E+00;  0.0000000E+00;  0.0000000E+00;0; -3.4812870E-06;  1.0000000E+04;  0.0000000E+00;  0.0000000E+00;  1.0000000E+04;  0.0000000E+00;  1.0000000E+04; -3.3256856E-06;  0.0000000E+00; -1.5560144E-07;  2.7159646E-03;
 -1.6000000E-01;  9.9999998E-03;  3.1999999E-01;157;  0.0000000E+00;  0.0000000E+00;  0.0000000E+00;  1.0000000E+03;  4.0000001E-01;  0.0000000E+00;0;  0.0000000E+00;  0.0000000E+00;  0.0000000E+00;0; -5.4874573E-07;  1.0000000E+04;  0.0000000E+00;  0.0000000E+00;  1.0000000E+04;  0.0000000E+00;  1.0000000E+04; -5.0270899E-07;  0.0000000E+00; -4.6036764E-08;  8.6981239E-04;
 -1.4000000E-01;  9.9999998E-03;  1.6000000E-01;190;  0.0000000E+00;  0.0000000E+00;  0.0000000E+00;  1.0000015E+03;  4.0000001E-01;  1.2839141E+00;0;  0.0000000E+00;  0.0000000E+00;  0.0000000E+00;0; -7.0171553E-04;  1.0000000E+04;  0.0000000E+00;  0.0000000E+00;  1.0000000E+04;  0.0000000E+00;  1.0000000E+04; -7.0597755E-04;  0.0000000E+00;  4.2620218E-06;  2.1776834E-01;
 -1.4000000E-01;  9.9999998E-03;  1.8000001E-01;191;  0.0000000E+00;  0.0000000E+00;  0.0000000E+00;  1.0000015E+03;  4.0000001E-01;  1.1851515E+00;0;  0.0000000E+00;  0.0000000E+00;  0.0000000E+00;0; -6.7503890E-04;  1.0000000E+04;  0.0000000E+00;  0.0000000E+00;  1.0000000E+04;  0.0000000E+00;  1.0000000E+04; -6.7959732E-04;  0.0000000E+00;  4.5584216E-06;  2.2238562E-01;
 -1.4000000E-01;  9.9999998E-03;  2.0000000E-01;192;  0.0000000E+00;  0.0000000E+00;  0.0000000E+00;  1.0000014E+03;  4.0000001E-01;  1.1851515E+00;0;  0.0000000E+00;  0.0000000E+00;  0.0000000E+00;0; -6.3824869E-04;  1.0000000E+04;  0.0000000E+00;  0.0000000E+00;  1.0000000E+04;  0.0000000E+00;  1.0000000E+04; -6.4289250E-04;  0.0000000E+00;  4.6437926E-06;  2.1973285E-01;
 -1.4000000E-01;  9.9999998E-03;  2.2000000E-01;193;  0.0000000E+00;  0.0000000E+00;  0.0000000E+00;  1.0000013E+03;  4.0000001E-01;  1.0863888E+00;0;  0.0000000E+00;  0.0000000E+00;  0.0000000E+00;0; -5.8874680E-04;  1.0000000E+04;  0.0000000E+00;  0.0000000E+00;  1.0000000E+04;  0.0000000E+00;  1.0000000E+04; -5.9267960E-04;  0.0000000E+00;  3.9328020E-06;  1.9678319E-01;
 -1.4000000E-01;  9.9999998E-03;  2.3999999E-01;194;  0.0000000E+00;  0.0000000E+00;  0.0000000E+00;  1.0000011E+03;  4.0000001E-01;  8.8886362E-01;0;  0.0000000E+00;  0.0000000E+00;  0.0000000E+00;0; -5.1808148E-04;  1.0000000E+04;  0.0000000E+00;  0.0000000E+00;  1.0000000E+04;  0.0000000E+00;  1.0000000E+04; -5.1853724E-04;  0.0000000E+00;  4.5577696E-07;  1.1072174E-01;
 -1.4000000E-01;  9.9999998E-03;  2.5999999E-01;195;  0.0000000E+00;  0.0000000E+00;  0.0000000E+00;  1.0000009E+03;  4.0000001E-01;  7.9010099E-01;0;  0.0000000E+00;  0.0000000E+00;  0.0000000E+00;0; -4.2018882E-04;  1.0000000E+04;  0.0000000E+00;  0.0000000E+00;  1.0000000E+04;  0.0000000E+00;  1.0000000E+04; -4.1472749E-04;  0.0000000E+00; -5.4613442E-06;  3.2428533E-02;
 -1.4000000E-01;  9.9999998E-03;  2.8000000E-01;196;  0.0000000E+00;  0.0000000E+00;  0.0000000E+00;  1.0000005E+03;  4.0000001E-01;  4.9381313E-01;0;  0.0000000E+00;  0.0000000E+00;  0.0000000E+00;0; -3.0163676E-04;  1.0000000E+04;  0.0000000E+00;  0.0000000E+00;  1.0000000E+04;  0.0000000E+00;  1.0000000E+04; -2.9101645E-04;  0.0000000E+00; -1.0620306E-05;  1.6432041E-01;
 -1.4000000E-01;  9.9999998E-03;  3.0000001E-01;197;  0.0000000E+00;  0.0000000E+00;  0.0000000E+00;  1.0000003E+03;  4.0000001E-01;  2.9628786E-01;0;  0.0000000E+00;  0.0000000E+00;  0.0000000E+00;0; -1.8213144E-04;  1.0000000E+04;  0.0000000E+00;  0.0000000E+00;  1.0000000E+04;  0.0000000E+00;  1.0000000E+04; -1.7003075E-04;  0.0000000E+00; -1.2100687E-05;  2.2050934E-01;
 -1.4000000E-01;  9.9999998E-03;  3.1999999E-01;198;  0.0000000E+00;  0.0000000E+00;  0.0000000E+00;  1.0000000E+03;  4.0000001E-01;  0.0000000E+00;0;  0.0000000E+00;  0.0000000E+00;  0.0000000E+00;0; -8.5524262E-05;  1.0000000E+04;  0.0000000E+00;  0.0000000E+00;  1.0000000E+04;  0.0000000E+00;  1.0000000E+04; -7.6232878E-05;  0.0000000E+00; -9.2913851E-06;  1.8061931E-01;
 -1.2000000E-01;  9.9999998E-03;  1.6000000E-01;231;  0.0000000E+00;  0.0000000E+00;  0.0000000E+00;  1.0000085E+03;  4.0000001E-01;  7.1109090E+00;0;  0.0000000E+00;  0.0000000E+00;  0.0000000E+00;0; -3.8508787E-03;  1.0000000E+04;  0.0000000E+00;  0.0000000E+00;  1.0000000E+04;  0.0000000E+00;  1.0000000E+04; -3.8913733E-03;  0.0000000E+00;  4.0494499E-05;  1.5739913E+00;
 -1.2000000E-01;  9.9999998E-03;  1.8000001E-01;232;  0.0000000E+00;  0.0000000E+00;  0.0000000E+00;  1.0000083E+03;  4.0000001E-01;  6.9133835E+00;0;  0.0000000E+00;  0.0000000E+00;  0.0000000E+00;0; -3.6982952E-03;  1.0000000E+04;  0.0000000E+00;  0.0000000E+00;  1.0000000E+04;  0.0000000E+00;  1.0000000E+04; -3.7409398E-03;  0.0000000E+00;  4.2644620E-05;  1.6187379E+00;
 -1.2000000E-01;  9.9999998E-03;  2.0000000E-01;233;  0.0000000E+00;  0.0000000E+00;  0.0000000E+00;  1.0000078E+03;  4.0000001E-01;  6.4195704E+00;0;  0.0000000E+00;  0.0000000E+00;  0.0000000E+00;0; -3.4887686E-03;  1.0000000E+04;  0.0000000E+00;  0.0000000E+00;  1.0000000E+04;  0.0000000E+00;  1.0000000E+04; -3.5291708E-03;  0.0000000E+00;  4.0402192E-05;  1.5519547E+00;
 -1.2000000E-01;  9.9999998E-03;  2.2000000E-01;234;  0.0000000E+00;  0.0000000E+00;  0.0000000E+00;  1.0000071E+03;  4.0000001E-01;  5.9257574E+00;0;  0.0000000E+00;  0.0000000E+00;  0.0000000E+00;0; -3.2008130E-03;  1.0000000E+04;  0.0000000E+00;  0.0000000E+00;  1.0000000E+04;  0.0000000E+00;  1.0000000E+04; -3.2265109E-03;  0.0000000E+00;  2.5698089E-05;  1.1982043E+00;
 -1.2000000E-01;  9.9999998E-03;  2.3999999E-01;235;  0.0000000E+00;  0.0000000E+00;  0.0000000E+00;  1.0000062E+03;  4.0000001E-01;  5.1356564E+00;0;  0.0000000E+00;  0.0000000E+00;  0.0000000E+00;0; -2.8136226E-03;  1.0000000E+04;  0.0000000E+00;  0.0000000E+00;  1.0000000E+04;  0.0000000E+00;  1.0000000E+04; -2.8092689E-03;  0.0000000E+00; -4.3537229E-06;  4.9273881E-01;
 -1.2000000E-01;  9.9999998E-03;  2.5999999E-01;236;  0.0000000E+00;  0.0000000E+00;  0.0000000E+00;  1.0000051E+03;  4.0000001E-01;  4.2467928E+00;0;  0.0000000E+00;  0.0000000E+00;  0.0000000E+00;0; -2.3216151E-03;  1.0000000E+04;  0.0000000E+00;  0.0000000E+00;  1.0000000E+04;  0.0000000E+00;  1.0000000E+04; -2.2778690E-03;  0.0000000E+00; -4.3746153E-05;  4.3724650E-01;
 -1.2000000E-01;  9.9999998E-03;  2.8000000E-01;237;  0.0000000E+00;  0.0000000E+00;  0.0000000E+00;  1.0000040E+03;  4.0000001E-01;  3.2591665E+00;0;  0.0000000E+00;  0.0000000E+00;  0.0000000E+00;0; -1.7536680E-03;  1.0000000E+04;  0.0000000E+00;  0.0000000E+00;  1.0000000E+04;  0.0000000E+00;  1.0000000E+04; -1.6755973E-03;  0.0000000E+00; -7.8070669E-05;  1.2789692E+00;
 -1.2000000E-01;  9.9999998E-03;  3.0000001E-01;238;  0.0000000E+00;  0.0000000E+00;  0.0000000E+00;  1.0000027E+03;  4.0000001E-01;  2.2715404E+00;0;  0.0000000E+00;  0.0000000E+00;  0.0000000E+00;0; -1.1800982E-03;  1.0000000E+04;  0.0000000E+00;  0.0000000E+00;  1.0000000E+04;  0.0000000E+00;  1.0000000E+04; -1.0859129E-03;  0.0000000E+00; -9.4185256E-05;  1.7400930E+00;
 -1.2000000E-01;  9.9999998E-03;  3.1999999E-01;239;  0.0000000E+00;  0.0000000E+00;  0.0000000E+00;  1.0000015E+03;  4.0000001E-01;  1.1851515E+00;0;  0.0000000E+00;  0.0000000E+00;  0.0000000E+00;0; -6.8479584E-04;  1.0000000E+04;  0.0000000E+00;  0.0000000E+00;  1.0000000E+04;  0.0000000E+00;  1.0000000E+04; -5.9760932E-04;  0.0000000E+00; -8.7186541E-05;  1.7000822E+00;
 -1.0000000E-01;  9.9999998E-03;  1.6000000E-01;272;  0.0000000E+00;  0.0000000E+00;  0.0000000E+00;  1.0000273E+03;  4.0000001E-01;  2.2616640E+01;0;  0.0000000E+00;  0.0000000E+00;  0.0000000E+00;0; -1.2178158E-02;  1.0000000E+04;  0.0000000E+00;  0.0000000E+00;  1.0000000E+04;  0.0000000E+00;  1.0000000E+04; -1.2359185E-02;  0.0000000E+00;  1.8102716E-04;  6.1589990E+00;
 -1.0000000E-01;  9.9999998E-03;  1.8000001E-01;273;  0.0000000E+00;  0.0000000E+00;  0.0000000E+00;  1.0000261E+03;  4.0000001E-01;  2.1629015E+01;0;  0.0000000E+00;  0.0000000E+00;  0.0000000E+00;0; -1.1683431E-02;  1.0000000E+04;  0.0000000E+00;  0.0000000E+00;  1.0000000E+04;  0.0000000E+00;  1.0000000E+04; -1.1868726E-02;  0.0000000E+00;  1.8529469E-04;  6.2761564E+00;
 -1.0000000E-01;  9.9999998E-03;  2.0000000E-01;274;  0.0000000E+00;  0.0000000E+00;  0.0000000E+00;  1.0000249E+03;  4.0000001E-01;  2.0641388E+01;0;  0.0000000E+00;  0.0000000E+00;  0.0000000E+00;0; -1.1006250E-02;  1.0000000E+04;  0.0000000E+00;  0.0000000E+00;  1.0000000E+04;  0.0000000E+00;  1.0000000E+04; -1.1168726E-02;  0.0000000E+00;  1.6247589E-04;  5.7521124E+00;
 -1.0000000E-01;  9.9999998E-03;  2.2000000E-01;275;  0.0000000E+00;  0.0000000E+00;  0.0000000E+00;  1.0000228E+03;  4.0000001E-01;  1.8863661E+01;0;  0.0000000E+00;  0.0000000E+00;  0.0000000E+00;0; -1.0099243E-02;  1.0000000E+04;  0.0000000E+00;  0.0000000E+00;  1.0000000E+04;  0.0000000E+00;  1.0000000E+04; -1.0193939E-02;  0.0000000E+00;  9.4696392E-05;  4.1916995E+00;
 -1.0000000E-01;  9.9999998E-03;  2.3999999E-01;276;  0.0000000E+00;  0.0000000E+00;  0.0000000E+00;  1.0000203E+03;  4.0000001E-01;  1.6789646E+01;0;  0.0000000E+00;  0.0000000E+00;  0.0000000E+00;0; -8.9223124E-03;  1.0000000E+04;  0.0000000E+00;  0.0000000E+00;  1.0000000E+04;  0.0000000E+00;  1.0000000E+04; -8.8988142E-03;  0.0000000E+00; -2.3498100E-05;  1.4705957E+00;
 -1.0000000E-01;  9.9999998E-03;  2.5999999E-01;277;  0.0000000E+00;  0.0000000E+00;  0.0000000E+00;  1.0000170E+03;  4.0000001E-01;  1.4123055E+01;0;  0.0000000E+00;  0.0000000E+00;  0.0000000E+00;0; -7.4694036E-03;  1.0000000E+04;  0.0000000E+00;  0.0000000E+00;  1.0000000E+04;  0.0000000E+00;  1.0000000E+04; -7.2985943E-03;  0.0000000E+00; -1.7080911E-04;  1.9550432E+00;
 -1.0000000E-01;  9.9999998E-03;  2.8000000E-01;278;  0.0000000E+00;  0.0000000E+00;  0.0000000E+00;  1.0000132E+03;  4.0000001E-01;  1.0962651E+01;0;  0.0000000E+00;  0.0000000E+00;  0.0000000E+00;0; -5.8122473E-03;  1.0000000E+04;  0.0000000E+00;  0.0000000E+00;  1.0000000E+04;  0.0000000E+00;  1.0000000E+04; -5.5103777E-03;  0.0000000E+00; -3.0186979E-04;  5.0954351E+00;
 -1.0000000E-01;  9.9999998E-03;  3.0000001E-01;279;  0.0000000E+00;  0.0000000E+00;  0.0000000E+00;  1.0000093E+03;  4.0000001E-01;  7.7034845E+00;0;  0.0000000E+00;  0.0000000E+00;  0.0000000E+00;0; -4.1254838E-03;  1.0000000E+04;  0.0000000E+00;  0.0000000E+00;  1.0000000E+04;  0.0000000E+00;  1.0000000E+04; -3.7492081E-03;  0.0000000E+00; -3.7627580E-04;  7.0439582E+00;
 -1.0000000E-01;  9.9999998E-03;  3.1999999E-01;280;  0.0000000E+00;  0.0000000E+00;  0.0000000E+00;  1.0000059E+03;  4.0000001E-01;  4.9381313E+00;0;  0.0000000E+00;  0.0000000E+00;  0.0000000E+00;0; -2.6262305E-03;  1.0000000E+04;  0.0000000E+00;  0.0000000E+00;  1.0000000E+04;  0.0000000E+00;  1.0000000E+04; -2.2490560E-03;  0.0000000E+00; -3.7717458E-04;  7.3943782E+00;
 -7.9999998E-02;  9.9999998E-03;  1.6000000E-01;313;  0.0000000E+00;  0.0000000E+00;  0.0000000E+00;  1.0000648E+03;  4.0000001E-01;  5.3726868E+01;0;  0.0000000E+00;  0.0000000E+00;  0.0000000E+00;0; -2.8748598E-02;  1.0000000E+04;  0.0000000E+00;  0.0000000E+00;  1.0000000E+04;  0.0000000E+00;  1.0000000E+04; -2.9290337E-02;  0.0000000E+00;  5.4173893E-04;  1.7126072E+01;
 -7.9999998E-02;  9.9999998E-03;  1.8000001E-01;314;  0.0000000E+00;  0.0000000E+00;  0.0000000E+00;  1.0000621E+03;  4.0000001E-01;  5.1455326E+01;0;  0.0000000E+00;  0.0000000E+00;  0.0000000E+00;0; -2.7570689E-02;  1.0000000E+04;  0.0000000E+00;  0.0000000E+00;  1.0000000E+04;  0.0000000E+00;  1.0000000E+04; -2.8109025E-02;  0.0000000E+00;  5.3833623E-04;  1.7192373E+01;
 -7.9999998E-02;  9.9999998E-03;  2.0000000E-01;315;  0.0000000E+00;  0.0000000E+00;  0.0000000E+00;  1.0000588E+03;  4.0000001E-01;  4.8689972E+01;0;  0.0000000E+00;  0.0000000E+00;  0.0000000E+00;0; -2.5979390E-02;  1.0000000E+04;  0.0000000E+00;  0.0000000E+00;  1.0000000E+04;  0.0000000E+00;  1.0000000E+04; -2.6437288E-02;  0.0000000E+00;  4.5789740E-04;  1.5443545E+01;
 -7.9999998E-02;  9.9999998E-03;  2.2000000E-01;316;  0.0000000E+00;  0.0000000E+00;  0.0000000E+00;  1.0000541E+03;  4.0000001E-01;  4.4838230E+01;0;  0.0000000E+00;  0.0000000E+00;  0.0000000E+00;0; -2.3887487E-02;  1.0000000E+04;  0.0000000E+00;  0.0000000E+00;  1.0000000E+04;  0.0000000E+00;  1.0000000E+04; -2.4146378E-02;  0.0000000E+00;  2.5889129E-04;  1.0954602E+01;
 -7.9999998E-02;  9.9999998E-03;  2.3999999E-01;317;  0.0000000E+00;  0.0000000E+00;  0.0000000E+00;  1.0000483E+03;  4.0000001E-01;  3.9998863E+01;0;  0.0000000E+00;  0.0000000E+00;  0.0000000E+00;0; -2.1219414E-02;  1.0000000E+04;  0.0000000E+00;  0.0000000E+00;  1.0000000E+04;  0.0000000E+00;  1.0000000E+04; -2.1150699E-02;  0.0000000E+00; -6.8715111E-05;  3.4920917E+00;
 -7.9999998E-02;  9.9999998E-03;  2.5999999E-01;318;  0.0000000E+00;  0.0000000E+00;  0.0000000E+00;  1.0000410E+03;  4.0000001E-01;  3.3974342E+01;0;  0.0000000E+00;  0.0000000E+00;  0.0000000E+00;0; -1.7960064E-02;  1.0000000E+04;  0.0000000E+00;  0.0000000E+00;  1.0000000E+04;  0.0000000E+00;  1.0000000E+04; -1.7490895E-02;  0.0000000E+00; -4.6916868E-04;  5.7427907E+00;
 -7.9999998E-02;  9.9999998E-03;  2.8000000E-01;319;  0.0000000E+00;  0.0000000E+00;  0.0000000E+00;  1.0000325E+03;  4.0000001E-01;  2.6962196E+01;0;  0.0000000E+00;  0.0000000E+00;  0.0000000E+00;0; -1.4245411E-02;  1.0000000E+04;  0.0000000E+00;  0.0000000E+00;  1.0000000E+04;  0.0000000E+00;  1.0000000E+04; -1.3414280E-02;  0.0000000E+00; -8.3113048E-04;  1.4309311E+01;
 -7.9999998E-02;  9.9999998E-03;  3.0000001E-01;320;  0.0000000E+00;  0.0000000E+00;  0.0000000E+00;  1.0000238E+03;  4.0000001E-01;  1.9752525E+01;0;  0.0000000E+00;  0.0000000E+00;  0.0000000E+00;0; -1.0432348E-02;  1.0000000E+04;  0.0000000E+00;  0.0000000E+00;  1.0000000E+04;  0.0000000E+00;  1.0000000E+04; -9.3756793E-03;  0.0000000E+00; -1.0566682E-03;  2.0000999E+01;
 -7.9999998E-02;  9.9999998E-03;  3.1999999E-01;321;  0.0000000E+00;  0.0000000E+00;  0.0000000E+00;  1.0000160E+03;  4.0000001E-01;  1.3234192E+01;0;  0.0000000E+00;  0.0000000E+00;  0.0000000E+00;0; -6.9826180E-03;  1.0000000E+04;  0.0000000E+00;  0.0000000E+00;  1.0000000E+04;  0.0000000E+00;  1.0000000E+04; -5.8791442E-03;  0.0000000E+00; -1.1034739E-03;  2.1797482E+01;
 -5.9999999E-02;  9.9999998E-03;  1.6000000E-01;354;  0.0000000E+00;  0.0000000E+00;  0.0000000E+00;  1.0001249E+03;  4.0000001E-01;  1.0350323E+02;0;  0.0000000E+00;  0.0000000E+00;  0.0000000E+00;0; -5.5300239E-02;  1.0000000E+04;  0.0000000E+00;  0.0000000E+00;  1.0000000E+04;  0.0000000E+00;  1.0000000E+04; -5.6549072E-02;  0.0000000E+00;  1.2488334E-03;  3.7714745E+01;
 -5.9999999E-02;  9.9999998E-03;  1.8000001E-01;355;  0.0000000E+00;  0.0000000E+00;  0.0000000E+00;  1.0001201E+03;  4.0000001E-01;  9.9552727E+01;0;  0.0000000E+00;  0.0000000E+00;  0.0000000E+00;0; -5.3054132E-02;  1.0000000E+04;  0.0000000E+00;  0.0000000E+00;  1.0000000E+04;  0.0000000E+00;  1.0000000E+04; -5.4275591E-02;  0.0000000E+00;  1.2214585E-03;  3.7563755E+01;
 -5.9999999E-02;  9.9999998E-03;  2.0000000E-01;356;  0.0000000E+00;  0.0000000E+00;  0.0000000E+00;  1.0001136E+03;  4.0000001E-01;  9.4120781E+01;0;  0.0000000E+00;  0.0000000E+00;  0.0000000E+00;0; -5.0053604E-02;  1.0000000E+04;  0.0000000E+00;  0.0000000E+00;  1.0000000E+04;  0.0000000E+00;  1.0000000E+04; -5.1078215E-02;  0.0000000E+00;  1.0246126E-03;  3.3414879E+01;
 -5.9999999E-02;  9.9999998E-03;  2.2000000E-01;357;  0.0000000E+00;  0.0000000E+00;  0.0000000E+00;  1.0001052E+03;  4.0000001E-01;  8.7207397E+01;0;  0.0000000E+00;  0.0000000E+00;  0.0000000E+00;0; -4.6154659E-02;  1.0000000E+04;  0.0000000E+00;  0.0000000E+00;  1.0000000E+04;  0.0000000E+00;  1.0000000E+04; -4.6728384E-02;  0.0000000E+00;  5.7372416E-04;  2.3370049E+01;
 -5.9999999E-02;  9.9999998E-03;  2.3999999E-01;358;  0.0000000E+00;  0.0000000E+00;  0.0000000E+00;  1.0000942E+03;  4.0000001E-01;  7.8022476E+01;0;  0.0000000E+00;  0.0000000E+00;  0.0000000E+00;0; -4.1222744E-02;  1.0000000E+04;  0.0000000E+00;  0.0000000E+00;  1.0000000E+04;  0.0000000E+00;  1.0000000E+04; -4.1074991E-02;  0.0000000E+00; -1.4775092E-04;  7.0327568E+00;
 -5.9999999E-02;  9.9999998E-03;  2.5999999E-01;359;  0.0000000E+00;  0.0000000E+00;  0.0000000E+00;  1.0000806E+03;  4.0000001E-01;  6.6763535E+01;0;  0.0000000E+00;  0.0000000E+00;  0.0000000E+00;0; -3.5209734E-02;  1.0000000E+04;  0.0000000E+00;  0.0000000E+00;  1.0000000E+04;  0.0000000E+00;  1.0000000E+04; -3.4184299E-02;  0.0000000E+00; -1.0254340E-03;  1.3118093E+01;
 -5.9999999E-02;  9.9999998E-03;  2.8000000E-01;360;  0.0000000E+00;  0.0000000E+00;  0.0000000E+00;  1.0000650E+03;  4.0000001E-01;  5.3825630E+01;0;  0.0000000E+00;  0.0000000E+00;  0.0000000E+00;0; -2.8317440E-02;  1.0000000E+04;  0.0000000E+00;  0.0000000E+00;  1.0000000E+04;  0.0000000E+00;  1.0000000E+04; -2.6485607E-02;  0.0000000E+00; -1.8318332E-03;  3.2069077E+01;
 -5.9999999E-02;  9.9999998E-03;  3.0000001E-01;361;  0.0000000E+00;  0.0000000E+00;  0.0000000E+00;  1.0000487E+03;  4.0000001E-01;  4.0393913E+01;0;  0.0000000E+00;  0.0000000E+00;  0.0000000E+00;0; -2.1166325E-02;  1.0000000E+04;  0.0000000E+00;  0.0000000E+00;  1.0000000E+04;  0.0000000E+00;  1.0000000E+04; -1.8804789E-02;  0.0000000E+00; -2.3615356E-03;  4.5177837E+01;
 -5.9999999E-02;  9.9999998E-03;  3.1999999E-01;362;  0.0000000E+00;  0.0000000E+00;  0.0000000E+00;  1.0000335E+03;  4.0000001E-01;  2.7752296E+01;0;  0.0000000E+00;  0.0000000E+00;  0.0000000E+00;0; -1.4612468E-02;  1.0000000E+04;  0.0000000E+00;  0.0000000E+00;  1.0000000E+04;  0.0000000E+00;  1.0000000E+04; -1.2088737E-02;  0.0000000E+00; -2.5237305E-03;  5.0258358E+01;
 -3.9999999E-02;  9.9999998E-03;  1.6000000E-01;395;  0.0000000E+00;  0.0000000E+00;  0.0000000E+00;  1.0002052E+03;  4.0000001E-01;  1.6997047E+02;0;  0.0000000E+00;  0.0000000E+00;  0.0000000E+00;0; -9.0452947E-02;  1.0000000E+04;  0.0000000E+00;  0.0000000E+00;  1.0000000E+04;  0.0000000E+00;  1.0000000E+04; -9.2840560E-02;  0.0000000E+00;  2.3876166E-03;  6.9837959E+01;
 -3.9999999E-02;  9.9999998E-03;  1.8000001E-01;396;  0.0000000E+00;  0.0000000E+00;  0.0000000E+00;  1.0001976E+03;  4.0000001E-01;  1.6364967E+02;0;  0.0000000E+00;  0.0000000E+00;  0.0000000E+00;0; -8.6863272E-02;  1.0000000E+04;  0.0000000E+00;  0.0000000E+00;  1.0000000E+04;  0.0000000E+00;  1.0000000E+04; -8.9178257E-02;  0.0000000E+00;  2.3149848E-03;  6.9320641E+01;
 -3.9999999E-02;  9.9999998E-03;  2.0000000E-01;397;  0.0000000E+00;  0.0000000E+00;  0.0000000E+00;  1.0001873E+03;  4.0000001E-01;  1.5515608E+02;0;  0.0000000E+00;  0.0000000E+00;  0.0000000E+00;0; -8.2106411E-02;  1.0000000E+04;  0.0000000E+00;  0.0000000E+00;  1.0000000E+04;  0.0000000E+00;  1.0000000E+04; -8.4036067E-02;  0.0000000E+00;  1.9296574E-03;  6.1394600E+01;
 -3.9999999E-02;  9.9999998E-03;  2.2000000E-01;398;  0.0000000E+00;  0.0000000E+00;  0.0000000E+00;  1.0001738E+03;  4.0000001E-01;  1.4399591E+02;0;  0.0000000E+00;  0.0000000E+00;  0.0000000E+00;0; -7.5967528E-02;  1.0000000E+04;  0.0000000E+00;  0.0000000E+00;  1.0000000E+04;  0.0000000E+00;  1.0000000E+04; -7.7051945E-02;  0.0000000E+00;  1.0844171E-03;  4.2717110E+01;
 -3.9999999E-02;  9.9999998E-03;  2.3999999E-01;399;  0.0000000E+00;  0.0000000E+00;  0.0000000E+00;  1.0001564E+03;  4.0000001E-01;  1.2957657E+02;0;  0.0000000E+00;  0.0000000E+00;  0.0000000E+00;0; -6.8229996E-02;  1.0000000E+04;  0.0000000E+00;  0.0000000E+00;  1.0000000E+04;  0.0000000E+00;  1.0000000E+04; -6.7979395E-02;  0.0000000E+00; -2.5060363E-04;  1.2564713E+01;
 -3.9999999E-02;  9.9999998E-03;  2.5999999E-01;400;  0.0000000E+00;  0.0000000E+00;  0.0000000E+00;  1.0001352E+03;  4.0000001E-01;  1.1199682E+02;0;  0.0000000E+00;  0.0000000E+00;  0.0000000E+00;0; -5.8776263E-02;  1.0000000E+04;  0.0000000E+00;  0.0000000E+00;  1.0000000E+04;  0.0000000E+00;  1.0000000E+04; -5.6890782E-02;  0.0000000E+00; -1.8854818E-03;  2.4910446E+01;
 -3.9999999E-02;  9.9999998E-03;  2.8000000E-01;401;  0.0000000E+00;  0.0000000E+00;  0.0000000E+00;  1.0001102E+03;  4.0000001E-01;  9.1256668E+01;0;  0.0000000E+00;  0.0000000E+00;  0.0000000E+00;0; -4.7830038E-02;  1.0000000E+04;  0.0000000E+00;  0.0000000E+00;  1.0000000E+04;  0.0000000E+00;  1.0000000E+04; -4.4408482E-02;  0.0000000E+00; -3.4215569E-03;  6.0862869E+01;
 -3.9999999E-02;  9.9999998E-03;  3.0000001E-01;402;  0.0000000E+00;  0.0000000E+00;  0.0000000E+00;  1.0000838E+03;  4.0000001E-01;  6.9430122E+01;0;  0.0000000E+00;  0.0000000E+00;  0.0000000E+00;0; -3.6299385E-02;  1.0000000E+04;  0.0000000E+00;  0.0000000E+00;  1.0000000E+04;  0.0000000E+00;  1.0000000E+04; -3.1832971E-02;  0.0000000E+00; -4.4664163E-03;  8.6418533E+01;
 -3.9999999E-02;  9.9999998E-03;  3.1999999E-01;403;  0.0000000E+00;  0.0000000E+00;  0.0000000E+00;  1.0000591E+03;  4.0000001E-01;  4.8986263E+01;0;  0.0000000E+00;  0.0000000E+00;  0.0000000E+00;0; -2.5588155E-02;  1.0000000E+04;  0.0000000E+00;  0.0000000E+00;  1.0000000E+04;  0.0000000E+00;  1.0000000E+04; -2.0750647E-02;  0.0000000E+00; -4.8375069E-03;  9.7217438E+01;
 -2.0000000E-02;  9.9999998E-03;  1.6000000E-01;436;  0.0000000E+00;  0.0000000E+00;  0.0000000E+00;  1.0002944E+03;  4.0000001E-01;  2.4394368E+02;0;  0.0000000E+00;  0.0000000E+00;  0.0000000E+00;0; -1.2893616E-01;  1.0000000E+04;  0.0000000E+00;  0.0000000E+00;  1.0000000E+04;  0.0000000E+00;  1.0000000E+04; -1.3286442E-01;  0.0000000E+00;  3.9282576E-03;  1.1231534E+02;
 -2.0000000E-02;  9.9999998E-03;  1.8000001E-01;437;  0.0000000E+00;  0.0000000E+00;  0.0000000E+00;  1.0002841E+03;  4.0000001E-01;  2.3535133E+02;0;  0.0000000E+00;  0.0000000E+00;  0.0000000E+00;0; -1.2400679E-01;  1.0000000E+04;  0.0000000E+00;  0.0000000E+00;  1.0000000E+04;  0.0000000E+00;  1.0000000E+04; -1.2779389E-01;  0.0000000E+00;  3.7871040E-03;  1.1135578E+02;
 -2.0000000E-02;  9.9999998E-03;  2.0000000E-01;438;  0.0000000E+00;  0.0000000E+00;  0.0000000E+00;  1.0002700E+03;  4.0000001E-01;  2.2369734E+02;0;  0.0000000E+00;  0.0000000E+00;  0.0000000E+00;0; -1.1750644E-01;  1.0000000E+04;  0.0000000E+00;  0.0000000E+00;  1.0000000E+04;  0.0000000E+00;  1.0000000E+04; -1.2065636E-01;  0.0000000E+00;  3.1499299E-03;  9.8542870E+01;
 -2.0000000E-02;  9.9999998E-03;  2.2000000E-01;439;  0.0000000E+00;  0.0000000E+00;  0.0000000E+00;  1.0002515E+03;  4.0000001E-01;  2.0829037E+02;0;  0.0000000E+00;  0.0000000E+00;  0.0000000E+00;0; -1.0914326E-01;  1.0000000E+04;  0.0000000E+00;  0.0000000E+00;  1.0000000E+04;  0.0000000E+00;  1.0000000E+04; -1.1093499E-01;  0.0000000E+00;  1.7917312E-03;  6.8683174E+01;
 -2.0000000E-02;  9.9999998E-03;  2.3999999E-01;440;  0.0000000E+00;  0.0000000E+00;  0.0000000E+00;  1.0002277E+03;  4.0000001E-01;  1.8863661E+02;0;  0.0000000E+00;  0.0000000E+00;  0.0000000E+00;0; -9.8607086E-02;  1.0000000E+04;  0.0000000E+00;  0.0000000E+00;  1.0000000E+04;  0.0000000E+00;  1.0000000E+04; -9.8264404E-02;  0.0000000E+00; -3.4268523E-04;  2.0442030E+01;
 -2.0000000E-02;  9.9999998E-03;  2.5999999E-01;441;  0.0000000E+00;  0.0000000E+00;  0.0000000E+00;  1.0001984E+03;  4.0000001E-01;  1.6434100E+02;0;  0.0000000E+00;  0.0000000E+00;  0.0000000E+00;0; -8.5690871E-02;  1.0000000E+04;  0.0000000E+00;  0.0000000E+00;  1.0000000E+04;  0.0000000E+00;  1.0000000E+04; -8.2698204E-02;  0.0000000E+00; -2.9926661E-03;  4.0399010E+01;
 -2.0000000E-02;  9.9999998E-03;  2.8000000E-01;442;  0.0000000E+00;  0.0000000E+00;  0.0000000E+00;  1.0001638E+03;  4.0000001E-01;  1.3569984E+02;0;  0.0000000E+00;  0.0000000E+00;  0.0000000E+00;0; -7.0573367E-02;  1.0000000E+04;  0.0000000E+00;  0.0000000E+00;  1.0000000E+04;  0.0000000E+00;  1.0000000E+04; -6.5008759E-02;  0.0000000E+00; -5.5646063E-03;  1.0051438E+02;
 -2.0000000E-02;  9.9999998E-03;  3.0000001E-01;443;  0.0000000E+00;  0.0000000E+00;  0.0000000E+00;  1.0001263E+03;  4.0000001E-01;  1.0468839E+02;0;  0.0000000E+00;  0.0000000E+00;  0.0000000E+00;0; -5.4315105E-02;  1.0000000E+04;  0.0000000E+00;  0.0000000E+00;  1.0000000E+04;  0.0000000E+00;  1.0000000E+04; -4.6943504E-02;  0.0000000E+00; -7.3716026E-03;  1.4438129E+02;
 -2.0000000E-02;  9.9999998E-03;  3.1999999E-01;444;  0.0000000E+00;  0.0000000E+00;  0.0000000E+00;  1.0000906E+03;  4.0000001E-01;  7.5059593E+01;0;  0.0000000E+00;  0.0000000E+00;  0.0000000E+00;0; -3.8929891E-02;  1.0000000E+04;  0.0000000E+00;  0.0000000E+00;  1.0000000E+04;  0.0000000E+00;  1.0000000E+04; -3.0874262E-02;  0.0000000E+00; -8.0556292E-03;  1.6358025E+02;
  0.0000000E+00;  9.9999998E-03;  3.0000001E-01;455;  0.0000000E+00;  0.0000000E+00;  0.0000000E+00;  1.0001695E+03;  4.0000001E-01;  1.4044044E+02;0;  0.0000000E+00;  0.0000000E+00;  0.0000000E+00;0; -7.2300121E-02;  1.0000000E+04;  0.0000000E+00;  0.0000000E+00;  1.0000000E+04;  0.0000000E+00;  1.0000000E+04; -6.1575562E-02;  0.0000000E+00; -1.0724557E-02;  2.1281944E+02;
  0.0000000E+00;  9.9999998E-03;  3.1999999E-01;456;  0.0000000E+00;  0.0000000E+00;  0.0000000E+00;  1.0001237E+03;  4.0000001E-01;  1.0241684E+02;0;  0.0000000E+00;  0.0000000E+00;  0.0000000E+00;0; -5.2718334E-02;  1.0000000E+04;  0.0000000E+00;  0.0000000E+00;  1.0000000E+04;  0.0000000E+00;  1.0000000E+04; -4.0853478E-02;  0.0000000E+00; -1.1864858E-02;  2.4384247E+02;
  2.0000000E-02;  9.9999998E-03;  3.1999999E-01;466;  0.0000000E+00;  0.0000000E+00;  0.0000000E+00;  1.0001541E+03;  4.0000001E-01;  1.2770007E+02;0;  0.0000000E+00;  0.0000000E+00;  0.0000000E+00;0; -6.4909779E-02;  1.0000000E+04;  0.0000000E+00;  0.0000000E+00;  1.0000000E+04;  0.0000000E+00;  1.0000000E+04; -4.9305160E-02;  0.0000000E+00; -1.5604617E-02;  3.2529291E+02;
  3.9999999E-02;  9.9999998E-03;  3.1999999E-01;476;  0.0000000E+00;  0.0000000E+00;  0.0000000E+00;  1.0001804E+03;  4.0000001E-01;  1.4942786E+02;0;  0.0000000E+00;  0.0000000E+00;  0.0000000E+00;0; -7.4689195E-02;  1.0000000E+04;  0.0000000E+00;  0.0000000E+00;  1.0000000E+04;  0.0000000E+00;  1.0000000E+04; -5.6172129E-02;  0.0000000E+00; -1.8517062E-02;  3.9273517E+02;
  5.9999999E-02;  9.9999998E-03;  3.1999999E-01;486;  0.0000000E+00;  0.0000000E+00;  0.0000000E+00;  1.0002043E+03;  4.0000001E-01;  1.6927914E+02;0;  0.0000000E+00;  0.0000000E+00;  0.0000000E+00;0; -8.2843401E-02;  1.0000000E+04;  0.0000000E+00;  0.0000000E+00;  1.0000000E+04;  0.0000000E+00;  1.0000000E+04; -6.2547907E-02;  0.0000000E+00; -2.0295495E-02;  4.3975858E+02;
  7.9999998E-02;  9.9999998E-03;  3.1999999E-01;496;  0.0000000E+00;  0.0000000E+00;  0.0000000E+00;  1.0002305E+03;  4.0000001E-01;  1.9090816E+02;0;  0.0000000E+00;  0.0000000E+00;  0.0000000E+00;0; -9.1175593E-02;  1.0000000E+04;  0.0000000E+00;  0.0000000E+00;  1.0000000E+04;  0.0000000E+00;  1.0000000E+04; -7.0094258E-02;  0.0000000E+00; -2.1081336E-02;  4.7029385E+02;
  1.0000000E-01;  9.9999998E-03;  3.1999999E-01;506;  0.0000000E+00;  0.0000000E+00;  0.0000000E+00;  1.0002661E+03;  4.0000001E-01;  2.2043817E+02;0;  0.0000000E+00;  0.0000000E+00;  0.0000000E+00;0; -1.0233607E-01;  1.0000000E+04;  0.0000000E+00;  0.0000000E+00;  1.0000000E+04;  0.0000000E+00;  1.0000000E+04; -8.0983847E-02;  0.0000000E+00; -2.1352222E-02;  5.4937366E+02;
  1.2000000E-01;  9.9999998E-03;  3.1999999E-01;516;  0.0000000E+00;  0.0000000E+00;  0.0000000E+00;  1.0003187E+03;  4.0000001E-01;  2.6409125E+02;0;  0.0000000E+00;  0.0000000E+00;  0.0000000E+00;0; -1.1932041E-01;  1.0000000E+04;  0.0000000E+00;  0.0000000E+00;  1.0000000E+04;  0.0000000E+00;  1.0000000E+04; -9.7444430E-02;  0.0000000E+00; -2.1875979E-02;  1.0795299E+03;
  1.4000000E-01;  9.9999998E-03;  3.1999999E-01;526;  0.0000000E+00;  0.0000000E+00;  0.0000000E+00;  1.0003984E+03;  4.0000001E-01;  3.3006470E+02;0;  0.0000000E+00;  0.0000000E+00;  0.0000000E+00;0; -1.4513171E-01;  1.0000000E+04;  0.0000000E+00;  0.0000000E+00;  1.0000000E+04;  0.0000000E+00;  1.0000000E+04; -1.2140131E-01;  0.0000000E+00; -2.3730395E-02;  2.7350422E+03;
  1.6000000E-01;  9.9999998E-03;  3.1999999E-01;536;  0.0000000E+00;  0.0000000E+00;  0.0000000E+00;  1.0005125E+03;  4.0000001E-01;  4.2458051E+02;0;  0.0000000E+00;  0.0000000E+00;  0.0000000E+00;0; -1.8181719E-01;  1.0000000E+04;  0.0000000E+00;  0.0000000E+00;  1.0000000E+04;  0.0000000E+00;  1.0000000E+04; -1.5336461E-01;  0.0000000E+00; -2.8452575E-02;  6.2167925E+03;
  1.8000001E-01;  9.9999998E-03;  3.1999999E-01;546;  0.0000000E+00;  0.0000000E+00;  0.0000000E+00;  1.0006608E+03;  4.0000001E-01;  5.4744122E+02;0;  0.0000000E+00;  0.0000000E+00;  0.0000000E+00;0; -2.2844131E-01;  1.0000000E+04;  0.0000000E+00;  0.0000000E+00;  1.0000000E+04;  0.0000000E+00;  1.0000000E+04; -1.9006902E-01;  0.0000000E+00; -3.8372297E-02;  1.1942099E+04;
  2.0000000E-01;  9.9999998E-03;  3.1999999E-01;555;  0.0000000E+00;  0.0000000E+00;  0.0000000E+00;  1.0008342E+03;  4.0000001E-01;  6.9114087E+02;0;  0.0000000E+00;  0.0000000E+00;  0.0000000E+00;0; -2.8097838E-01;  1.0000000E+04;  0.0000000E+00;  0.0000000E+00;  1.0000000E+04;  0.0000000E+00;  1.0000000E+04; -2.2418000E-01;  0.0000000E+00; -5.6798387E-02;  1.8846389E+04;
 -2.2000000E-01;  9.9999998E-03;  3.4000000E-01;36;  0.0000000E+00;  0.0000000E+00;  0.0000000E+00;  1.0000000E+03;  4.0000001E-01;  0.0000000E+00;0;  0.0000000E+00;  0.0000000E+00;  0.0000000E+00;0;  0.0000000E+00;  1.0000000E+04;  0.0000000E+00;  0.0000000E+00;  1.0000000E+04;  0.0000000E+00;  1.0000000E+04;  0.0000000E+00;  0.0000000E+00;  0.0000000E+00;  0.0000000E+00;
 -2.2000000E-01;  9.9999998E-03;  3.6000001E-01;37;  0.0000000E+00;  0.0000000E+00;  0.0000000E+00;  1.0000000E+03;  4.0000001E-01;  0.0000000E+00;0;  0.0000000E+00;  0.0000000E+00;  0.0000000E+00;0;  0.0000000E+00;  1.0000000E+04;  0.0000000E+00;  0.0000000E+00;  1.0000000E+04;  0.0000000E+00;  1.0000000E+04;  0.0000000E+00;  0.0000000E+00;  0.0000000E+00;  0.0000000E+00;
 -2.2000000E-01;  9.9999998E-03;  3.8000000E-01;38;  0.0000000E+00;  0.0000000E+00;  0.0000000E+00;  1.0000000E+03;  4.0000001E-01;  0.0000000E+00;0;  0.0000000E+00;  0.0000000E+00;  0.0000000E+00;0;  0.0000000E+00;  1.0000000E+04;  0.0000000E+00;  0.0000000E+00;  1.0000000E+04;  0.0000000E+00;  1.0000000E+04;  0.0000000E+00;  0.0000000E+00;  0.0000000E+00;  0.0000000E+00;
 -2.0000000E-01;  9.9999998E-03;  3.4000000E-01;76;  0.0000000E+00;  0.0000000E+00;  0.0000000E+00;  1.0000000E+03;  4.0000001E-01;  0.0000000E+00;0;  0.0000000E+00;  0.0000000E+00;  0.0000000E+00;0;  0.0000000E+00;  1.0000000E+04;  0.0000000E+00;  0.0000000E+00;  1.0000000E+04;  0.0000000E+00;  1.0000000E+04;  0.0000000E+00;  0.0000000E+00;  0.0000000E+00;  0.0000000E+00;
 -2.0000000E-01;  9.9999998E-03;  3.6000001E-01;77;  0.0000000E+00;  0.0000000E+00;  0.0000000E+00;  1.0000000E+03;  4.0000001E-01;  0.0000000E+00;0;  0.0000000E+00;  0.0000000E+00;  0.0000000E+00;0;  0.0000000E+00;  1.0000000E+04;  0.0000000E+00;  0.0000000E+00;  1.0000000E+04;  0.0000000E+00;  1.0000000E+04;  0.0000000E+00;  0.0000000E+00;  0.0000000E+00;  0.0000000E+00;
 -2.0000000E-01;  9.9999998E-03;  3.8000000E-01;78;  0.0000000E+00;  0.0000000E+00;  0.0000000E+00;  1.0000000E+03;  4.0000001E-01;  0.0000000E+00;0;  0.0000000E+00;  0.0000000E+00;  0.0000000E+00;0;  0.0000000E+00;  1.0000000E+04;  0.0000000E+00;  0.0000000E+00;  1.0000000E+04;  0.0000000E+00;  1.0000000E+04;  0.0000000E+00;  0.0000000E+00;  0.0000000E+00;  0.0000000E+00;
 -2.0000000E-01;  9.9999998E-03;  4.0000001E-01;79;  0.0000000E+00;  0.0000000E+00;  0.0000000E+00;  1.0000000E+03;  4.0000001E-01;  0.0000000E+00;0;  0.0000000E+00;  0.0000000E+00;  0.0000000E+00;0;  0.0000000E+00;  1.0000000E+04;  0.0000000E+00;  0.0000000E+00;  1.0000000E+04;  0.0000000E+00;  1.0000000E+04;  0.0000000E+00;  0.0000000E+00;  0.0000000E+00;  0.0000000E+00;
 -1.8000001E-01;  9.9999998E-03;  3.4000000E-01;117;  0.0000000E+00;  0.0000000E+00;  0.0000000E+00;  1.0000000E+03;  4.0000001E-01;  0.0000000E+00;0;  0.0000000E+00;  0.0000000E+00;  0.0000000E+00;0;  0.0000000E+00;  1.0000000E+04;  0.0000000E+00;  0.0000000E+00;  1.0000000E+04;  0.0000000E+00;  1.0000000E+04;  0.0000000E+00;  0.0000000E+00;  0.0000000E+00;  0.0000000E+00;
 -1.8000001E-01;  9.9999998E-03;  3.6000001E-01;118;  0.0000000E+00;  0.0000000E+00;  0.0000000E+00;  1.0000000E+03;  4.0000001E-01;  0.0000000E+00;0;  0.0000000E+00;  0.0000000E+00;  0.0000000E+00;0;  0.0000000E+00;  1.0000000E+04;  0.0000000E+00;  0.0000000E+00;  1.0000000E+04;  0.0000000E+00;  1.0000000E+04;  0.0000000E+00;  0.0000000E+00;  0.0000000E+00;  0.0000000E+00;
 -1.8000001E-01;  9.9999998E-03;  3.8000000E-01;119;  0.0000000E+00;  0.0000000E+00;  0.0000000E+00;  1.0000000E+03;  4.0000001E-01;  0.0000000E+00;0;  0.0000000E+00;  0.0000000E+00;  0.0000000E+00;0;  0.0000000E+00;  1.0000000E+04;  0.0000000E+00;  0.0000000E+00;  1.0000000E+04;  0.0000000E+00;  1.0000000E+04;  0.0000000E+00;  0.0000000E+00;  0.0000000E+00;  0.0000000E+00;
 -1.8000001E-01;  9.9999998E-03;  4.0000001E-01;120;  0.0000000E+00;  0.0000000E+00;  0.0000000E+00;  1.0000000E+03;  4.0000001E-01;  0.0000000E+00;0;  0.0000000E+00;  0.0000000E+00;  0.0000000E+00;0;  0.0000000E+00;  1.0000000E+04;  0.0000000E+00;  0.0000000E+00;  1.0000000E+04;  0.0000000E+00;  1.0000000E+04;  0.0000000E+00;  0.0000000E+00;  0.0000000E+00;  0.0000000E+00;
 -1.6000000E-01;  9.9999998E-03;  3.4000000E-01;158;  0.0000000E+00;  0.0000000E+00;  0.0000000E+00;  1.0000000E+03;  4.0000001E-01;  0.0000000E+00;0;  0.0000000E+00;  0.0000000E+00;  0.0000000E+00;0;  0.0000000E+00;  1.0000000E+04;  0.0000000E+00;  0.0000000E+00;  1.0000000E+04;  0.0000000E+00;  1.0000000E+04;  0.0000000E+00;  0.0000000E+00;  0.0000000E+00;  0.0000000E+00;
 -1.6000000E-01;  9.9999998E-03;  3.6000001E-01;159;  0.0000000E+00;  0.0000000E+00;  0.0000000E+00;  1.0000000E+03;  4.0000001E-01;  0.0000000E+00;0;  0.0000000E+00;  0.0000000E+00;  0.0000000E+00;0;  0.0000000E+00;  1.0000000E+04;  0.0000000E+00;  0.0000000E+00;  1.0000000E+04;  0.0000000E+00;  1.0000000E+04;  0.0000000E+00;  0.0000000E+00;  0.0000000E+00;  0.0000000E+00;
 -1.6000000E-01;  9.9999998E-03;  3.8000000E-01;160;  0.0000000E+00;  0.0000000E+00;  0.0000000E+00;  1.0000000E+03;  4.0000001E-01;  0.0000000E+00;0;  0.0000000E+00;  0.0000000E+00;  0.0000000E+00;0;  0.0000000E+00;  1.0000000E+04;  0.0000000E+00;  0.0000000E+00;  1.0000000E+04;  0.0000000E+00;  1.0000000E+04;  0.0000000E+00;  0.0000000E+00;  0.0000000E+00;  0.0000000E+00;
 -1.6000000E-01;  9.9999998E-03;  4.0000001E-01;161;  0.0000000E+00;  0.0000000E+00;  0.0000000E+00;  1.0000000E+03;  4.0000001E-01;  0.0000000E+00;0;  0.0000000E+00;  0.0000000E+00;  0.0000000E+00;0;  0.0000000E+00;  1.0000000E+04;  0.0000000E+00;  0.0000000E+00;  1.0000000E+04;  0.0000000E+00;  1.0000000E+04;  0.0000000E+00;  0.0000000E+00;  0.0000000E+00;  0.0000000E+00;
 -1.4000000E-01;  9.9999998E-03;  3.4000000E-01;199;  0.0000000E+00;  0.0000000E+00;  0.0000000E+00;  1.0000000E+03;  4.0000001E-01;  0.0000000E+00;0;  0.0000000E+00;  0.0000000E+00;  0.0000000E+00;0; -2.6383026E-05;  1.0000000E+04;  0.0000000E+00;  0.0000000E+00;  1.0000000E+04;  0.0000000E+00;  1.0000000E+04; -2.2098071E-05;  0.0000000E+00; -4.2849551E-06;  8.5044600E-02;
 -1.4000000E-01;  9.9999998E-03;  3.6000001E-01;200;  0.0000000E+00;  0.0000000E+00;  0.0000000E+00;  1.0000000E+03;  4.0000001E-01;  0.0000000E+00;0;  0.0000000E+00;  0.0000000E+00;  0.0000000E+00;0; -3.0776694E-06;  1.0000000E+04;  0.0000000E+00;  0.0000000E+00;  1.0000000E+04;  0.0000000E+00;  1.0000000E+04; -2.4003452E-06;  0.0000000E+00; -6.7732412E-07;  1.3640023E-02;
 -1.4000000E-01;  9.9999998E-03;  3.8000000E-01;201;  0.0000000E+00;  0.0000000E+00;  0.0000000E+00;  1.0000000E+03;  4.0000001E-01;  0.0000000E+00;0;  0.0000000E+00;  0.0000000E+00;  0.0000000E+00;0;  0.0000000E+00;  1.0000000E+04;  0.0000000E+00;  0.0000000E+00;  1.0000000E+04;  0.0000000E+00;  1.0000000E+04;  0.0000000E+00;  0.0000000E+00;  0.0000000E+00;  0.0000000E+00;
 -1.4000000E-01;  9.9999998E-03;  4.0000001E-01;202;  0.0000000E+00;  0.0000000E+00;  0.0000000E+00;  1.0000000E+03;  4.0000001E-01;  0.0000000E+00;0;  0.0000000E+00;  0.0000000E+00;  0.0000000E+00;0;  0.0000000E+00;  1.0000000E+04;  0.0000000E+00;  0.0000000E+00;  1.0000000E+04;  0.0000000E+00;  1.0000000E+04;  0.0000000E+00;  0.0000000E+00;  0.0000000E+00;  0.0000000E+00;
 -1.2000000E-01;  9.9999998E-03;  3.4000000E-01;240;  0.0000000E+00;  0.0000000E+00;  0.0000000E+00;  1.0000006E+03;  4.0000001E-01;  4.9381313E-01;0;  0.0000000E+00;  0.0000000E+00;  0.0000000E+00;0; -3.2377790E-04;  1.0000000E+04;  0.0000000E+00;  0.0000000E+00;  1.0000000E+04;  0.0000000E+00;  1.0000000E+04; -2.6278806E-04;  0.0000000E+00; -6.0989838E-05;  1.2218888E+00;
 -1.2000000E-01;  9.9999998E-03;  3.6000001E-01;241;  0.0000000E+00;  0.0000000E+00;  0.0000000E+00;  1.0000000E+03;  4.0000001E-01;  0.0000000E+00;0;  0.0000000E+00;  0.0000000E+00;  0.0000000E+00;0; -1.0841020E-04;  1.0000000E+04;  0.0000000E+00;  0.0000000E+00;  1.0000000E+04;  0.0000000E+00;  1.0000000E+04; -8.0690283E-05;  0.0000000E+00; -2.7719914E-05;  5.6106311E-01;
 -1.2000000E-01;  9.9999998E-03;  3.8000000E-01;242;  0.0000000E+00;  0.0000000E+00;  0.0000000E+00;  1.0000000E+03;  4.0000001E-01;  0.0000000E+00;0;  0.0000000E+00;  0.0000000E+00;  0.0000000E+00;0; -1.6123064E-05;  1.0000000E+04;  0.0000000E+00;  0.0000000E+00;  1.0000000E+04;  0.0000000E+00;  1.0000000E+04; -1.1207595E-05;  0.0000000E+00; -4.9154696E-06;  1.0005718E-01;
 -1.2000000E-01;  9.9999998E-03;  4.0000001E-01;243;  0.0000000E+00;  0.0000000E+00;  0.0000000E+00;  1.0000000E+03;  4.0000001E-01;  0.0000000E+00;0;  0.0000000E+00;  0.0000000E+00;  0.0000000E+00;0; -5.5185158E-15;  1.0000000E+04;  0.0000000E+00;  0.0000000E+00;  1.0000000E+04;  0.0000000E+00;  1.0000000E+04; -3.8234131E-15;  0.0000000E+00; -1.6951027E-15;  8.6297965E-12;
 -1.0000000E-01;  9.9999998E-03;  3.4000000E-01;281;  0.0000000E+00;  0.0000000E+00;  0.0000000E+00;  1.0000033E+03;  4.0000001E-01;  2.7653534E+00;0;  0.0000000E+00;  0.0000000E+00;  0.0000000E+00;0; -1.4626260E-03;  1.0000000E+04;  0.0000000E+00;  0.0000000E+00;  1.0000000E+04;  0.0000000E+00;  1.0000000E+04; -1.1543805E-03;  0.0000000E+00; -3.0824560E-04;  6.1940217E+00;
 -1.0000000E-01;  9.9999998E-03;  3.6000001E-01;282;  0.0000000E+00;  0.0000000E+00;  0.0000000E+00;  1.0000015E+03;  4.0000001E-01;  1.1851515E+00;0;  0.0000000E+00;  0.0000000E+00;  0.0000000E+00;0; -6.6989561E-04;  1.0000000E+04;  0.0000000E+00;  0.0000000E+00;  1.0000000E+04;  0.0000000E+00;  1.0000000E+04; -4.7886034E-04;  0.0000000E+00; -1.9103529E-04;  3.8883772E+00;
 -1.0000000E-01;  9.9999998E-03;  3.8000000E-01;283;  0.0000000E+00;  0.0000000E+00;  0.0000000E+00;  1.0000004E+03;  4.0000001E-01;  3.9505050E-01;0;  0.0000000E+00;  0.0000000E+00;  0.0000000E+00;0; -2.1308081E-04;  1.0000000E+04;  0.0000000E+00;  0.0000000E+00;  1.0000000E+04;  0.0000000E+00;  1.0000000E+04; -1.4002349E-04;  0.0000000E+00; -7.3057323E-05;  1.4945298E+00;
 -1.0000000E-01;  9.9999998E-03;  4.0000001E-01;284;  0.0000000E+00;  0.0000000E+00;  0.0000000E+00;  1.0000000E+03;  4.0000001E-01;  0.0000000E+00;0;  0.0000000E+00;  0.0000000E+00;  0.0000000E+00;0; -2.9253222E-05;  1.0000000E+04;  0.0000000E+00;  0.0000000E+00;  1.0000000E+04;  0.0000000E+00;  1.0000000E+04; -1.8954459E-05;  0.0000000E+00; -1.0298763E-05;  2.1089162E-01;
 -7.9999998E-02;  9.9999998E-03;  3.4000000E-01;322;  0.0000000E+00;  0.0000000E+00;  0.0000000E+00;  1.0000096E+03;  4.0000001E-01;  7.9997725E+00;0;  0.0000000E+00;  0.0000000E+00;  0.0000000E+00;0; -4.2232680E-03;  1.0000000E+04;  0.0000000E+00;  0.0000000E+00;  1.0000000E+04;  0.0000000E+00;  1.0000000E+04; -3.2511007E-03;  0.0000000E+00; -9.7216741E-04;  1.9643314E+01;
 -7.9999998E-02;  9.9999998E-03;  3.6000001E-01;323;  0.0000000E+00;  0.0000000E+00;  0.0000000E+00;  1.0000050E+03;  4.0000001E-01;  4.1480303E+00;0;  0.0000000E+00;  0.0000000E+00;  0.0000000E+00;0; -2.2299525E-03;  1.0000000E+04;  0.0000000E+00;  0.0000000E+00;  1.0000000E+04;  0.0000000E+00;  1.0000000E+04; -1.5388615E-03;  0.0000000E+00; -6.9109100E-04;  1.4134397E+01;
 -7.9999998E-02;  9.9999998E-03;  3.8000000E-01;324;  0.0000000E+00;  0.0000000E+00;  0.0000000E+00;  1.0000021E+03;  4.0000001E-01;  1.6789646E+00;0;  0.0000000E+00;  0.0000000E+00;  0.0000000E+00;0; -9.2970359E-04;  1.0000000E+04;  0.0000000E+00;  0.0000000E+00;  1.0000000E+04;  0.0000000E+00;  1.0000000E+04; -5.8333593E-04;  0.0000000E+00; -3.4636765E-04;  7.1222410E+00;
 -7.9999998E-02;  9.9999998E-03;  4.0000001E-01;325;  0.0000000E+00;  0.0000000E+00;  0.0000000E+00;  1.0000005E+03;  4.0000001E-01;  3.9505050E-01;0;  0.0000000E+00;  0.0000000E+00;  0.0000000E+00;0; -2.4490184E-04;  1.0000000E+04;  0.0000000E+00;  0.0000000E+00;  1.0000000E+04;  0.0000000E+00;  1.0000000E+04; -1.4965271E-04;  0.0000000E+00; -9.5249132E-05;  1.9599116E+00;
 -5.9999999E-02;  9.9999998E-03;  3.4000000E-01;363;  0.0000000E+00;  0.0000000E+00;  0.0000000E+00;  1.0000214E+03;  4.0000001E-01;  1.7777273E+01;0;  0.0000000E+00;  0.0000000E+00;  0.0000000E+00;0; -9.2764851E-03;  1.0000000E+04;  0.0000000E+00;  0.0000000E+00;  1.0000000E+04;  0.0000000E+00;  1.0000000E+04; -6.9618393E-03;  0.0000000E+00; -2.3146456E-03;  4.7089233E+01;
 -5.9999999E-02;  9.9999998E-03;  3.6000001E-01;364;  0.0000000E+00;  0.0000000E+00;  0.0000000E+00;  1.0000121E+03;  4.0000001E-01;  1.0073788E+01;0;  0.0000000E+00;  0.0000000E+00;  0.0000000E+00;0; -5.2975826E-03;  1.0000000E+04;  0.0000000E+00;  0.0000000E+00;  1.0000000E+04;  0.0000000E+00;  1.0000000E+04; -3.5301051E-03;  0.0000000E+00; -1.7674773E-03;  3.6370323E+01;
 -5.9999999E-02;  9.9999998E-03;  3.8000000E-01;365;  0.0000000E+00;  0.0000000E+00;  0.0000000E+00;  1.0000057E+03;  4.0000001E-01;  4.7406058E+00;0;  0.0000000E+00;  0.0000000E+00;  0.0000000E+00;0; -2.5265890E-03;  1.0000000E+04;  0.0000000E+00;  0.0000000E+00;  1.0000000E+04;  0.0000000E+00;  1.0000000E+04; -1.5158951E-03;  0.0000000E+00; -1.0106938E-03;  2.0901714E+01;
 -5.9999999E-02;  9.9999998E-03;  4.0000001E-01;366;  0.0000000E+00;  0.0000000E+00;  0.0000000E+00;  1.0000019E+03;  4.0000001E-01;  1.5802020E+00;0;  0.0000000E+00;  0.0000000E+00;  0.0000000E+00;0; -8.6596154E-04;  1.0000000E+04;  0.0000000E+00;  0.0000000E+00;  1.0000000E+04;  0.0000000E+00;  1.0000000E+04; -5.0193543E-04;  0.0000000E+00; -3.6402611E-04;  7.5313888E+00;
 -3.9999999E-02;  9.9999998E-03;  3.4000000E-01;404;  0.0000000E+00;  0.0000000E+00;  0.0000000E+00;  1.0000387E+03;  4.0000001E-01;  3.2097855E+01;0;  0.0000000E+00;  0.0000000E+00;  0.0000000E+00;0; -1.6756736E-02;  1.0000000E+04;  0.0000000E+00;  0.0000000E+00;  1.0000000E+04;  0.0000000E+00;  1.0000000E+04; -1.2222959E-02;  0.0000000E+00; -4.5337770E-03;  9.2971436E+01;
 -3.9999999E-02;  9.9999998E-03;  3.6000001E-01;405;  0.0000000E+00;  0.0000000E+00;  0.0000000E+00;  1.0000232E+03;  4.0000001E-01;  1.9258711E+01;0;  0.0000000E+00;  0.0000000E+00;  0.0000000E+00;0; -1.0039184E-02;  1.0000000E+04;  0.0000000E+00;  0.0000000E+00;  1.0000000E+04;  0.0000000E+00;  1.0000000E+04; -6.4384751E-03;  0.0000000E+00; -3.6007096E-03;  7.4636909E+01;
 -3.9999999E-02;  9.9999998E-03;  3.8000000E-01;406;  0.0000000E+00;  0.0000000E+00;  0.0000000E+00;  1.0000118E+03;  4.0000001E-01;  9.7775002E+00;0;  0.0000000E+00;  0.0000000E+00;  0.0000000E+00;0; -5.1686480E-03;  1.0000000E+04;  0.0000000E+00;  0.0000000E+00;  1.0000000E+04;  0.0000000E+00;  1.0000000E+04; -2.9556653E-03;  0.0000000E+00; -2.2129826E-03;  4.6082874E+01;
 -3.9999999E-02;  9.9999998E-03;  4.0000001E-01;407;  0.0000000E+00;  0.0000000E+00;  0.0000000E+00;  1.0000046E+03;  4.0000001E-01;  3.7529798E+00;0;  0.0000000E+00;  0.0000000E+00;  0.0000000E+00;0; -2.0256159E-03;  1.0000000E+04;  0.0000000E+00;  0.0000000E+00;  1.0000000E+04;  0.0000000E+00;  1.0000000E+04; -1.1103392E-03;  0.0000000E+00; -9.1527659E-04;  1.9061354E+01;
 -2.0000000E-02;  9.9999998E-03;  3.4000000E-01;445;  0.0000000E+00;  0.0000000E+00;  0.0000000E+00;  1.0000605E+03;  4.0000001E-01;  5.0072651E+01;0;  0.0000000E+00;  0.0000000E+00;  0.0000000E+00;0; -2.6056973E-02;  1.0000000E+04;  0.0000000E+00;  0.0000000E+00;  1.0000000E+04;  0.0000000E+00;  1.0000000E+04; -1.8420678E-02;  0.0000000E+00; -7.6362952E-03;  1.5807118E+02;
 -2.0000000E-02;  9.9999998E-03;  3.6000001E-01;446;  0.0000000E+00;  0.0000000E+00;  0.0000000E+00;  1.0000373E+03;  4.0000001E-01;  3.0912701E+01;0;  0.0000000E+00;  0.0000000E+00;  0.0000000E+00;0; -1.6104065E-02;  1.0000000E+04;  0.0000000E+00;  0.0000000E+00;  1.0000000E+04;  0.0000000E+00;  1.0000000E+04; -9.9080773E-03;  0.0000000E+00; -6.1959871E-03;  1.2957635E+02;
 -2.0000000E-02;  9.9999998E-03;  3.8000000E-01;447;  0.0000000E+00;  0.0000000E+00;  0.0000000E+00;  1.0000203E+03;  4.0000001E-01;  1.6789646E+01;0;  0.0000000E+00;  0.0000000E+00;  0.0000000E+00;0; -8.6830715E-03;  1.0000000E+04;  0.0000000E+00;  0.0000000E+00;  1.0000000E+04;  0.0000000E+00;  1.0000000E+04; -4.7148983E-03;  0.0000000E+00; -3.9681732E-03;  8.3340492E+01;
 -2.0000000E-02;  9.9999998E-03;  4.0000001E-01;448;  0.0000000E+00;  0.0000000E+00;  0.0000000E+00;  1.0000084E+03;  4.0000001E-01;  6.9133835E+00;0;  0.0000000E+00;  0.0000000E+00;  0.0000000E+00;0; -3.6654875E-03;  1.0000000E+04;  0.0000000E+00;  0.0000000E+00;  1.0000000E+04;  0.0000000E+00;  1.0000000E+04; -1.8909242E-03;  0.0000000E+00; -1.7745633E-03;  3.7261543E+01;
  0.0000000E+00;  9.9999998E-03;  3.4000000E-01;457;  0.0000000E+00;  0.0000000E+00;  0.0000000E+00;  1.0000842E+03;  4.0000001E-01;  6.9825172E+01;0;  0.0000000E+00;  0.0000000E+00;  0.0000000E+00;0; -3.5904177E-02;  1.0000000E+04;  0.0000000E+00;  0.0000000E+00;  1.0000000E+04;  0.0000000E+00;  1.0000000E+04; -2.4578676E-02;  0.0000000E+00; -1.1325502E-02;  2.3710187E+02;
  0.0000000E+00;  9.9999998E-03;  3.6000001E-01;458;  0.0000000E+00;  0.0000000E+00;  0.0000000E+00;  1.0000530E+03;  4.0000001E-01;  4.3949368E+01;0;  0.0000000E+00;  0.0000000E+00;  0.0000000E+00;0; -2.2673868E-02;  1.0000000E+04;  0.0000000E+00;  0.0000000E+00;  1.0000000E+04;  0.0000000E+00;  1.0000000E+04; -1.3374722E-02;  0.0000000E+00; -9.2991451E-03;  1.9661050E+02;
  0.0000000E+00;  9.9999998E-03;  3.8000000E-01;459;  0.0000000E+00;  0.0000000E+00;  0.0000000E+00;  1.0000293E+03;  4.0000001E-01;  2.4295605E+01;0;  0.0000000E+00;  0.0000000E+00;  0.0000000E+00;0; -1.2583340E-02;  1.0000000E+04;  0.0000000E+00;  0.0000000E+00;  1.0000000E+04;  0.0000000E+00;  1.0000000E+04; -6.4820331E-03;  0.0000000E+00; -6.1013070E-03;  1.2951910E+02;
  0.0000000E+00;  9.9999998E-03;  4.0000001E-01;460;  0.0000000E+00;  0.0000000E+00;  0.0000000E+00;  1.0000128E+03;  4.0000001E-01;  1.0666364E+01;0;  0.0000000E+00;  0.0000000E+00;  0.0000000E+00;0; -5.5386266E-03;  1.0000000E+04;  0.0000000E+00;  0.0000000E+00;  1.0000000E+04;  0.0000000E+00;  1.0000000E+04; -2.6822030E-03;  0.0000000E+00; -2.8564238E-03;  6.0606899E+01;
  2.0000000E-02;  9.9999998E-03;  3.4000000E-01;467;  0.0000000E+00;  0.0000000E+00;  0.0000000E+00;  1.0001064E+03;  4.0000001E-01;  8.8195023E+01;0;  0.0000000E+00;  0.0000000E+00;  0.0000000E+00;0; -4.4879504E-02;  1.0000000E+04;  0.0000000E+00;  0.0000000E+00;  1.0000000E+04;  0.0000000E+00;  1.0000000E+04; -2.9878844E-02;  0.0000000E+00; -1.5000661E-02;  3.1843890E+02;
  2.0000000E-02;  9.9999998E-03;  3.6000001E-01;468;  0.0000000E+00;  0.0000000E+00;  0.0000000E+00;  1.0000682E+03;  4.0000001E-01;  5.6492222E+01;0;  0.0000000E+00;  0.0000000E+00;  0.0000000E+00;0; -2.8797913E-02;  1.0000000E+04;  0.0000000E+00;  0.0000000E+00;  1.0000000E+04;  0.0000000E+00;  1.0000000E+04; -1.6372072E-02;  0.0000000E+00; -1.2425841E-02;  2.6634763E+02;
  2.0000000E-02;  9.9999998E-03;  3.8000000E-01;469;  0.0000000E+00;  0.0000000E+00;  0.0000000E+00;  1.0000385E+03;  4.0000001E-01;  3.1900328E+01;0;  0.0000000E+00;  0.0000000E+00;  0.0000000E+00;0; -1.6276689E-02;  1.0000000E+04;  0.0000000E+00;  0.0000000E+00;  1.0000000E+04;  0.0000000E+00;  1.0000000E+04; -7.9965703E-03;  0.0000000E+00; -8.2801189E-03;  1.7817342E+02;
  2.0000000E-02;  9.9999998E-03;  4.0000001E-01;470;  0.0000000E+00;  0.0000000E+00;  0.0000000E+00;  1.0000172E+03;  4.0000001E-01;  1.4221818E+01;0;  0.0000000E+00;  0.0000000E+00;  0.0000000E+00;0; -7.3265312E-03;  1.0000000E+04;  0.0000000E+00;  0.0000000E+00;  1.0000000E+04;  0.0000000E+00;  1.0000000E+04; -3.3432734E-03;  0.0000000E+00; -3.9832578E-03;  8.5653587E+01;
  3.9999999E-02;  9.9999998E-03;  3.4000000E-01;477;  0.0000000E+00;  0.0000000E+00;  0.0000000E+00;  1.0001259E+03;  4.0000001E-01;  1.0429333E+02;0;  0.0000000E+00;  0.0000000E+00;  0.0000000E+00;0; -5.2226353E-02;  1.0000000E+04;  0.0000000E+00;  0.0000000E+00;  1.0000000E+04;  0.0000000E+00;  1.0000000E+04; -3.4225248E-02;  0.0000000E+00; -1.8001106E-02;  3.8886221E+02;
  3.9999999E-02;  9.9999998E-03;  3.6000001E-01;478;  0.0000000E+00;  0.0000000E+00;  0.0000000E+00;  1.0000815E+03;  4.0000001E-01;  6.7553635E+01;0;  0.0000000E+00;  0.0000000E+00;  0.0000000E+00;0; -3.3880994E-02;  1.0000000E+04;  0.0000000E+00;  0.0000000E+00;  1.0000000E+04;  0.0000000E+00;  1.0000000E+04; -1.8822275E-02;  0.0000000E+00; -1.5058720E-02;  3.2844873E+02;
  3.9999999E-02;  9.9999998E-03;  3.8000000E-01;479;  0.0000000E+00;  0.0000000E+00;  0.0000000E+00;  1.0000464E+03;  4.0000001E-01;  3.8418659E+01;0;  0.0000000E+00;  0.0000000E+00;  0.0000000E+00;0; -1.9358151E-02;  1.0000000E+04;  0.0000000E+00;  0.0000000E+00;  1.0000000E+04;  0.0000000E+00;  1.0000000E+04; -9.2053795E-03;  0.0000000E+00; -1.0152771E-02;  2.2227261E+02;
  3.9999999E-02;  9.9999998E-03;  4.0000001E-01;480;  0.0000000E+00;  0.0000000E+00;  0.0000000E+00;  1.0000210E+03;  4.0000001E-01;  1.7382221E+01;0;  0.0000000E+00;  0.0000000E+00;  0.0000000E+00;0; -8.8038724E-03;  1.0000000E+04;  0.0000000E+00;  0.0000000E+00;  1.0000000E+04;  0.0000000E+00;  1.0000000E+04; -3.8403131E-03;  0.0000000E+00; -4.9635591E-03;  1.0857347E+02;
  5.9999999E-02;  9.9999998E-03;  3.4000000E-01;487;  0.0000000E+00;  0.0000000E+00;  0.0000000E+00;  1.0001434E+03;  4.0000001E-01;  1.1881144E+02;0;  0.0000000E+00;  0.0000000E+00;  0.0000000E+00;0; -5.8234051E-02;  1.0000000E+04;  0.0000000E+00;  0.0000000E+00;  1.0000000E+04;  0.0000000E+00;  1.0000000E+04; -3.8249750E-02;  0.0000000E+00; -1.9984299E-02;  4.4130130E+02;
  5.9999999E-02;  9.9999998E-03;  3.6000001E-01;488;  0.0000000E+00;  0.0000000E+00;  0.0000000E+00;  1.0000932E+03;  4.0000001E-01;  7.7232368E+01;0;  0.0000000E+00;  0.0000000E+00;  0.0000000E+00;0; -3.7984688E-02;  1.0000000E+04;  0.0000000E+00;  0.0000000E+00;  1.0000000E+04;  0.0000000E+00;  1.0000000E+04; -2.1083929E-02;  0.0000000E+00; -1.6900759E-02;  3.7682565E+02;
  5.9999999E-02;  9.9999998E-03;  3.8000000E-01;489;  0.0000000E+00;  0.0000000E+00;  0.0000000E+00;  1.0000533E+03;  4.0000001E-01;  4.4146893E+01;0;  0.0000000E+00;  0.0000000E+00;  0.0000000E+00;0; -2.1813124E-02;  1.0000000E+04;  0.0000000E+00;  0.0000000E+00;  1.0000000E+04;  0.0000000E+00;  1.0000000E+04; -1.0304026E-02;  0.0000000E+00; -1.1509097E-02;  2.5749847E+02;
  5.9999999E-02;  9.9999998E-03;  4.0000001E-01;490;  0.0000000E+00;  0.0000000E+00;  0.0000000E+00;  1.0000244E+03;  4.0000001E-01;  2.0147575E+01;0;  0.0000000E+00;  0.0000000E+00;  0.0000000E+00;0; -9.9538472E-03;  1.0000000E+04;  0.0000000E+00;  0.0000000E+00;  1.0000000E+04;  0.0000000E+00;  1.0000000E+04; -4.2709466E-03;  0.0000000E+00; -5.6829001E-03;  1.2699709E+02;
  7.9999998E-02;  9.9999998E-03;  3.4000000E-01;497;  0.0000000E+00;  0.0000000E+00;  0.0000000E+00;  1.0001622E+03;  4.0000001E-01;  1.3431717E+02;0;  0.0000000E+00;  0.0000000E+00;  0.0000000E+00;0; -6.4210549E-02;  1.0000000E+04;  0.0000000E+00;  0.0000000E+00;  1.0000000E+04;  0.0000000E+00;  1.0000000E+04; -4.3177418E-02;  0.0000000E+00; -2.1033134E-02;  4.7893924E+02;
  7.9999998E-02;  9.9999998E-03;  3.6000001E-01;498;  0.0000000E+00;  0.0000000E+00;  0.0000000E+00;  1.0001056E+03;  4.0000001E-01;  8.7503685E+01;0;  0.0000000E+00;  0.0000000E+00;  0.0000000E+00;0; -4.1909136E-02;  1.0000000E+04;  0.0000000E+00;  0.0000000E+00;  1.0000000E+04;  0.0000000E+00;  1.0000000E+04; -2.3930946E-02;  0.0000000E+00; -1.7978190E-02;  4.1282675E+02;
  7.9999998E-02;  9.9999998E-03;  3.8000000E-01;499;  0.0000000E+00;  0.0000000E+00;  0.0000000E+00;  1.0000605E+03;  4.0000001E-01;  5.0072651E+01;0;  0.0000000E+00;  0.0000000E+00;  0.0000000E+00;0; -2.4068180E-02;  1.0000000E+04;  0.0000000E+00;  0.0000000E+00;  1.0000000E+04;  0.0000000E+00;  1.0000000E+04; -1.1718609E-02;  0.0000000E+00; -1.2349572E-02;  2.8381100E+02;
  7.9999998E-02;  9.9999998E-03;  4.0000001E-01;500;  0.0000000E+00;  0.0000000E+00;  0.0000000E+00;  1.0000274E+03;  4.0000001E-01;  2.2715403E+01;0;  0.0000000E+00;  0.0000000E+00;  0.0000000E+00;0; -1.0981947E-02;  1.0000000E+04;  0.0000000E+00;  0.0000000E+00;  1.0000000E+04;  0.0000000E+00;  1.0000000E+04; -4.8388364E-03;  0.0000000E+00; -6.1431108E-03;  1.4101459E+02;
  1.0000000E-01;  9.9999998E-03;  3.4000000E-01;507;  0.0000000E+00;  0.0000000E+00;  0.0000000E+00;  1.0001874E+03;  4.0000001E-01;  1.5525485E+02;0;  0.0000000E+00;  0.0000000E+00;  0.0000000E+00;0; -7.2217062E-02;  1.0000000E+04;  0.0000000E+00;  0.0000000E+00;  1.0000000E+04;  0.0000000E+00;  1.0000000E+04; -5.0644685E-02;  0.0000000E+00; -2.1572376E-02;  5.4595099E+02;
  1.0000000E-01;  9.9999998E-03;  3.6000001E-01;508;  0.0000000E+00;  0.0000000E+00;  0.0000000E+00;  1.0001217E+03;  4.0000001E-01;  1.0083664E+02;0;  0.0000000E+00;  0.0000000E+00;  0.0000000E+00;0; -4.7027845E-02;  1.0000000E+04;  0.0000000E+00;  0.0000000E+00;  1.0000000E+04;  0.0000000E+00;  1.0000000E+04; -2.8428052E-02;  0.0000000E+00; -1.8599793E-02;  4.5008743E+02;
  1.0000000E-01;  9.9999998E-03;  3.8000000E-01;509;  0.0000000E+00;  0.0000000E+00;  0.0000000E+00;  1.0000694E+03;  4.0000001E-01;  5.7479847E+01;0;  0.0000000E+00;  0.0000000E+00;  0.0000000E+00;0; -2.6911471E-02;  1.0000000E+04;  0.0000000E+00;  0.0000000E+00;  1.0000000E+04;  0.0000000E+00;  1.0000000E+04; -1.4049216E-02;  0.0000000E+00; -1.2862256E-02;  3.0530075E+02;
  1.0000000E-01;  9.9999998E-03;  4.0000001E-01;510;  0.0000000E+00;  0.0000000E+00;  0.0000000E+00;  1.0000317E+03;  4.0000001E-01;  2.6270859E+01;0;  0.0000000E+00;  0.0000000E+00;  0.0000000E+00;0; -1.2271368E-02;  1.0000000E+04;  0.0000000E+00;  0.0000000E+00;  1.0000000E+04;  0.0000000E+00;  1.0000000E+04; -5.8295093E-03;  0.0000000E+00; -6.4418586E-03;  1.6201859E+02;
  1.2000000E-01;  9.9999998E-03;  3.4000000E-01;517;  0.0000000E+00;  0.0000000E+00;  0.0000000E+00;  1.0002263E+03;  4.0000001E-01;  1.8745146E+02;0;  0.0000000E+00;  0.0000000E+00;  0.0000000E+00;0; -8.4741756E-02;  1.0000000E+04;  0.0000000E+00;  0.0000000E+00;  1.0000000E+04;  0.0000000E+00;  1.0000000E+04; -6.2418748E-02;  0.0000000E+00; -2.2323012E-02;  8.7715155E+02;
  1.2000000E-01;  9.9999998E-03;  3.6000001E-01;518;  0.0000000E+00;  0.0000000E+00;  0.0000000E+00;  1.0001468E+03;  4.0000001E-01;  1.2157679E+02;0;  0.0000000E+00;  0.0000000E+00;  0.0000000E+00;0; -5.5115223E-02;  1.0000000E+04;  0.0000000E+00;  0.0000000E+00;  1.0000000E+04;  0.0000000E+00;  1.0000000E+04; -3.5778005E-02;  0.0000000E+00; -1.9337220E-02;  5.2532623E+02;
  1.2000000E-01;  9.9999998E-03;  3.8000000E-01;519;  0.0000000E+00;  0.0000000E+00;  0.0000000E+00;  1.0000836E+03;  4.0000001E-01;  6.9232597E+01;0;  0.0000000E+00;  0.0000000E+00;  0.0000000E+00;0; -3.1419676E-02;  1.0000000E+04;  0.0000000E+00;  0.0000000E+00;  1.0000000E+04;  0.0000000E+00;  1.0000000E+04; -1.8006936E-02;  0.0000000E+00; -1.3412741E-02;  3.6792068E+02;
  1.2000000E-01;  9.9999998E-03;  4.0000001E-01;520;  0.0000000E+00;  0.0000000E+00;  0.0000000E+00;  1.0000381E+03;  4.0000001E-01;  3.1604040E+01;0;  0.0000000E+00;  0.0000000E+00;  0.0000000E+00;0; -1.4353892E-02;  1.0000000E+04;  0.0000000E+00;  0.0000000E+00;  1.0000000E+04;  0.0000000E+00;  1.0000000E+04; -7.6026339E-03;  0.0000000E+00; -6.7512584E-03;  3.0444449E+02;
  1.4000000E-01;  9.9999998E-03;  3.4000000E-01;527;  0.0000000E+00;  0.0000000E+00;  0.0000000E+00;  1.0002869E+03;  4.0000001E-01;  2.3762288E+02;0;  0.0000000E+00;  0.0000000E+00;  0.0000000E+00;0; -1.0453622E-01;  1.0000000E+04;  0.0000000E+00;  0.0000000E+00;  1.0000000E+04;  0.0000000E+00;  1.0000000E+04; -8.0201022E-02;  0.0000000E+00; -2.4335202E-02;  1.9228042E+03;
  1.4000000E-01;  9.9999998E-03;  3.6000001E-01;528;  0.0000000E+00;  0.0000000E+00;  0.0000000E+00;  1.0001874E+03;  4.0000001E-01;  1.5525485E+02;0;  0.0000000E+00;  0.0000000E+00;  0.0000000E+00;0; -6.8305641E-02;  1.0000000E+04;  0.0000000E+00;  0.0000000E+00;  1.0000000E+04;  0.0000000E+00;  1.0000000E+04; -4.7226954E-02;  0.0000000E+00; -2.1078685E-02;  6.9111475E+02;
  1.4000000E-01;  9.9999998E-03;  3.8000000E-01;529;  0.0000000E+00;  0.0000000E+00;  0.0000000E+00;  1.0001068E+03;  4.0000001E-01;  8.8491310E+01;0;  0.0000000E+00;  0.0000000E+00;  0.0000000E+00;0; -3.9039217E-02;  1.0000000E+04;  0.0000000E+00;  0.0000000E+00;  1.0000000E+04;  0.0000000E+00;  1.0000000E+04; -2.4404379E-02;  0.0000000E+00; -1.4634839E-02;  7.6162128E+02;
  1.4000000E-01;  9.9999998E-03;  4.0000001E-01;530;  0.0000000E+00;  0.0000000E+00;  0.0000000E+00;  1.0000490E+03;  4.0000001E-01;  4.0591438E+01;0;  0.0000000E+00;  0.0000000E+00;  0.0000000E+00;0; -1.8032167E-02;  1.0000000E+04;  0.0000000E+00;  0.0000000E+00;  1.0000000E+04;  0.0000000E+00;  1.0000000E+04; -1.0622847E-02;  0.0000000E+00; -7.4093193E-03;  8.8681085E+02;
  1.6000000E-01;  9.9999998E-03;  3.4000000E-01;537;  0.0000000E+00;  0.0000000E+00;  0.0000000E+00;  1.0003767E+03;  4.0000001E-01;  3.1208990E+02;0;  0.0000000E+00;  0.0000000E+00;  0.0000000E+00;0; -1.3369298E-01;  1.0000000E+04;  0.0000000E+00;  0.0000000E+00;  1.0000000E+04;  0.0000000E+00;  1.0000000E+04; -1.0456212E-01;  0.0000000E+00; -2.9130857E-02;  4.1052817E+03;
  1.6000000E-01;  9.9999998E-03;  3.6000001E-01;538;  0.0000000E+00;  0.0000000E+00;  0.0000000E+00;  1.0002491E+03;  4.0000001E-01;  2.0641388E+02;0;  0.0000000E+00;  0.0000000E+00;  0.0000000E+00;0; -8.8421971E-02;  1.0000000E+04;  0.0000000E+00;  0.0000000E+00;  1.0000000E+04;  0.0000000E+00;  1.0000000E+04; -6.3260354E-02;  0.0000000E+00; -2.5161617E-02;  9.3789233E+02;
  1.6000000E-01;  9.9999998E-03;  3.8000000E-01;539;  0.0000000E+00;  0.0000000E+00;  0.0000000E+00;  1.0001444E+03;  4.0000001E-01;  1.1960154E+02;0;  0.0000000E+00;  0.0000000E+00;  0.0000000E+00;0; -5.1351286E-02;  1.0000000E+04;  0.0000000E+00;  0.0000000E+00;  1.0000000E+04;  0.0000000E+00;  1.0000000E+04; -3.3739500E-02;  0.0000000E+00; -1.7611785E-02;  2.0196799E+03;
  1.6000000E-01;  9.9999998E-03;  4.0000001E-01;540;  0.0000000E+00;  0.0000000E+00;  0.0000000E+00;  1.0000686E+03;  4.0000001E-01;  5.6788509E+01;0;  0.0000000E+00;  0.0000000E+00;  0.0000000E+00;0; -2.4508838E-02;  1.0000000E+04;  0.0000000E+00;  0.0000000E+00;  1.0000000E+04;  0.0000000E+00;  1.0000000E+04; -1.5368147E-02;  0.0000000E+00; -9.1406908E-03;  2.4517366E+03;
  1.8000001E-01;  9.9999998E-03;  3.4000000E-01;547;  0.0000000E+00;  0.0000000E+00;  0.0000000E+00;  1.0004962E+03;  4.0000001E-01;  4.1105005E+02;0;  0.0000000E+00;  0.0000000E+00;  0.0000000E+00;0; -1.7139125E-01;  1.0000000E+04;  0.0000000E+00;  0.0000000E+00;  1.0000000E+04;  0.0000000E+00;  1.0000000E+04; -1.3244177E-01;  0.0000000E+00; -3.8949478E-02;  7.4992559E+03;
  1.8000001E-01;  9.9999998E-03;  3.6000001E-01;548;  0.0000000E+00;  0.0000000E+00;  0.0000000E+00;  1.0003331E+03;  4.0000001E-01;  2.7594278E+02;0;  0.0000000E+00;  0.0000000E+00;  0.0000000E+00;0; -1.1518031E-01;  1.0000000E+04;  0.0000000E+00;  0.0000000E+00;  1.0000000E+04;  0.0000000E+00;  1.0000000E+04; -8.1605650E-02;  0.0000000E+00; -3.3574656E-02;  1.1163254E+03;
  1.8000001E-01;  9.9999998E-03;  3.8000000E-01;549;  0.0000000E+00;  0.0000000E+00;  0.0000000E+00;  1.0001996E+03;  4.0000001E-01;  1.6532863E+02;0;  0.0000000E+00;  0.0000000E+00;  0.0000000E+00;0; -6.9086686E-02;  1.0000000E+04;  0.0000000E+00;  0.0000000E+00;  1.0000000E+04;  0.0000000E+00;  1.0000000E+04; -4.4932727E-02;  0.0000000E+00; -2.4153961E-02;  4.6750732E+03;
  1.8000001E-01;  9.9999998E-03;  4.0000001E-01;550;  0.0000000E+00;  0.0000000E+00;  0.0000000E+00;  1.0001013E+03;  4.0000001E-01;  8.3948227E+01;0;  0.0000000E+00;  0.0000000E+00;  0.0000000E+00;0; -3.5267401E-02;  1.0000000E+04;  0.0000000E+00;  0.0000000E+00;  1.0000000E+04;  0.0000000E+00;  1.0000000E+04; -2.1810625E-02;  0.0000000E+00; -1.3456777E-02;  5.8273984E+03;
  2.0000000E-01;  9.9999998E-03;  3.4000000E-01;556;  0.0000000E+00;  0.0000000E+00;  0.0000000E+00;  1.0006356E+03;  4.0000001E-01;  5.2650354E+02;0;  0.0000000E+00;  0.0000000E+00;  0.0000000E+00;0; -2.1402963E-01;  1.0000000E+04;  0.0000000E+00;  0.0000000E+00;  1.0000000E+04;  0.0000000E+00;  1.0000000E+04; -1.5725373E-01;  0.0000000E+00; -5.6775894E-02;  1.1144744E+04;
  2.0000000E-01;  9.9999998E-03;  3.6000001E-01;557;  0.0000000E+00;  0.0000000E+00;  0.0000000E+00;  1.0004353E+03;  4.0000001E-01;  3.6068109E+02;0;  0.0000000E+00;  0.0000000E+00;  0.0000000E+00;0; -1.4668357E-01;  1.0000000E+04;  0.0000000E+00;  0.0000000E+00;  1.0000000E+04;  0.0000000E+00;  1.0000000E+04; -9.7668856E-02;  0.0000000E+00; -4.9014717E-02;  1.3542214E+03;
  2.0000000E-01;  9.9999998E-03;  3.8000000E-01;558;  0.0000000E+00;  0.0000000E+00;  0.0000000E+00;  1.0002737E+03;  4.0000001E-01;  2.2675899E+02;0;  0.0000000E+00;  0.0000000E+00;  0.0000000E+00;0; -9.2276409E-02;  1.0000000E+04;  0.0000000E+00;  0.0000000E+00;  1.0000000E+04;  0.0000000E+00;  1.0000000E+04; -5.5287212E-02;  0.0000000E+00; -3.6989197E-02;  8.7468252E+03;
  1.9200000E+00;  9.9999998E-03; -3.6000001E-01;559;  0.0000000E+00;  0.0000000E+00;  0.0000000E+00;  1.0000000E+03;  4.0000001E-01;  0.0000000E+00;0;  0.0000000E+00;  0.0000000E+00;  0.0000000E+00;0;  0.0000000E+00;  1.0000000E+04;  0.0000000E+00;  0.0000000E+00;  1.0000000E+04;  0.0000000E+00;  1.0000000E+04;  0.0000000E+00;  0.0000000E+00;  0.0000000E+00;  0.0000000E+00;
  1.9200000E+00;  9.9999998E-03; -3.4000000E-01;560;  0.0000000E+00;  0.0000000E+00;  0.0000000E+00;  1.0000000E+03;  4.0000001E-01;  0.0000000E+00;0;  0.0000000E+00;  0.0000000E+00;  0.0000000E+00;0;  0.0000000E+00;  1.0000000E+04;  0.0000000E+00;  0.0000000E+00;  1.0000000E+04;  0.0000000E+00;  1.0000000E+04;  0.0000000E+00;  0.0000000E+00;  0.0000000E+00;  0.0000000E+00;
  1.9200000E+00;  9.9999998E-03; -3.1999999E-01;561;  0.0000000E+00;  0.0000000E+00;  0.0000000E+00;  1.0000000E+03;  4.0000001E-01;  0.0000000E+00;0;  0.0000000E+00;  0.0000000E+00;  0.0000000E+00;0;  0.0000000E+00;  1.0000000E+04;  0.0000000E+00;  0.0000000E+00;  1.0000000E+04;  0.0000000E+00;  1.0000000E+04;  0.0000000E+00;  0.0000000E+00;  0.0000000E+00;  0.0000000E+00;
  1.9400001E+00;  9.9999998E-03; -3.8000000E-01;562;  0.0000000E+00;  0.0000000E+00;  0.0000000E+00;  1.0000000E+03;  4.0000001E-01;  0.0000000E+00;0;  0.0000000E+00;  0.0000000E+00;  0.0000000E+00;0;  0.0000000E+00;  1.0000000E+04;  0.0000000E+00;  0.0000000E+00;  1.0000000E+04;  0.0000000E+00;  1.0000000E+04;  0.0000000E+00;  0.0000000E+00;  0.0000000E+00;  0.0000000E+00;
  1.9400001E+00;  9.9999998E-03; -3.6000001E-01;563;  0.0000000E+00;  0.0000000E+00;  0.0000000E+00;  1.0000000E+03;  4.0000001E-01;  0.0000000E+00;0;  0.0000000E+00;  0.0000000E+00;  0.0000000E+00;0;  0.0000000E+00;  1.0000000E+04;  0.0000000E+00;  0.0000000E+00;  1.0000000E+04;  0.0000000E+00;  1.0000000E+04;  0.0000000E+00;  0.0000000E+00;  0.0000000E+00;  0.0000000E+00;
  1.9400001E+00;  9.9999998E-03; -3.4000000E-01;564;  0.0000000E+00;  0.0000000E+00;  0.0000000E+00;  1.0000000E+03;  4.0000001E-01;  0.0000000E+00;0;  0.0000000E+00;  0.0000000E+00;  0.0000000E+00;0;  0.0000000E+00;  1.0000000E+04;  0.0000000E+00;  0.0000000E+00;  1.0000000E+04;  0.0000000E+00;  1.0000000E+04;  0.0000000E+00;  0.0000000E+00;  0.0000000E+00;  0.0000000E+00;
  1.9400001E+00;  9.9999998E-03; -3.1999999E-01;565;  0.0000000E+00;  0.0000000E+00;  0.0000000E+00;  1.0000000E+03;  4.0000001E-01;  0.0000000E+00;0;  0.0000000E+00;  0.0000000E+00;  0.0000000E+00;0;  0.0000000E+00;  1.0000000E+04;  0.0000000E+00;  0.0000000E+00;  1.0000000E+04;  0.0000000E+00;  1.0000000E+04;  0.0000000E+00;  0.0000000E+00;  0.0000000E+00;  0.0000000E+00;
  1.9400001E+00;  9.9999998E-03; -3.0000001E-01;566;  0.0000000E+00;  0.0000000E+00;  0.0000000E+00;  1.0000000E+03;  4.0000001E-01;  0.0000000E+00;0;  0.0000000E+00;  0.0000000E+00;  0.0000000E+00;0;  0.0000000E+00;  1.0000000E+04;  0.0000000E+00;  0.0000000E+00;  1.0000000E+04;  0.0000000E+00;  1.0000000E+04;  0.0000000E+00;  0.0000000E+00;  0.0000000E+00;  0.0000000E+00;
  1.9400001E+00;  9.9999998E-03; -2.8000000E-01;567;  0.0000000E+00;  0.0000000E+00;  0.0000000E+00;  1.0000000E+03;  4.0000001E-01;  0.0000000E+00;0;  0.0000000E+00;  0.0000000E+00;  0.0000000E+00;0;  0.0000000E+00;  1.0000000E+04;  0.0000000E+00;  0.0000000E+00;  1.0000000E+04;  0.0000000E+00;  1.0000000E+04;  0.0000000E+00;  0.0000000E+00;  0.0000000E+00;  0.0000000E+00;
  1.9400001E+00;  9.9999998E-03; -2.5999999E-01;568;  0.0000000E+00;  0.0000000E+00;  0.0000000E+00;  1.0000000E+03;  4.0000001E-01;  0.0000000E+00;0;  0.0000000E+00;  0.0000000E+00;  0.0000000E+00;0;  0.0000000E+00;  1.0000000E+04;  0.0000000E+00;  0.0000000E+00;  1.0000000E+04;  0.0000000E+00;  1.0000000E+04;  0.0000000E+00;  0.0000000E+00;  0.0000000E+00;  0.0000000E+00;
  1.9400001E+00;  9.9999998E-03; -2.3999999E-01;569;  0.0000000E+00;  0.0000000E+00;  0.0000000E+00;  1.0000000E+03;  4.0000001E-01;  0.0000000E+00;0;  0.0000000E+00;  0.0000000E+00;  0.0000000E+00;0;  0.0000000E+00;  1.0000000E+04;  0.0000000E+00;  0.0000000E+00;  1.0000000E+04;  0.0000000E+00;  1.0000000E+04;  0.0000000E+00;  0.0000000E+00;  0.0000000E+00;  0.0000000E+00;
  1.9400001E+00;  9.9999998E-03; -2.2000000E-01;570;  0.0000000E+00;  0.0000000E+00;  0.0000000E+00;  1.0000000E+03;  4.0000001E-01;  0.0000000E+00;0;  0.0000000E+00;  0.0000000E+00;  0.0000000E+00;0;  0.0000000E+00;  1.0000000E+04;  0.0000000E+00;  0.0000000E+00;  1.0000000E+04;  0.0000000E+00;  1.0000000E+04;  0.0000000E+00;  0.0000000E+00;  0.0000000E+00;  0.0000000E+00;
  1.9600000E+00;  9.9999998E-03; -3.8000000E-01;571;  0.0000000E+00;  0.0000000E+00;  0.0000000E+00;  1.0000000E+03;  4.0000001E-01;  0.0000000E+00;0;  0.0000000E+00;  0.0000000E+00;  0.0000000E+00;0;  0.0000000E+00;  1.0000000E+04;  0.0000000E+00;  0.0000000E+00;  1.0000000E+04;  0.0000000E+00;  1.0000000E+04;  0.0000000E+00;  0.0000000E+00;  0.0000000E+00;  0.0000000E+00;
  1.9600000E+00;  9.9999998E-03; -3.6000001E-01;572;  0.0000000E+00;  0.0000000E+00;  0.0000000E+00;  1.0000000E+03;  4.0000001E-01;  0.0000000E+00;0;  0.0000000E+00;  0.0000000E+00;  0.0000000E+00;0;  0.0000000E+00;  1.0000000E+04;  0.0000000E+00;  0.0000000E+00;  1.0000000E+04;  0.0000000E+00;  1.0000000E+04;  0.0000000E+00;  0.0000000E+00;  0.0000000E+00;  0.0000000E+00;
  1.9600000E+00;  9.9999998E-03; -3.4000000E-01;573;  0.0000000E+00;  0.0000000E+00;  0.0000000E+00;  1.0000000E+03;  4.0000001E-01;  0.0000000E+00;0;  0.0000000E+00;  0.0000000E+00;  0.0000000E+00;0;  0.0000000E+00;  1.0000000E+04;  0.0000000E+00;  0.0000000E+00;  1.0000000E+04;  0.0000000E+00;  1.0000000E+04;  0.0000000E+00;  0.0000000E+00;  0.0000000E+00;  0.0000000E+00;
  1.9600000E+00;  9.9999998E-03; -3.1999999E-01;574;  0.0000000E+00;  0.0000000E+00;  0.0000000E+00;  1.0000000E+03;  4.0000001E-01;  0.0000000E+00;0;  0.0000000E+00;  0.0000000E+00;  0.0000000E+00;0;  0.0000000E+00;  1.0000000E+04;  0.0000000E+00;  0.0000000E+00;  1.0000000E+04;  0.0000000E+00;  1.0000000E+04;  0.0000000E+00;  0.0000000E+00;  0.0000000E+00;  0.0000000E+00;
  1.9600000E+00;  9.9999998E-03; -3.0000001E-01;575;  0.0000000E+00;  0.0000000E+00;  0.0000000E+00;  1.0000000E+03;  4.0000001E-01;  0.0000000E+00;0;  0.0000000E+00;  0.0000000E+00;  0.0000000E+00;0;  0.0000000E+00;  1.0000000E+04;  0.0000000E+00;  0.0000000E+00;  1.0000000E+04;  0.0000000E+00;  1.0000000E+04;  0.0000000E+00;  0.0000000E+00;  0.0000000E+00;  0.0000000E+00;
  1.9600000E+00;  9.9999998E-03; -2.8000000E-01;576;  0.0000000E+00;  0.0000000E+00;  0.0000000E+00;  1.0000000E+03;  4.0000001E-01;  0.0000000E+00;0;  0.0000000E+00;  0.0000000E+00;  0.0000000E+00;0;  0.0000000E+00;  1.0000000E+04;  0.0000000E+00;  0.0000000E+00;  1.0000000E+04;  0.0000000E+00;  1.0000000E+04;  0.0000000E+00;  0.0000000E+00;  0.0000000E+00;  0.0000000E+00;
  1.9600000E+00;  9.9999998E-03; -2.5999999E-01;577;  0.0000000E+00;  0.0000000E+00;  0.0000000E+00;  1.0000000E+03;  4.0000001E-01;  0.0000000E+00;0;  0.0000000E+00;  0.0000000E+00;  0.0000000E+00;0;  0.0000000E+00;  1.0000000E+04;  0.0000000E+00;  0.0000000E+00;  1.0000000E+04;  0.0000000E+00;  1.0000000E+04;  0.0000000E+00;  0.0000000E+00;  0.0000000E+00;  0.0000000E+00;
  1.9600000E+00;  9.9999998E-03; -2.3999999E-01;578;  0.0000000E+00;  0.0000000E+00;  0.0000000E+00;  1.0000000E+03;  4.0000001E-01;  0.0000000E+00;0;  0.0000000E+00;  0.0000000E+00;  0.0000000E+00;0;  0.0000000E+00;  1.0000000E+04;  0.0000000E+00;  0.0000000E+00;  1.0000000E+04;  0.0000000E+00;  1.0000000E+04;  0.0000000E+00;  0.0000000E+00;  0.0000000E+00;  0.0000000E+00;
  1.9600000E+00;  9.9999998E-03; -2.2000000E-01;579;  0.0000000E+00;  0.0000000E+00;  0.0000000E+00;  1.0000000E+03;  4.0000001E-01;  0.0000000E+00;0;  0.0000000E+00;  0.0000000E+00;  0.0000000E+00;0;  0.0000000E+00;  1.0000000E+04;  0.0000000E+00;  0.0000000E+00;  1.0000000E+04;  0.0000000E+00;  1.0000000E+04;  0.0000000E+00;  0.0000000E+00;  0.0000000E+00;  0.0000000E+00;
  1.9600000E+00;  9.9999998E-03; -2.0000000E-01;580;  0.0000000E+00;  0.0000000E+00;  0.0000000E+00;  1.0000000E+03;  4.0000001E-01;  0.0000000E+00;0;  0.0000000E+00;  0.0000000E+00;  0.0000000E+00;0;  0.0000000E+00;  1.0000000E+04;  0.0000000E+00;  0.0000000E+00;  1.0000000E+04;  0.0000000E+00;  1.0000000E+04;  0.0000000E+00;  0.0000000E+00;  0.0000000E+00;  0.0000000E+00;
  1.9600000E+00;  9.9999998E-03; -1.8000001E-01;581;  0.0000000E+00;  0.0000000E+00;  0.0000000E+00;  1.0000000E+03;  4.0000001E-01;  0.0000000E+00;0;  0.0000000E+00;  0.0000000E+00;  0.0000000E+00;0;  0.0000000E+00;  1.0000000E+04;  0.0000000E+00;  0.0000000E+00;  1.0000000E+04;  0.0000000E+00;  1.0000000E+04;  0.0000000E+00;  0.0000000E+00;  0.0000000E+00;  0.0000000E+00;
  1.9600000E+00;  9.9999998E-03; -1.6000000E-01;582;  0.0000000E+00;  0.0000000E+00;  0.0000000E+00;  1.0000000E+03;  4.0000001E-01;  0.0000000E+00;0;  0.0000000E+00;  0.0000000E+00;  0.0000000E+00;0;  0.0000000E+00;  1.0000000E+04;  0.0000000E+00;  0.0000000E+00;  1.0000000E+04;  0.0000000E+00;  1.0000000E+04;  0.0000000E+00;  0.0000000E+00;  0.0000000E+00;  0.0000000E+00;
  1.9600000E+00;  9.9999998E-03; -1.4000000E-01;583;  0.0000000E+00;  0.0000000E+00;  0.0000000E+00;  1.0000000E+03;  4.0000001E-01;  0.0000000E+00;0;  0.0000000E+00;  0.0000000E+00;  0.0000000E+00;0;  0.0000000E+00;  1.0000000E+04;  0.0000000E+00;  0.0000000E+00;  1.0000000E+04;  0.0000000E+00;  1.0000000E+04;  0.0000000E+00;  0.0000000E+00;  0.0000000E+00;  0.0000000E+00;
  1.9600000E+00;  9.9999998E-03; -1.2000000E-01;584;  0.0000000E+00;  0.0000000E+00;  0.0000000E+00;  1.0000000E+03;  4.0000001E-01;  0.0000000E+00;0;  0.0000000E+00;  0.0000000E+00;  0.0000000E+00;0;  0.0000000E+00;  1.0000000E+04;  0.0000000E+00;  0.0000000E+00;  1.0000000E+04;  0.0000000E+00;  1.0000000E+04;  0.0000000E+00;  0.0000000E+00;  0.0000000E+00;  0.0000000E+00;
  1.9800000E+00;  9.9999998E-03; -3.8000000E-01;585;  0.0000000E+00;  0.0000000E+00;  0.0000000E+00;  1.0000000E+03;  4.0000001E-01;  0.0000000E+00;0;  0.0000000E+00;  0.0000000E+00;  0.0000000E+00;0;  0.0000000E+00;  1.0000000E+04;  0.0000000E+00;  0.0000000E+00;  1.0000000E+04;  0.0000000E+00;  1.0000000E+04;  0.0000000E+00;  0.0000000E+00;  0.0000000E+00;  0.0000000E+00;
  1.9800000E+00;  9.9999998E-03; -3.6000001E-01;586;  0.0000000E+00;  0.0000000E+00;  0.0000000E+00;  1.0000000E+03;  4.0000001E-01;  0.0000000E+00;0;  0.0000000E+00;  0.0000000E+00;  0.0000000E+00;0;  0.0000000E+00;  1.0000000E+04;  0.0000000E+00;  0.0000000E+00;  1.0000000E+04;  0.0000000E+00;  1.0000000E+04;  0.0000000E+00;  0.0000000E+00;  0.0000000E+00;  0.0000000E+00;
  1.9800000E+00;  9.9999998E-03; -3.4000000E-01;587;  0.0000000E+00;  0.0000000E+00;  0.0000000E+00;  1.0000000E+03;  4.0000001E-01;  0.0000000E+00;0;  0.0000000E+00;  0.0000000E+00;  0.0000000E+00;0;  0.0000000E+00;  1.0000000E+04;  0.0000000E+00;  0.0000000E+00;  1.0000000E+04;  0.0000000E+00;  1.0000000E+04;  0.0000000E+00;  0.0000000E+00;  0.0000000E+00;  0.0000000E+00;
  1.9800000E+00;  9.9999998E-03; -3.1999999E-01;588;  0.0000000E+00;  0.0000000E+00;  0.0000000E+00;  1.0000000E+03;  4.0000001E-01;  0.0000000E+00;0;  0.0000000E+00;  0.0000000E+00;  0.0000000E+00;0;  0.0000000E+00;  1.0000000E+04;  0.0000000E+00;  0.0000000E+00;  1.0000000E+04;  0.0000000E+00;  1.0000000E+04;  0.0000000E+00;  0.0000000E+00;  0.0000000E+00;  0.0000000E+00;
  1.9800000E+00;  9.9999998E-03; -3.0000001E-01;589;  0.0000000E+00;  0.0000000E+00;  0.0000000E+00;  1.0000000E+03;  4.0000001E-01;  0.0000000E+00;0;  0.0000000E+00;  0.0000000E+00;  0.0000000E+00;0;  0.0000000E+00;  1.0000000E+04;  0.0000000E+00;  0.0000000E+00;  1.0000000E+04;  0.0000000E+00;  1.0000000E+04;  0.0000000E+00;  0.0000000E+00;  0.0000000E+00;  0.0000000E+00;
  1.9800000E+00;  9.9999998E-03; -2.8000000E-01;590;  0.0000000E+00;  0.0000000E+00;  0.0000000E+00;  1.0000000E+03;  4.0000001E-01;  0.0000000E+00;0;  0.0000000E+00;  0.0000000E+00;  0.0000000E+00;0;  0.0000000E+00;  1.0000000E+04;  0.0000000E+00;  0.0000000E+00;  1.0000000E+04;  0.0000000E+00;  1.0000000E+04;  0.0000000E+00;  0.0000000E+00;  0.0000000E+00;  0.0000000E+00;
  1.9800000E+00;  9.9999998E-03; -2.5999999E-01;591;  0.0000000E+00;  0.0000000E+00;  0.0000000E+00;  1.0000000E+03;  4.0000001E-01;  0.0000000E+00;0;  0.0000000E+00;  0.0000000E+00;  0.0000000E+00;0;  0.0000000E+00;  1.0000000E+04;  0.0000000E+00;  0.0000000E+00;  1.0000000E+04;  0.0000000E+00;  1.0000000E+04;  0.0000000E+00;  0.0000000E+00;  0.0000000E+00;  0.0000000E+00;
  1.9800000E+00;  9.9999998E-03; -2.3999999E-01;592;  0.0000000E+00;  0.0000000E+00;  0.0000000E+00;  1.0000000E+03;  4.0000001E-01;  0.0000000E+00;0;  0.0000000E+00;  0.0000000E+00;  0.0000000E+00;0;  0.0000000E+00;  1.0000000E+04;  0.0000000E+00;  0.0000000E+00;  1.0000000E+04;  0.0000000E+00;  1.0000000E+04;  0.0000000E+00;  0.0000000E+00;  0.0000000E+00;  0.0000000E+00;
  1.9800000E+00;  9.9999998E-03; -2.2000000E-01;593;  0.0000000E+00;  0.0000000E+00;  0.0000000E+00;  1.0000000E+03;  4.0000001E-01;  0.0000000E+00;0;  0.0000000E+00;  0.0000000E+00;  0.0000000E+00;0;  0.0000000E+00;  1.0000000E+04;  0.0000000E+00;  0.0000000E+00;  1.0000000E+04;  0.0000000E+00;  1.0000000E+04;  0.0000000E+00;  0.0000000E+00;  0.0000000E+00;  0.0000000E+00;
  1.9800000E+00;  9.9999998E-03; -2.0000000E-01;594;  0.0000000E+00;  0.0000000E+00;  0.0000000E+00;  1.0000000E+03;  4.0000001E-01;  0.0000000E+00;0;  0.0000000E+00;  0.0000000E+00;  0.0000000E+00;0;  0.0000000E+00;  1.0000000E+04;  0.0000000E+00;  0.0000000E+00;  1.0000000E+04;  0.0000000E+00;  1.0000000E+04;  0.0000000E+00;  0.0000000E+00;  0.0000000E+00;  0.0000000E+00;
  1.9800000E+00;  9.9999998E-03; -1.8000001E-01;595;  0.0000000E+00;  0.0000000E+00;  0.0000000E+00;  1.0000000E+03;  4.0000001E-01;  0.0000000E+00;0;  0.0000000E+00;  0.0000000E+00;  0.0000000E+00;0;  0.0000000E+00;  1.0000000E+04;  0.0000000E+00;  0.0000000E+00;  1.0000000E+04;  0.0000000E+00;  1.0000000E+04;  0.0000000E+00;  0.0000000E+00;  0.0000000E+00;  0.0000000E+00;
  1.9800000E+00;  9.9999998E-03; -1.6000000E-01;596;  0.0000000E+00;  0.0000000E+00;  0.0000000E+00;  1.0000000E+03;  4.0000001E-01;  0.0000000E+00;0;  0.0000000E+00;  0.0000000E+00;  0.0000000E+00;0;  0.0000000E+00;  1.0000000E+04;  0.0000000E+00;  0.0000000E+00;  1.0000000E+04;  0.0000000E+00;  1.0000000E+04;  0.0000000E+00;  0.0000000E+00;  0.0000000E+00;  0.0000000E+00;
  1.9800000E+00;  9.9999998E-03; -1.4000000E-01;597;  0.0000000E+00;  0.0000000E+00;  0.0000000E+00;  1.0000000E+03;  4.0000001E-01;  0.0000000E+00;0;  0.0000000E+00;  0.0000000E+00;  0.0000000E+00;0;  0.0000000E+00;  1.0000000E+04;  0.0000000E+00;  0.0000000E+00;  1.0000000E+04;  0.0000000E+00;  1.0000000E+04;  0.0000000E+00;  0.0000000E+00;  0.0000000E+00;  0.0000000E+00;
  1.9800000E+00;  9.9999998E-03; -1.2000000E-01;598;  0.0000000E+00;  0.0000000E+00;  0.0000000E+00;  1.0000000E+03;  4.0000001E-01;  0.0000000E+00;0;  0.0000000E+00;  0.0000000E+00;  0.0000000E+00;0;  0.0000000E+00;  1.0000000E+04;  0.0000000E+00;  0.0000000E+00;  1.0000000E+04;  0.0000000E+00;  1.0000000E+04;  0.0000000E+00;  0.0000000E+00;  0.0000000E+00;  0.0000000E+00;
  1.9800000E+00;  9.9999998E-03; -1.0000000E-01;599;  0.0000000E+00;  0.0000000E+00;  0.0000000E+00;  1.0000000E+03;  4.0000001E-01;  0.0000000E+00;0;  0.0000000E+00;  0.0000000E+00;  0.0000000E+00;0;  0.0000000E+00;  1.0000000E+04;  0.0000000E+00;  0.0000000E+00;  1.0000000E+04;  0.0000000E+00;  1.0000000E+04;  0.0000000E+00;  0.0000000E+00;  0.0000000E+00;  0.0000000E+00;
  1.9800000E+00;  9.9999998E-03; -7.9999998E-02;600;  0.0000000E+00;  0.0000000E+00;  0.0000000E+00;  1.0000000E+03;  4.0000001E-01;  0.0000000E+00;0;  0.0000000E+00;  0.0000000E+00;  0.0000000E+00;0;  0.0000000E+00;  1.0000000E+04;  0.0000000E+00;  0.0000000E+00;  1.0000000E+04;  0.0000000E+00;  1.0000000E+04;  0.0000000E+00;  0.0000000E+00;  0.0000000E+00;  0.0000000E+00;
  1.9800000E+00;  9.9999998E-03; -5.9999999E-02;601;  0.0000000E+00;  0.0000000E+00;  0.0000000E+00;  1.0000000E+03;  4.0000001E-01;  0.0000000E+00;0;  0.0000000E+00;  0.0000000E+00;  0.0000000E+00;0;  0.0000000E+00;  1.0000000E+04;  0.0000000E+00;  0.0000000E+00;  1.0000000E+04;  0.0000000E+00;  1.0000000E+04;  0.0000000E+00;  0.0000000E+00;  0.0000000E+00;  0.0000000E+00;
  1.9800000E+00;  9.9999998E-03; -3.9999999E-02;602;  0.0000000E+00;  0.0000000E+00;  0.0000000E+00;  1.0000000E+03;  4.0000001E-01;  0.0000000E+00;0;  0.0000000E+00;  0.0000000E+00;  0.0000000E+00;0;  0.0000000E+00;  1.0000000E+04;  0.0000000E+00;  0.0000000E+00;  1.0000000E+04;  0.0000000E+00;  1.0000000E+04;  0.0000000E+00;  0.0000000E+00;  0.0000000E+00;  0.0000000E+00;
  1.9800000E+00;  9.9999998E-03; -2.0000000E-02;603;  0.0000000E+00;  0.0000000E+00;  0.0000000E+00;  1.0000000E+03;  4.0000001E-01;  0.0000000E+00;0;  0.0000000E+00;  0.0000000E+00;  0.0000000E+00;0;  0.0000000E+00;  1.0000000E+04;  0.0000000E+00;  0.0000000E+00;  1.0000000E+04;  0.0000000E+00;  1.0000000E+04;  0.0000000E+00;  0.0000000E+00;  0.0000000E+00;  0.0000000E+00;
  2.0000000E+00;  9.9999998E-03; -3.8000000E-01;604;  0.0000000E+00;  0.0000000E+00;  0.0000000E+00;  1.0000000E+03;  4.0000001E-01;  0.0000000E+00;0;  0.0000000E+00;  0.0000000E+00;  0.0000000E+00;0;  0.0000000E+00;  1.0000000E+04;  0.0000000E+00;  0.0000000E+00;  1.0000000E+04;  0.0000000E+00;  1.0000000E+04;  0.0000000E+00;  0.0000000E+00;  0.0000000E+00;  0.0000000E+00;
  2.0000000E+00;  9.9999998E-03; -3.6000001E-01;605;  0.0000000E+00;  0.0000000E+00;  0.0000000E+00;  1.0000000E+03;  4.0000001E-01;  0.0000000E+00;0;  0.0000000E+00;  0.0000000E+00;  0.0000000E+00;0;  0.0000000E+00;  1.0000000E+04;  0.0000000E+00;  0.0000000E+00;  1.0000000E+04;  0.0000000E+00;  1.0000000E+04;  0.0000000E+00;  0.0000000E+00;  0.0000000E+00;  0.0000000E+00;
  2.0000000E+00;  9.9999998E-03; -3.4000000E-01;606;  0.0000000E+00;  0.0000000E+00;  0.0000000E+00;  1.0000000E+03;  4.0000001E-01;  0.0000000E+00;0;  0.0000000E+00;  0.0000000E+00;  0.0000000E+00;0;  0.0000000E+00;  1.0000000E+04;  0.0000000E+00;  0.0000000E+00;  1.0000000E+04;  0.0000000E+00;  1.0000000E+04;  0.0000000E+00;  0.0000000E+00;  0.0000000E+00;  0.0000000E+00;
  2.0000000E+00;  9.9999998E-03; -3.1999999E-01;607;  0.0000000E+00;  0.0000000E+00;  0.0000000E+00;  1.0000000E+03;  4.0000001E-01;  0.0000000E+00;0;  0.0000000E+00;  0.0000000E+00;  0.0000000E+00;0;  0.0000000E+00;  1.0000000E+04;  0.0000000E+00;  0.0000000E+00;  1.0000000E+04;  0.0000000E+00;  1.0000000E+04;  0.0000000E+00;  0.0000000E+00;  0.0000000E+00;  0.0000000E+00;
  2.0000000E+00;  9.9999998E-03; -3.0000001E-01;608;  0.0000000E+00;  0.0000000E+00;  0.0000000E+00;  1.0000000E+03;  4.0000001E-01;  0.0000000E+00;0;  0.0000000E+00;  0.0000000E+00;  0.0000000E+00;0;  0.0000000E+00;  1.0000000E+04;  0.0000000E+00;  0.0000000E+00;  1.0000000E+04;  0.0000000E+00;  1.0000000E+04;  0.0000000E+00;  0.0000000E+00;  0.0000000E+00;  0.0000000E+00;
  2.0000000E+00;  9.9999998E-03; -2.8000000E-01;609;  0.0000000E+00;  0.0000000E+00;  0.0000000E+00;  1.0000000E+03;  4.0000001E-01;  0.0000000E+00;0;  0.0000000E+00;  0.0000000E+00;  0.0000000E+00;0;  0.0000000E+00;  1.0000000E+04;  0.0000000E+00;  0.0000000E+00;  1.0000000E+04;  0.0000000E+00;  1.0000000E+04;  0.0000000E+00;  0.0000000E+00;  0.0000000E+00;  0.0000000E+00;
  2.0000000E+00;  9.9999998E-03; -2.5999999E-01;610;  0.0000000E+00;  0.0000000E+00;  0.0000000E+00;  1.0000000E+03;  4.0000001E-01;  0.0000000E+00;0;  0.0000000E+00;  0.0000000E+00;  0.0000000E+00;0;  0.0000000E+00;  1.0000000E+04;  0.0000000E+00;  0.0000000E+00;  1.0000000E+04;  0.0000000E+00;  1.0000000E+04;  0.0000000E+00;  0.0000000E+00;  0.0000000E+00;  0.0000000E+00;
  2.0000000E+00;  9.9999998E-03; -2.3999999E-01;611;  0.0000000E+00;  0.0000000E+00;  0.0000000E+00;  1.0000000E+03;  4.0000001E-01;  0.0000000E+00;0;  0.0000000E+00;  0.0000000E+00;  0.0000000E+00;0;  0.0000000E+00;  1.0000000E+04;  0.0000000E+00;  0.0000000E+00;  1.0000000E+04;  0.0000000E+00;  1.0000000E+04;  0.0000000E+00;  0.0000000E+00;  0.0000000E+00;  0.0000000E+00;
  2.0000000E+00;  9.9999998E-03; -2.2000000E-01;612;  0.0000000E+00;  0.0000000E+00;  0.0000000E+00;  1.0000000E+03;  4.0000001E-01;  0.0000000E+00;0;  0.0000000E+00;  0.0000000E+00;  0.0000000E+00;0;  0.0000000E+00;  1.0000000E+04;  0.0000000E+00;  0.0000000E+00;  1.0000000E+04;  0.0000000E+00;  1.0000000E+04;  0.0000000E+00;  0.0000000E+00;  0.0000000E+00;  0.0000000E+00;
  2.0000000E+00;  9.9999998E-03; -2.0000000E-01;613;  0.0000000E+00;  0.0000000E+00;  0.0000000E+00;  1.0000000E+03;  4.0000001E-01;  0.0000000E+00;0;  0.0000000E+00;  0.0000000E+00;  0.0000000E+00;0;  0.0000000E+00;  1.0000000E+04;  0.0000000E+00;  0.0000000E+00;  1.0000000E+04;  0.0000000E+00;  1.0000000E+04;  0.0000000E+00;  0.0000000E+00;  0.0000000E+00;  0.0000000E+00;
  2.0000000E+00;  9.9999998E-03; -1.8000001E-01;614;  0.0000000E+00;  0.0000000E+00;  0.0000000E+00;  1.0000000E+03;  4.0000001E-01;  0.0000000E+00;0;  0.0000000E+00;  0.0000000E+00;  0.0000000E+00;0;  0.0000000E+00;  1.0000000E+04;  0.0000000E+00;  0.0000000E+00;  1.0000000E+04;  0.0000000E+00;  1.0000000E+04;  0.0000000E+00;  0.0000000E+00;  0.0000000E+00;  0.0000000E+00;
  2.0000000E+00;  9.9999998E-03; -1.6000000E-01;615;  0.0000000E+00;  0.0000000E+00;  0.0000000E+00;  1.0000000E+03;  4.0000001E-01;  0.0000000E+00;0;  0.0000000E+00;  0.0000000E+00;  0.0000000E+00;0;  0.0000000E+00;  1.0000000E+04;  0.0000000E+00;  0.0000000E+00;  1.0000000E+04;  0.0000000E+00;  1.0000000E+04;  0.0000000E+00;  0.0000000E+00;  0.0000000E+00;  0.0000000E+00;
  2.0000000E+00;  9.9999998E-03; -1.4000000E-01;616;  0.0000000E+00;  0.0000000E+00;  0.0000000E+00;  1.0000000E+03;  4.0000001E-01;  0.0000000E+00;0;  0.0000000E+00;  0.0000000E+00;  0.0000000E+00;0;  0.0000000E+00;  1.0000000E+04;  0.0000000E+00;  0.0000000E+00;  1.0000000E+04;  0.0000000E+00;  1.0000000E+04;  0.0000000E+00;  0.0000000E+00;  0.0000000E+00;  0.0000000E+00;
  2.0000000E+00;  9.9999998E-03; -1.2000000E-01;617;  0.0000000E+00;  0.0000000E+00;  0.0000000E+00;  1.0000000E+03;  4.0000001E-01;  0.0000000E+00;0;  0.0000000E+00;  0.0000000E+00;  0.0000000E+00;0;  0.0000000E+00;  1.0000000E+04;  0.0000000E+00;  0.0000000E+00;  1.0000000E+04;  0.0000000E+00;  1.0000000E+04;  0.0000000E+00;  0.0000000E+00;  0.0000000E+00;  0.0000000E+00;
  2.0000000E+00;  9.9999998E-03; -1.0000000E-01;618;  0.0000000E+00;  0.0000000E+00;  0.0000000E+00;  1.0000000E+03;  4.0000001E-01;  0.0000000E+00;0;  0.0000000E+00;  0.0000000E+00;  0.0000000E+00;0;  0.0000000E+00;  1.0000000E+04;  0.0000000E+00;  0.0000000E+00;  1.0000000E+04;  0.0000000E+00;  1.0000000E+04;  0.0000000E+00;  0.0000000E+00;  0.0000000E+00;  0.0000000E+00;
  2.0000000E+00;  9.9999998E-03; -7.9999998E-02;619;  0.0000000E+00;  0.0000000E+00;  0.0000000E+00;  1.0000000E+03;  4.0000001E-01;  0.0000000E+00;0;  0.0000000E+00;  0.0000000E+00;  0.0000000E+00;0;  0.0000000E+00;  1.0000000E+04;  0.0000000E+00;  0.0000000E+00;  1.0000000E+04;  0.0000000E+00;  1.0000000E+04;  0.0000000E+00;  0.0000000E+00;  0.0000000E+00;  0.0000000E+00;
  2.0000000E+00;  9.9999998E-03; -5.9999999E-02;620;  0.0000000E+00;  0.0000000E+00;  0.0000000E+00;  1.0000000E+03;  4.0000001E-01;  0.0000000E+00;0;  0.0000000E+00;  0.0000000E+00;  0.0000000E+00;0;  0.0000000E+00;  1.0000000E+04;  0.0000000E+00;  0.0000000E+00;  1.0000000E+04;  0.0000000E+00;  1.0000000E+04;  0.0000000E+00;  0.0000000E+00;  0.0000000E+00;  0.0000000E+00;
  2.0000000E+00;  9.9999998E-03; -3.9999999E-02;621;  0.0000000E+00;  0.0000000E+00;  0.0000000E+00;  1.0000000E+03;  4.0000001E-01;  0.0000000E+00;0;  0.0000000E+00;  0.0000000E+00;  0.0000000E+00;0;  0.0000000E+00;  1.0000000E+04;  0.0000000E+00;  0.0000000E+00;  1.0000000E+04;  0.0000000E+00;  1.0000000E+04;  0.0000000E+00;  0.0000000E+00;  0.0000000E+00;  0.0000000E+00;
  2.0000000E+00;  9.9999998E-03; -2.0000000E-02;622;  0.0000000E+00;  0.0000000E+00;  0.0000000E+00;  1.0000000E+03;  4.0000001E-01;  0.0000000E+00;0;  0.0000000E+00;  0.0000000E+00;  0.0000000E+00;0;  0.0000000E+00;  1.0000000E+04;  0.0000000E+00;  0.0000000E+00;  1.0000000E+04;  0.0000000E+00;  1.0000000E+04;  0.0000000E+00;  0.0000000E+00;  0.0000000E+00;  0.0000000E+00;
  2.0000000E+00;  9.9999998E-03;  0.0000000E+00;623;  0.0000000E+00;  0.0000000E+00;  0.0000000E+00;  1.0000000E+03;  4.0000001E-01;  0.0000000E+00;0;  0.0000000E+00;  0.0000000E+00;  0.0000000E+00;0;  0.0000000E+00;  1.0000000E+04;  0.0000000E+00;  0.0000000E+00;  1.0000000E+04;  0.0000000E+00;  1.0000000E+04;  0.0000000E+00;  0.0000000E+00;  0.0000000E+00;  0.0000000E+00;
  2.0000000E+00;  9.9999998E-03;  2.0000000E-02;624;  0.0000000E+00;  0.0000000E+00;  0.0000000E+00;  1.0000000E+03;  4.0000001E-01;  0.0000000E+00;0;  0.0000000E+00;  0.0000000E+00;  0.0000000E+00;0;  0.0000000E+00;  1.0000000E+04;  0.0000000E+00;  0.0000000E+00;  1.0000000E+04;  0.0000000E+00;  1.0000000E+04;  0.0000000E+00;  0.0000000E+00;  0.0000000E+00;  0.0000000E+00;
  2.0000000E+00;  9.9999998E-03;  3.9999999E-02;625;  0.0000000E+00;  0.0000000E+00;  0.0000000E+00;  1.0000000E+03;  4.0000001E-01;  0.0000000E+00;0;  0.0000000E+00;  0.0000000E+00;  0.0000000E+00;0;  0.0000000E+00;  1.0000000E+04;  0.0000000E+00;  0.0000000E+00;  1.0000000E+04;  0.0000000E+00;  1.0000000E+04;  0.0000000E+00;  0.0000000E+00;  0.0000000E+00;  0.0000000E+00;
  2.0000000E+00;  9.9999998E-03;  5.9999999E-02;626;  0.0000000E+00;  0.0000000E+00;  0.0000000E+00;  1.0000000E+03;  4.0000001E-01;  0.0000000E+00;0;  0.0000000E+00;  0.0000000E+00;  0.0000000E+00;0;  0.0000000E+00;  1.0000000E+04;  0.0000000E+00;  0.0000000E+00;  1.0000000E+04;  0.0000000E+00;  1.0000000E+04;  0.0000000E+00;  0.0000000E+00;  0.0000000E+00;  0.0000000E+00;
  2.0000000E+00;  9.9999998E-03;  7.9999998E-02;627;  0.0000000E+00;  0.0000000E+00;  0.0000000E+00;  1.0000000E+03;  4.0000001E-01;  0.0000000E+00;0;  0.0000000E+00;  0.0000000E+00;  0.0000000E+00;0;  0.0000000E+00;  1.0000000E+04;  0.0000000E+00;  0.0000000E+00;  1.0000000E+04;  0.0000000E+00;  1.0000000E+04;  0.0000000E+00;  0.0000000E+00;  0.0000000E+00;  0.0000000E+00;
  2.0200000E+00;  9.9999998E-03; -4.0000001E-01;628;  0.0000000E+00;  0.0000000E+00;  0.0000000E+00;  1.0000000E+03;  4.0000001E-01;  0.0000000E+00;0;  0.0000000E+00;  0.0000000E+00;  0.0000000E+00;0;  0.0000000E+00;  1.0000000E+04;  0.0000000E+00;  0.0000000E+00;  1.0000000E+04;  0.0000000E+00;  1.0000000E+04;  0.0000000E+00;  0.0000000E+00;  0.0000000E+00;  0.0000000E+00;
  2.0200000E+00;  9.9999998E-03; -3.8000000E-01;629;  0.0000000E+00;  0.0000000E+00;  0.0000000E+00;  1.0000000E+03;  4.0000001E-01;  0.0000000E+00;0;  0.0000000E+00;  0.0000000E+00;  0.0000000E+00;0;  0.0000000E+00;  1.0000000E+04;  0.0000000E+00;  0.0000000E+00;  1.0000000E+04;  0.0000000E+00;  1.0000000E+04;  0.0000000E+00;  0.0000000E+00;  0.0000000E+00;  0.0000000E+00;
  2.0200000E+00;  9.9999998E-03; -3.6000001E-01;630;  0.0000000E+00;  0.0000000E+00;  0.0000000E+00;  1.0000000E+03;  4.0000001E-01;  0.0000000E+00;0;  0.0000000E+00;  0.0000000E+00;  0.0000000E+00;0;  0.0000000E+00;  1.0000000E+04;  0.0000000E+00;  0.0000000E+00;  1.0000000E+04;  0.0000000E+00;  1.0000000E+04;  0.0000000E+00;  0.0000000E+00;  0.0000000E+00;  0.0000000E+00;
  2.0200000E+00;  9.9999998E-03; -3.4000000E-01;631;  0.0000000E+00;  0.0000000E+00;  0.0000000E+00;  1.0000000E+03;  4.0000001E-01;  0.0000000E+00;0;  0.0000000E+00;  0.0000000E+00;  0.0000000E+00;0;  0.0000000E+00;  1.0000000E+04;  0.0000000E+00;  0.0000000E+00;  1.0000000E+04;  0.0000000E+00;  1.0000000E+04;  0.0000000E+00;  0.0000000E+00;  0.0000000E+00;  0.0000000E+00;
  2.0200000E+00;  9.9999998E-03; -3.1999999E-01;632;  0.0000000E+00;  0.0000000E+00;  0.0000000E+00;  1.0000000E+03;  4.0000001E-01;  0.0000000E+00;0;  0.0000000E+00;  0.0000000E+00;  0.0000000E+00;0;  0.0000000E+00;  1.0000000E+04;  0.0000000E+00;  0.0000000E+00;  1.0000000E+04;  0.0000000E+00;  1.0000000E+04;  0.0000000E+00;  0.0000000E+00;  0.0000000E+00;  0.0000000E+00;
  2.0200000E+00;  9.9999998E-03; -3.0000001E-01;633;  0.0000000E+00;  0.0000000E+00;  0.0000000E+00;  1.0000000E+03;  4.0000001E-01;  0.0000000E+00;0;  0.0000000E+00;  0.0000000E+00;  0.0000000E+00;0;  0.0000000E+00;  1.0000000E+04;  0.0000000E+00;  0.0000000E+00;  1.0000000E+04;  0.0000000E+00;  1.0000000E+04;  0.0000000E+00;  0.0000000E+00;  0.0000000E+00;  0.0000000E+00;
  2.0200000E+00;  9.9999998E-03; -2.8000000E-01;634;  0.0000000E+00;  0.0000000E+00;  0.0000000E+00;  1.0000000E+03;  4.0000001E-01;  0.0000000E+00;0;  0.0000000E+00;  0.0000000E+00;  0.0000000E+00;0;  0.0000000E+00;  1.0000000E+04;  0.0000000E+00;  0.0000000E+00;  1.0000000E+04;  0.0000000E+00;  1.0000000E+04;  0.0000000E+00;  0.0000000E+00;  0.0000000E+00;  0.0000000E+00;
  2.0200000E+00;  9.9999998E-03; -2.5999999E-01;635;  0.0000000E+00;  0.0000000E+00;  0.0000000E+00;  1.0000000E+03;  4.0000001E-01;  0.0000000E+00;0;  0.0000000E+00;  0.0000000E+00;  0.0000000E+00;0;  0.0000000E+00;  1.0000000E+04;  0.0000000E+00;  0.0000000E+00;  1.0000000E+04;  0.0000000E+00;  1.0000000E+04;  0.0000000E+00;  0.0000000E+00;  0.0000000E+00;  0.0000000E+00;
  2.0200000E+00;  9.9999998E-03; -2.3999999E-01;636;  0.0000000E+00;  0.0000000E+00;  0.0000000E+00;  1.0000000E+03;  4.0000001E-01;  0.0000000E+00;0;  0.0000000E+00;  0.0000000E+00;  0.0000000E+00;0;  0.0000000E+00;  1.0000000E+04;  0.0000000E+00;  0.0000000E+00;  1.0000000E+04;  0.0000000E+00;  1.0000000E+04;  0.0000000E+00;  0.0000000E+00;  0.0000000E+00;  0.0000000E+00;
  2.0200000E+00;  9.9999998E-03; -2.2000000E-01;637;  0.0000000E+00;  0.0000000E+00;  0.0000000E+00;  1.0000000E+03;  4.0000001E-01;  0.0000000E+00;0;  0.0000000E+00;  0.0000000E+00;  0.0000000E+00;0;  0.0000000E+00;  1.0000000E+04;  0.0000000E+00;  0.0000000E+00;  1.0000000E+04;  0.0000000E+00;  1.0000000E+04;  0.0000000E+00;  0.0000000E+00;  0.0000000E+00;  0.0000000E+00;
  2.0200000E+00;  9.9999998E-03; -2.0000000E-01;638;  0.0000000E+00;  0.0000000E+00;  0.0000000E+00;  1.0000000E+03;  4.0000001E-01;  0.0000000E+00;0;  0.0000000E+00;  0.0000000E+00;  0.0000000E+00;0;  0.0000000E+00;  1.0000000E+04;  0.0000000E+00;  0.0000000E+00;  1.0000000E+04;  0.0000000E+00;  1.0000000E+04;  0.0000000E+00;  0.0000000E+00;  0.0000000E+00;  0.0000000E+00;
  2.0200000E+00;  9.9999998E-03; -1.8000001E-01;639;  0.0000000E+00;  0.0000000E+00;  0.0000000E+00;  1.0000000E+03;  4.0000001E-01;  0.0000000E+00;0;  0.0000000E+00;  0.0000000E+00;  0.0000000E+00;0;  0.0000000E+00;  1.0000000E+04;  0.0000000E+00;  0.0000000E+00;  1.0000000E+04;  0.0000000E+00;  1.0000000E+04;  0.0000000E+00;  0.0000000E+00;  0.0000000E+00;  0.0000000E+00;
  2.0200000E+00;  9.9999998E-03; -1.6000000E-01;640;  0.0000000E+00;  0.0000000E+00;  0.0000000E+00;  1.0000000E+03;  4.0000001E-01;  0.0000000E+00;0;  0.0000000E+00;  0.0000000E+00;  0.0000000E+00;0;  0.0000000E+00;  1.0000000E+04;  0.0000000E+00;  0.0000000E+00;  1.0000000E+04;  0.0000000E+00;  1.0000000E+04;  0.0000000E+00;  0.0000000E+00;  0.0000000E+00;  0.0000000E+00;
  2.0200000E+00;  9.9999998E-03; -1.4000000E-01;641;  0.0000000E+00;  0.0000000E+00;  0.0000000E+00;  1.0000000E+03;  4.0000001E-01;  0.0000000E+00;0;  0.0000000E+00;  0.0000000E+00;  0.0000000E+00;0;  0.0000000E+00;  1.0000000E+04;  0.0000000E+00;  0.0000000E+00;  1.0000000E+04;  0.0000000E+00;  1.0000000E+04;  0.0000000E+00;  0.0000000E+00;  0.0000000E+00;  0.0000000E+00;
  2.0200000E+00;  9.9999998E-03; -1.2000000E-01;642;  0.0000000E+00;  0.0000000E+00;  0.0000000E+00;  1.0000000E+03;  4.0000001E-01;  0.0000000E+00;0;  0.0000000E+00;  0.0000000E+00;  0.0000000E+00;0;  0.0000000E+00;  1.0000000E+04;  0.0000000E+00;  0.0000000E+00;  1.0000000E+04;  0.0000000E+00;  1.0000000E+04;  0.0000000E+00;  0.0000000E+00;  0.0000000E+00;  0.0000000E+00;
  2.0200000E+00;  9.9999998E-03; -1.0000000E-01;643;  0.0000000E+00;  0.0000000E+00;  0.0000000E+00;  1.0000000E+03;  4.0000001E-01;  0.0000000E+00;0;  0.0000000E+00;  0.0000000E+00;  0.0000000E+00;0;  0.0000000E+00;  1.0000000E+04;  0.0000000E+00;  0.0000000E+00;  1.0000000E+04;  0.0000000E+00;  1.0000000E+04;  0.0000000E+00;  0.0000000E+00;  0.0000000E+00;  0.0000000E+00;
  2.0200000E+00;  9.9999998E-03; -7.9999998E-02;644;  0.0000000E+00;  0.0000000E+00;  0.0000000E+00;  1.0000000E+03;  4.0000001E-01;  0.0000000E+00;0;  0.0000000E+00;  0.0000000E+00;  0.0000000E+00;0;  0.0000000E+00;  1.0000000E+04;  0.0000000E+00;  0.0000000E+00;  1.0000000E+04;  0.0000000E+00;  1.0000000E+04;  0.0000000E+00;  0.0000000E+00;  0.0000000E+00;  0.0000000E+00;
  2.0200000E+00;  9.9999998E-03; -5.9999999E-02;645;  0.0000000E+00;  0.0000000E+00;  0.0000000E+00;  1.0000000E+03;  4.0000001E-01;  0.0000000E+00;0;  0.0000000E+00;  0.0000000E+00;  0.0000000E+00;0;  0.0000000E+00;  1.0000000E+04;  0.0000000E+00;  0.0000000E+00;  1.0000000E+04;  0.0000000E+00;  1.0000000E+04;  0.0000000E+00;  0.0000000E+00;  0.0000000E+00;  0.0000000E+00;
  2.0200000E+00;  9.9999998E-03; -3.9999999E-02;646;  0.0000000E+00;  0.0000000E+00;  0.0000000E+00;  1.0000000E+03;  4.0000001E-01;  0.0000000E+00;0;  0.0000000E+00;  0.0000000E+00;  0.0000000E+00;0;  0.0000000E+00;  1.0000000E+04;  0.0000000E+00;  0.0000000E+00;  1.0000000E+04;  0.0000000E+00;  1.0000000E+04;  0.0000000E+00;  0.0000000E+00;  0.0000000E+00;  0.0000000E+00;
  2.0200000E+00;  9.9999998E-03; -2.0000000E-02;647;  0.0000000E+00;  0.0000000E+00;  0.0000000E+00;  1.0000000E+03;  4.0000001E-01;  0.0000000E+00;0;  0.0000000E+00;  0.0000000E+00;  0.0000000E+00;0;  0.0000000E+00;  1.0000000E+04;  0.0000000E+00;  0.0000000E+00;  1.0000000E+04;  0.0000000E+00;  1.0000000E+04;  0.0000000E+00;  0.0000000E+00;  0.0000000E+00;  0.0000000E+00;
  2.0200000E+00;  9.9999998E-03;  0.0000000E+00;648;  0.0000000E+00;  0.0000000E+00;  0.0000000E+00;  1.0000000E+03;  4.0000001E-01;  0.0000000E+00;0;  0.0000000E+00;  0.0000000E+00;  0.0000000E+00;0;  0.0000000E+00;  1.0000000E+04;  0.0000000E+00;  0.0000000E+00;  1.0000000E+04;  0.0000000E+00;  1.0000000E+04;  0.0000000E+00;  0.0000000E+00;  0.0000000E+00;  0.0000000E+00;
  2.0200000E+00;  9.9999998E-03;  2.0000000E-02;649;  0.0000000E+00;  0.0000000E+00;  0.0000000E+00;  1.0000000E+03;  4.0000001E-01;  0.0000000E+00;0;  0.0000000E+00;  0.0000000E+00;  0.0000000E+00;0;  0.0000000E+00;  1.0000000E+04;  0.0000000E+00;  0.0000000E+00;  1.0000000E+04;  0.0000000E+00;  1.0000000E+04;  0.0000000E+00;  0.0000000E+00;  0.0000000E+00;  0.0000000E+00;
  2.0200000E+00;  9.9999998E-03;  3.9999999E-02;650;  0.0000000E+00;  0.0000000E+00;  0.0000000E+00;  1.0000000E+03;  4.0000001E-01;  0.0000000E+00;0;  0.0000000E+00;  0.0000000E+00;  0.0000000E+00;0;  0.0000000E+00;  1.0000000E+04;  0.0000000E+00;  0.0000000E+00;  1.0000000E+04;  0.0000000E+00;  1.0000000E+04;  0.0000000E+00;  0.0000000E+00;  0.0000000E+00;  0.0000000E+00;
  2.0200000E+00;  9.9999998E-03;  5.9999999E-02;651;  0.0000000E+00;  0.0000000E+00;  0.0000000E+00;  1.0000000E+03;  4.0000001E-01;  0.0000000E+00;0;  0.0000000E+00;  0.0000000E+00;  0.0000000E+00;0;  0.0000000E+00;  1.0000000E+04;  0.0000000E+00;  0.0000000E+00;  1.0000000E+04;  0.0000000E+00;  1.0000000E+04;  0.0000000E+00;  0.0000000E+00;  0.0000000E+00;  0.0000000E+00;
  2.0200000E+00;  9.9999998E-03;  7.9999998E-02;652;  0.0000000E+00;  0.0000000E+00;  0.0000000E+00;  1.0000000E+03;  4.0000001E-01;  0.0000000E+00;0;  0.0000000E+00;  0.0000000E+00;  0.0000000E+00;0;  0.0000000E+00;  1.0000000E+04;  0.0000000E+00;  0.0000000E+00;  1.0000000E+04;  0.0000000E+00;  1.0000000E+04;  0.0000000E+00;  0.0000000E+00;  0.0000000E+00;  0.0000000E+00;
  2.0200000E+00;  9.9999998E-03;  1.0000000E-01;653;  0.0000000E+00;  0.0000000E+00;  0.0000000E+00;  1.0000000E+03;  4.0000001E-01;  0.0000000E+00;0;  0.0000000E+00;  0.0000000E+00;  0.0000000E+00;0;  0.0000000E+00;  1.0000000E+04;  0.0000000E+00;  0.0000000E+00;  1.0000000E+04;  0.0000000E+00;  1.0000000E+04;  0.0000000E+00;  0.0000000E+00;  0.0000000E+00;  0.0000000E+00;
  2.0200000E+00;  9.9999998E-03;  1.2000000E-01;654;  0.0000000E+00;  0.0000000E+00;  0.0000000E+00;  1.0000000E+03;  4.0000001E-01;  0.0000000E+00;0;  0.0000000E+00;  0.0000000E+00;  0.0000000E+00;0;  0.0000000E+00;  1.0000000E+04;  0.0000000E+00;  0.0000000E+00;  1.0000000E+04;  0.0000000E+00;  1.0000000E+04;  0.0000000E+00;  0.0000000E+00;  0.0000000E+00;  0.0000000E+00;
  2.0200000E+00;  9.9999998E-03;  1.4000000E-01;655;  0.0000000E+00;  0.0000000E+00;  0.0000000E+00;  1.0000000E+03;  4.0000001E-01;  0.0000000E+00;0;  0.0000000E+00;  0.0000000E+00;  0.0000000E+00;0;  0.0000000E+00;  1.0000000E+04;  0.0000000E+00;  0.0000000E+00;  1.0000000E+04;  0.0000000E+00;  1.0000000E+04;  0.0000000E+00;  0.0000000E+00;  0.0000000E+00;  0.0000000E+00;
  2.0200000E+00;  9.9999998E-03;  1.6000000E-01;656;  0.0000000E+00;  0.0000000E+00;  0.0000000E+00;  1.0000000E+03;  4.0000001E-01;  0.0000000E+00;0;  0.0000000E+00;  0.0000000E+00;  0.0000000E+00;0;  0.0000000E+00;  1.0000000E+04;  0.0000000E+00;  0.0000000E+00;  1.0000000E+04;  0.0000000E+00;  1.0000000E+04;  0.0000000E+00;  0.0000000E+00;  0.0000000E+00;  0.0000000E+00;
  2.0200000E+00;  9.9999998E-03;  1.8000001E-01;657;  0.0000000E+00;  0.0000000E+00;  0.0000000E+00;  1.0000000E+03;  4.0000001E-01;  0.0000000E+00;0;  0.0000000E+00;  0.0000000E+00;  0.0000000E+00;0;  0.0000000E+00;  1.0000000E+04;  0.0000000E+00;  0.0000000E+00;  1.0000000E+04;  0.0000000E+00;  1.0000000E+04;  0.0000000E+00;  0.0000000E+00;  0.0000000E+00;  0.0000000E+00;
  2.0400000E+00;  9.9999998E-03; -4.0000001E-01;658;  0.0000000E+00;  0.0000000E+00;  0.0000000E+00;  1.0000000E+03;  4.0000001E-01;  0.0000000E+00;0;  0.0000000E+00;  0.0000000E+00;  0.0000000E+00;0;  0.0000000E+00;  1.0000000E+04;  0.0000000E+00;  0.0000000E+00;  1.0000000E+04;  0.0000000E+00;  1.0000000E+04;  0.0000000E+00;  0.0000000E+00;  0.0000000E+00;  0.0000000E+00;
  2.0400000E+00;  9.9999998E-03; -3.8000000E-01;659;  0.0000000E+00;  0.0000000E+00;  0.0000000E+00;  1.0000000E+03;  4.0000001E-01;  0.0000000E+00;0;  0.0000000E+00;  0.0000000E+00;  0.0000000E+00;0;  0.0000000E+00;  1.0000000E+04;  0.0000000E+00;  0.0000000E+00;  1.0000000E+04;  0.0000000E+00;  1.0000000E+04;  0.0000000E+00;  0.0000000E+00;  0.0000000E+00;  0.0000000E+00;
  2.0400000E+00;  9.9999998E-03; -3.6000001E-01;660;  0.0000000E+00;  0.0000000E+00;  0.0000000E+00;  1.0000000E+03;  4.0000001E-01;  0.0000000E+00;0;  0.0000000E+00;  0.0000000E+00;  0.0000000E+00;0;  0.0000000E+00;  1.0000000E+04;  0.0000000E+00;  0.0000000E+00;  1.0000000E+04;  0.0000000E+00;  1.0000000E+04;  0.0000000E+00;  0.0000000E+00;  0.0000000E+00;  0.0000000E+00;
  2.0400000E+00;  9.9999998E-03; -3.4000000E-01;661;  0.0000000E+00;  0.0000000E+00;  0.0000000E+00;  1.0000000E+03;  4.0000001E-01;  0.0000000E+00;0;  0.0000000E+00;  0.0000000E+00;  0.0000000E+00;0;  0.0000000E+00;  1.0000000E+04;  0.0000000E+00;  0.0000000E+00;  1.0000000E+04;  0.0000000E+00;  1.0000000E+04;  0.0000000E+00;  0.0000000E+00;  0.0000000E+00;  0.0000000E+00;
  2.0400000E+00;  9.9999998E-03; -3.1999999E-01;662;  0.0000000E+00;  0.0000000E+00;  0.0000000E+00;  1.0000000E+03;  4.0000001E-01;  0.0000000E+00;0;  0.0000000E+00;  0.0000000E+00;  0.0000000E+00;0;  0.0000000E+00;  1.0000000E+04;  0.0000000E+00;  0.0000000E+00;  1.0000000E+04;  0.0000000E+00;  1.0000000E+04;  0.0000000E+00;  0.0000000E+00;  0.0000000E+00;  0.0000000E+00;
  2.0400000E+00;  9.9999998E-03; -3.0000001E-01;663;  0.0000000E+00;  0.0000000E+00;  0.0000000E+00;  1.0000000E+03;  4.0000001E-01;  0.0000000E+00;0;  0.0000000E+00;  0.0000000E+00;  0.0000000E+00;0;  0.0000000E+00;  1.0000000E+04;  0.0000000E+00;  0.0000000E+00;  1.0000000E+04;  0.0000000E+00;  1.0000000E+04;  0.0000000E+00;  0.0000000E+00;  0.0000000E+00;  0.0000000E+00;
  2.0400000E+00;  9.9999998E-03; -2.8000000E-01;664;  0.0000000E+00;  0.0000000E+00;  0.0000000E+00;  1.0000000E+03;  4.0000001E-01;  0.0000000E+00;0;  0.0000000E+00;  0.0000000E+00;  0.0000000E+00;0;  0.0000000E+00;  1.0000000E+04;  0.0000000E+00;  0.0000000E+00;  1.0000000E+04;  0.0000000E+00;  1.0000000E+04;  0.0000000E+00;  0.0000000E+00;  0.0000000E+00;  0.0000000E+00;
  2.0400000E+00;  9.9999998E-03; -2.5999999E-01;665;  0.0000000E+00;  0.0000000E+00;  0.0000000E+00;  1.0000000E+03;  4.0000001E-01;  0.0000000E+00;0;  0.0000000E+00;  0.0000000E+00;  0.0000000E+00;0;  0.0000000E+00;  1.0000000E+04;  0.0000000E+00;  0.0000000E+00;  1.0000000E+04;  0.0000000E+00;  1.0000000E+04;  0.0000000E+00;  0.0000000E+00;  0.0000000E+00;  0.0000000E+00;
  2.0400000E+00;  9.9999998E-03; -2.3999999E-01;666;  0.0000000E+00;  0.0000000E+00;  0.0000000E+00;  1.0000000E+03;  4.0000001E-01;  0.0000000E+00;0;  0.0000000E+00;  0.0000000E+00;  0.0000000E+00;0;  0.0000000E+00;  1.0000000E+04;  0.0000000E+00;  0.0000000E+00;  1.0000000E+04;  0.0000000E+00;  1.0000000E+04;  0.0000000E+00;  0.0000000E+00;  0.0000000E+00;  0.0000000E+00;
  2.0400000E+00;  9.9999998E-03; -2.2000000E-01;667;  0.0000000E+00;  0.0000000E+00;  0.0000000E+00;  1.0000000E+03;  4.0000001E-01;  0.0000000E+00;0;  0.0000000E+00;  0.0000000E+00;  0.0000000E+00;0;  0.0000000E+00;  1.0000000E+04;  0.0000000E+00;  0.0000000E+00;  1.0000000E+04;  0.0000000E+00;  1.0000000E+04;  0.0000000E+00;  0.0000000E+00;  0.0000000E+00;  0.0000000E+00;
  2.0400000E+00;  9.9999998E-03; -2.0000000E-01;668;  0.0000000E+00;  0.0000000E+00;  0.0000000E+00;  1.0000000E+03;  4.0000001E-01;  0.0000000E+00;0;  0.0000000E+00;  0.0000000E+00;  0.0000000E+00;0;  0.0000000E+00;  1.0000000E+04;  0.0000000E+00;  0.0000000E+00;  1.0000000E+04;  0.0000000E+00;  1.0000000E+04;  0.0000000E+00;  0.0000000E+00;  0.0000000E+00;  0.0000000E+00;
  2.0400000E+00;  9.9999998E-03; -1.8000001E-01;669;  0.0000000E+00;  0.0000000E+00;  0.0000000E+00;  1.0000000E+03;  4.0000001E-01;  0.0000000E+00;0;  0.0000000E+00;  0.0000000E+00;  0.0000000E+00;0;  0.0000000E+00;  1.0000000E+04;  0.0000000E+00;  0.0000000E+00;  1.0000000E+04;  0.0000000E+00;  1.0000000E+04;  0.0000000E+00;  0.0000000E+00;  0.0000000E+00;  0.0000000E+00;
  2.0400000E+00;  9.9999998E-03; -1.6000000E-01;670;  0.0000000E+00;  0.0000000E+00;  0.0000000E+00;  1.0000000E+03;  4.0000001E-01;  0.0000000E+00;0;  0.0000000E+00;  0.0000000E+00;  0.0000000E+00;0;  0.0000000E+00;  1.0000000E+04;  0.0000000E+00;  0.0000000E+00;  1.0000000E+04;  0.0000000E+00;  1.0000000E+04;  0.0000000E+00;  0.0000000E+00;  0.0000000E+00;  0.0000000E+00;
  2.0400000E+00;  9.9999998E-03; -1.4000000E-01;671;  0.0000000E+00;  0.0000000E+00;  0.0000000E+00;  1.0000000E+03;  4.0000001E-01;  0.0000000E+00;0;  0.0000000E+00;  0.0000000E+00;  0.0000000E+00;0;  0.0000000E+00;  1.0000000E+04;  0.0000000E+00;  0.0000000E+00;  1.0000000E+04;  0.0000000E+00;  1.0000000E+04;  0.0000000E+00;  0.0000000E+00;  0.0000000E+00;  0.0000000E+00;
  2.0400000E+00;  9.9999998E-03; -1.2000000E-01;672;  0.0000000E+00;  0.0000000E+00;  0.0000000E+00;  1.0000000E+03;  4.0000001E-01;  0.0000000E+00;0;  0.0000000E+00;  0.0000000E+00;  0.0000000E+00;0;  0.0000000E+00;  1.0000000E+04;  0.0000000E+00;  0.0000000E+00;  1.0000000E+04;  0.0000000E+00;  1.0000000E+04;  0.0000000E+00;  0.0000000E+00;  0.0000000E+00;  0.0000000E+00;
  2.0400000E+00;  9.9999998E-03; -1.0000000E-01;673;  0.0000000E+00;  0.0000000E+00;  0.0000000E+00;  1.0000000E+03;  4.0000001E-01;  0.0000000E+00;0;  0.0000000E+00;  0.0000000E+00;  0.0000000E+00;0;  0.0000000E+00;  1.0000000E+04;  0.0000000E+00;  0.0000000E+00;  1.0000000E+04;  0.0000000E+00;  1.0000000E+04;  0.0000000E+00;  0.0000000E+00;  0.0000000E+00;  0.0000000E+00;
  2.0400000E+00;  9.9999998E-03; -7.9999998E-02;674;  0.0000000E+00;  0.0000000E+00;  0.0000000E+00;  1.0000000E+03;  4.0000001E-01;  0.0000000E+00;0;  0.0000000E+00;  0.0000000E+00;  0.0000000E+00;0;  0.0000000E+00;  1.0000000E+04;  0.0000000E+00;  0.0000000E+00;  1.0000000E+04;  0.0000000E+00;  1.0000000E+04;  0.0000000E+00;  0.0000000E+00;  0.0000000E+00;  0.0000000E+00;
  2.0400000E+00;  9.9999998E-03; -5.9999999E-02;675;  0.0000000E+00;  0.0000000E+00;  0.0000000E+00;  1.0000000E+03;  4.0000001E-01;  0.0000000E+00;0;  0.0000000E+00;  0.0000000E+00;  0.0000000E+00;0;  0.0000000E+00;  1.0000000E+04;  0.0000000E+00;  0.0000000E+00;  1.0000000E+04;  0.0000000E+00;  1.0000000E+04;  0.0000000E+00;  0.0000000E+00;  0.0000000E+00;  0.0000000E+00;
  2.0400000E+00;  9.9999998E-03; -3.9999999E-02;676;  0.0000000E+00;  0.0000000E+00;  0.0000000E+00;  1.0000000E+03;  4.0000001E-01;  0.0000000E+00;0;  0.0000000E+00;  0.0000000E+00;  0.0000000E+00;0;  0.0000000E+00;  1.0000000E+04;  0.0000000E+00;  0.0000000E+00;  1.0000000E+04;  0.0000000E+00;  1.0000000E+04;  0.0000000E+00;  0.0000000E+00;  0.0000000E+00;  0.0000000E+00;
  2.0400000E+00;  9.9999998E-03; -2.0000000E-02;677;  0.0000000E+00;  0.0000000E+00;  0.0000000E+00;  1.0000000E+03;  4.0000001E-01;  0.0000000E+00;0;  0.0000000E+00;  0.0000000E+00;  0.0000000E+00;0;  0.0000000E+00;  1.0000000E+04;  0.0000000E+00;  0.0000000E+00;  1.0000000E+04;  0.0000000E+00;  1.0000000E+04;  0.0000000E+00;  0.0000000E+00;  0.0000000E+00;  0.0000000E+00;
  2.0400000E+00;  9.9999998E-03;  0.0000000E+00;678;  0.0000000E+00;  0.0000000E+00;  0.0000000E+00;  1.0000000E+03;  4.0000001E-01;  0.0000000E+00;0;  0.0000000E+00;  0.0000000E+00;  0.0000000E+00;0;  0.0000000E+00;  1.0000000E+04;  0.0000000E+00;  0.0000000E+00;  1.0000000E+04;  0.0000000E+00;  1.0000000E+04;  0.0000000E+00;  0.0000000E+00;  0.0000000E+00;  0.0000000E+00;
  2.0400000E+00;  9.9999998E-03;  2.0000000E-02;679;  0.0000000E+00;  0.0000000E+00;  0.0000000E+00;  1.0000000E+03;  4.0000001E-01;  0.0000000E+00;0;  0.0000000E+00;  0.0000000E+00;  0.0000000E+00;0;  0.0000000E+00;  1.0000000E+04;  0.0000000E+00;  0.0000000E+00;  1.0000000E+04;  0.0000000E+00;  1.0000000E+04;  0.0000000E+00;  0.0000000E+00;  0.0000000E+00;  0.0000000E+00;
  2.0400000E+00;  9.9999998E-03;  3.9999999E-02;680;  0.0000000E+00;  0.0000000E+00;  0.0000000E+00;  1.0000000E+03;  4.0000001E-01;  0.0000000E+00;0;  0.0000000E+00;  0.0000000E+00;  0.0000000E+00;0;  0.0000000E+00;  1.0000000E+04;  0.0000000E+00;  0.0000000E+00;  1.0000000E+04;  0.0000000E+00;  1.0000000E+04;  0.0000000E+00;  0.0000000E+00;  0.0000000E+00;  0.0000000E+00;
  2.0400000E+00;  9.9999998E-03;  5.9999999E-02;681;  0.0000000E+00;  0.0000000E+00;  0.0000000E+00;  1.0000000E+03;  4.0000001E-01;  0.0000000E+00;0;  0.0000000E+00;  0.0000000E+00;  0.0000000E+00;0;  0.0000000E+00;  1.0000000E+04;  0.0000000E+00;  0.0000000E+00;  1.0000000E+04;  0.0000000E+00;  1.0000000E+04;  0.0000000E+00;  0.0000000E+00;  0.0000000E+00;  0.0000000E+00;
  2.0400000E+00;  9.9999998E-03;  7.9999998E-02;682;  0.0000000E+00;  0.0000000E+00;  0.0000000E+00;  1.0000000E+03;  4.0000001E-01;  0.0000000E+00;0;  0.0000000E+00;  0.0000000E+00;  0.0000000E+00;0;  0.0000000E+00;  1.0000000E+04;  0.0000000E+00;  0.0000000E+00;  1.0000000E+04;  0.0000000E+00;  1.0000000E+04;  0.0000000E+00;  0.0000000E+00;  0.0000000E+00;  0.0000000E+00;
  2.0400000E+00;  9.9999998E-03;  1.0000000E-01;683;  0.0000000E+00;  0.0000000E+00;  0.0000000E+00;  1.0000000E+03;  4.0000001E-01;  0.0000000E+00;0;  0.0000000E+00;  0.0000000E+00;  0.0000000E+00;0;  0.0000000E+00;  1.0000000E+04;  0.0000000E+00;  0.0000000E+00;  1.0000000E+04;  0.0000000E+00;  1.0000000E+04;  0.0000000E+00;  0.0000000E+00;  0.0000000E+00;  0.0000000E+00;
  2.0400000E+00;  9.9999998E-03;  1.2000000E-01;684;  0.0000000E+00;  0.0000000E+00;  0.0000000E+00;  1.0000000E+03;  4.0000001E-01;  0.0000000E+00;0;  0.0000000E+00;  0.0000000E+00;  0.0000000E+00;0;  0.0000000E+00;  1.0000000E+04;  0.0000000E+00;  0.0000000E+00;  1.0000000E+04;  0.0000000E+00;  1.0000000E+04;  0.0000000E+00;  0.0000000E+00;  0.0000000E+00;  0.0000000E+00;
  2.0400000E+00;  9.9999998E-03;  1.4000000E-01;685;  0.0000000E+00;  0.0000000E+00;  0.0000000E+00;  1.0000000E+03;  4.0000001E-01;  0.0000000E+00;0;  0.0000000E+00;  0.0000000E+00;  0.0000000E+00;0;  0.0000000E+00;  1.0000000E+04;  0.0000000E+00;  0.0000000E+00;  1.0000000E+04;  0.0000000E+00;  1.0000000E+04;  0.0000000E+00;  0.0000000E+00;  0.0000000E+00;  0.0000000E+00;
  2.0400000E+00;  9.9999998E-03;  1.6000000E-01;686;  0.0000000E+00;  0.0000000E+00;  0.0000000E+00;  1.0000000E+03;  4.0000001E-01;  0.0000000E+00;0;  0.0000000E+00;  0.0000000E+00;  0.0000000E+00;0;  0.0000000E+00;  1.0000000E+04;  0.0000000E+00;  0.0000000E+00;  1.0000000E+04;  0.0000000E+00;  1.0000000E+04;  0.0000000E+00;  0.0000000E+00;  0.0000000E+00;  0.0000000E+00;
  2.0400000E+00;  9.9999998E-03;  1.8000001E-01;687;  0.0000000E+00;  0.0000000E+00;  0.0000000E+00;  1.0000000E+03;  4.0000001E-01;  0.0000000E+00;0;  0.0000000E+00;  0.0000000E+00;  0.0000000E+00;0;  0.0000000E+00;  1.0000000E+04;  0.0000000E+00;  0.0000000E+00;  1.0000000E+04;  0.0000000E+00;  1.0000000E+04;  0.0000000E+00;  0.0000000E+00;  0.0000000E+00;  0.0000000E+00;
  2.0400000E+00;  9.9999998E-03;  2.0000000E-01;688;  0.0000000E+00;  0.0000000E+00;  0.0000000E+00;  1.0000000E+03;  4.0000001E-01;  0.0000000E+00;0;  0.0000000E+00;  0.0000000E+00;  0.0000000E+00;0;  0.0000000E+00;  1.0000000E+04;  0.0000000E+00;  0.0000000E+00;  1.0000000E+04;  0.0000000E+00;  1.0000000E+04;  0.0000000E+00;  0.0000000E+00;  0.0000000E+00;  0.0000000E+00;
  2.0400000E+00;  9.9999998E-03;  2.2000000E-01;689;  0.0000000E+00;  0.0000000E+00;  0.0000000E+00;  1.0000000E+03;  4.0000001E-01;  0.0000000E+00;0;  0.0000000E+00;  0.0000000E+00;  0.0000000E+00;0;  0.0000000E+00;  1.0000000E+04;  0.0000000E+00;  0.0000000E+00;  1.0000000E+04;  0.0000000E+00;  1.0000000E+04;  0.0000000E+00;  0.0000000E+00;  0.0000000E+00;  0.0000000E+00;
  2.0400000E+00;  9.9999998E-03;  2.3999999E-01;690;  0.0000000E+00;  0.0000000E+00;  0.0000000E+00;  1.0000000E+03;  4.0000001E-01;  0.0000000E+00;0;  0.0000000E+00;  0.0000000E+00;  0.0000000E+00;0;  0.0000000E+00;  1.0000000E+04;  0.0000000E+00;  0.0000000E+00;  1.0000000E+04;  0.0000000E+00;  1.0000000E+04;  0.0000000E+00;  0.0000000E+00;  0.0000000E+00;  0.0000000E+00;
  2.0400000E+00;  9.9999998E-03;  2.5999999E-01;691;  0.0000000E+00;  0.0000000E+00;  0.0000000E+00;  1.0000000E+03;  4.0000001E-01;  0.0000000E+00;0;  0.0000000E+00;  0.0000000E+00;  0.0000000E+00;0;  0.0000000E+00;  1.0000000E+04;  0.0000000E+00;  0.0000000E+00;  1.0000000E+04;  0.0000000E+00;  1.0000000E+04;  0.0000000E+00;  0.0000000E+00;  0.0000000E+00;  0.0000000E+00;
  2.0400000E+00;  9.9999998E-03;  2.8000000E-01;692;  0.0000000E+00;  0.0000000E+00;  0.0000000E+00;  1.0000000E+03;  4.0000001E-01;  0.0000000E+00;0;  0.0000000E+00;  0.0000000E+00;  0.0000000E+00;0;  0.0000000E+00;  1.0000000E+04;  0.0000000E+00;  0.0000000E+00;  1.0000000E+04;  0.0000000E+00;  1.0000000E+04;  0.0000000E+00;  0.0000000E+00;  0.0000000E+00;  0.0000000E+00;
  2.0599999E+00;  9.9999998E-03; -4.0000001E-01;693;  0.0000000E+00;  0.0000000E+00;  0.0000000E+00;  1.0000000E+03;  4.0000001E-01;  0.0000000E+00;0;  0.0000000E+00;  0.0000000E+00;  0.0000000E+00;0;  0.0000000E+00;  1.0000000E+04;  0.0000000E+00;  0.0000000E+00;  1.0000000E+04;  0.0000000E+00;  1.0000000E+04;  0.0000000E+00;  0.0000000E+00;  0.0000000E+00;  0.0000000E+00;
  2.0599999E+00;  9.9999998E-03; -3.8000000E-01;694;  0.0000000E+00;  0.0000000E+00;  0.0000000E+00;  1.0000000E+03;  4.0000001E-01;  0.0000000E+00;0;  0.0000000E+00;  0.0000000E+00;  0.0000000E+00;0;  0.0000000E+00;  1.0000000E+04;  0.0000000E+00;  0.0000000E+00;  1.0000000E+04;  0.0000000E+00;  1.0000000E+04;  0.0000000E+00;  0.0000000E+00;  0.0000000E+00;  0.0000000E+00;
  2.0599999E+00;  9.9999998E-03; -3.6000001E-01;695;  0.0000000E+00;  0.0000000E+00;  0.0000000E+00;  1.0000000E+03;  4.0000001E-01;  0.0000000E+00;0;  0.0000000E+00;  0.0000000E+00;  0.0000000E+00;0;  0.0000000E+00;  1.0000000E+04;  0.0000000E+00;  0.0000000E+00;  1.0000000E+04;  0.0000000E+00;  1.0000000E+04;  0.0000000E+00;  0.0000000E+00;  0.0000000E+00;  0.0000000E+00;
  2.0599999E+00;  9.9999998E-03; -3.4000000E-01;696;  0.0000000E+00;  0.0000000E+00;  0.0000000E+00;  1.0000000E+03;  4.0000001E-01;  0.0000000E+00;0;  0.0000000E+00;  0.0000000E+00;  0.0000000E+00;0;  0.0000000E+00;  1.0000000E+04;  0.0000000E+00;  0.0000000E+00;  1.0000000E+04;  0.0000000E+00;  1.0000000E+04;  0.0000000E+00;  0.0000000E+00;  0.0000000E+00;  0.0000000E+00;
  2.0599999E+00;  9.9999998E-03; -3.1999999E-01;697;  0.0000000E+00;  0.0000000E+00;  0.0000000E+00;  1.0000000E+03;  4.0000001E-01;  0.0000000E+00;0;  0.0000000E+00;  0.0000000E+00;  0.0000000E+00;0;  0.0000000E+00;  1.0000000E+04;  0.0000000E+00;  0.0000000E+00;  1.0000000E+04;  0.0000000E+00;  1.0000000E+04;  0.0000000E+00;  0.0000000E+00;  0.0000000E+00;  0.0000000E+00;
  2.0599999E+00;  9.9999998E-03; -3.0000001E-01;698;  0.0000000E+00;  0.0000000E+00;  0.0000000E+00;  1.0000000E+03;  4.0000001E-01;  0.0000000E+00;0;  0.0000000E+00;  0.0000000E+00;  0.0000000E+00;0;  0.0000000E+00;  1.0000000E+04;  0.0000000E+00;  0.0000000E+00;  1.0000000E+04;  0.0000000E+00;  1.0000000E+04;  0.0000000E+00;  0.0000000E+00;  0.0000000E+00;  0.0000000E+00;
  2.0599999E+00;  9.9999998E-03; -2.8000000E-01;699;  0.0000000E+00;  0.0000000E+00;  0.0000000E+00;  1.0000000E+03;  4.0000001E-01;  0.0000000E+00;0;  0.0000000E+00;  0.0000000E+00;  0.0000000E+00;0;  0.0000000E+00;  1.0000000E+04;  0.0000000E+00;  0.0000000E+00;  1.0000000E+04;  0.0000000E+00;  1.0000000E+04;  0.0000000E+00;  0.0000000E+00;  0.0000000E+00;  0.0000000E+00;
  2.0599999E+00;  9.9999998E-03; -2.5999999E-01;700;  0.0000000E+00;  0.0000000E+00;  0.0000000E+00;  1.0000000E+03;  4.0000001E-01;  0.0000000E+00;0;  0.0000000E+00;  0.0000000E+00;  0.0000000E+00;0;  0.0000000E+00;  1.0000000E+04;  0.0000000E+00;  0.0000000E+00;  1.0000000E+04;  0.0000000E+00;  1.0000000E+04;  0.0000000E+00;  0.0000000E+00;  0.0000000E+00;  0.0000000E+00;
  2.0599999E+00;  9.9999998E-03; -2.3999999E-01;701;  0.0000000E+00;  0.0000000E+00;  0.0000000E+00;  1.0000000E+03;  4.0000001E-01;  0.0000000E+00;0;  0.0000000E+00;  0.0000000E+00;  0.0000000E+00;0;  0.0000000E+00;  1.0000000E+04;  0.0000000E+00;  0.0000000E+00;  1.0000000E+04;  0.0000000E+00;  1.0000000E+04;  0.0000000E+00;  0.0000000E+00;  0.0000000E+00;  0.0000000E+00;
  2.0599999E+00;  9.9999998E-03; -2.2000000E-01;702;  0.0000000E+00;  0.0000000E+00;  0.0000000E+00;  1.0000000E+03;  4.0000001E-01;  0.0000000E+00;0;  0.0000000E+00;  0.0000000E+00;  0.0000000E+00;0;  0.0000000E+00;  1.0000000E+04;  0.0000000E+00;  0.0000000E+00;  1.0000000E+04;  0.0000000E+00;  1.0000000E+04;  0.0000000E+00;  0.0000000E+00;  0.0000000E+00;  0.0000000E+00;
  2.0599999E+00;  9.9999998E-03; -2.0000000E-01;703;  0.0000000E+00;  0.0000000E+00;  0.0000000E+00;  1.0000000E+03;  4.0000001E-01;  0.0000000E+00;0;  0.0000000E+00;  0.0000000E+00;  0.0000000E+00;0;  0.0000000E+00;  1.0000000E+04;  0.0000000E+00;  0.0000000E+00;  1.0000000E+04;  0.0000000E+00;  1.0000000E+04;  0.0000000E+00;  0.0000000E+00;  0.0000000E+00;  0.0000000E+00;
  2.0599999E+00;  9.9999998E-03; -1.8000001E-01;704;  0.0000000E+00;  0.0000000E+00;  0.0000000E+00;  1.0000000E+03;  4.0000001E-01;  0.0000000E+00;0;  0.0000000E+00;  0.0000000E+00;  0.0000000E+00;0;  0.0000000E+00;  1.0000000E+04;  0.0000000E+00;  0.0000000E+00;  1.0000000E+04;  0.0000000E+00;  1.0000000E+04;  0.0000000E+00;  0.0000000E+00;  0.0000000E+00;  0.0000000E+00;
  2.0599999E+00;  9.9999998E-03; -1.6000000E-01;705;  0.0000000E+00;  0.0000000E+00;  0.0000000E+00;  1.0000000E+03;  4.0000001E-01;  0.0000000E+00;0;  0.0000000E+00;  0.0000000E+00;  0.0000000E+00;0;  0.0000000E+00;  1.0000000E+04;  0.0000000E+00;  0.0000000E+00;  1.0000000E+04;  0.0000000E+00;  1.0000000E+04;  0.0000000E+00;  0.0000000E+00;  0.0000000E+00;  0.0000000E+00;
  2.0599999E+00;  9.9999998E-03; -1.4000000E-01;706;  0.0000000E+00;  0.0000000E+00;  0.0000000E+00;  1.0000000E+03;  4.0000001E-01;  0.0000000E+00;0;  0.0000000E+00;  0.0000000E+00;  0.0000000E+00;0;  0.0000000E+00;  1.0000000E+04;  0.0000000E+00;  0.0000000E+00;  1.0000000E+04;  0.0000000E+00;  1.0000000E+04;  0.0000000E+00;  0.0000000E+00;  0.0000000E+00;  0.0000000E+00;
  2.0599999E+00;  9.9999998E-03; -1.2000000E-01;707;  0.0000000E+00;  0.0000000E+00;  0.0000000E+00;  1.0000000E+03;  4.0000001E-01;  0.0000000E+00;0;  0.0000000E+00;  0.0000000E+00;  0.0000000E+00;0;  0.0000000E+00;  1.0000000E+04;  0.0000000E+00;  0.0000000E+00;  1.0000000E+04;  0.0000000E+00;  1.0000000E+04;  0.0000000E+00;  0.0000000E+00;  0.0000000E+00;  0.0000000E+00;
  2.0599999E+00;  9.9999998E-03; -1.0000000E-01;708;  0.0000000E+00;  0.0000000E+00;  0.0000000E+00;  1.0000000E+03;  4.0000001E-01;  0.0000000E+00;0;  0.0000000E+00;  0.0000000E+00;  0.0000000E+00;0;  0.0000000E+00;  1.0000000E+04;  0.0000000E+00;  0.0000000E+00;  1.0000000E+04;  0.0000000E+00;  1.0000000E+04;  0.0000000E+00;  0.0000000E+00;  0.0000000E+00;  0.0000000E+00;
  2.0599999E+00;  9.9999998E-03; -7.9999998E-02;709;  0.0000000E+00;  0.0000000E+00;  0.0000000E+00;  1.0000000E+03;  4.0000001E-01;  0.0000000E+00;0;  0.0000000E+00;  0.0000000E+00;  0.0000000E+00;0;  0.0000000E+00;  1.0000000E+04;  0.0000000E+00;  0.0000000E+00;  1.0000000E+04;  0.0000000E+00;  1.0000000E+04;  0.0000000E+00;  0.0000000E+00;  0.0000000E+00;  0.0000000E+00;
  2.0599999E+00;  9.9999998E-03; -5.9999999E-02;710;  0.0000000E+00;  0.0000000E+00;  0.0000000E+00;  1.0000000E+03;  4.0000001E-01;  0.0000000E+00;0;  0.0000000E+00;  0.0000000E+00;  0.0000000E+00;0;  0.0000000E+00;  1.0000000E+04;  0.0000000E+00;  0.0000000E+00;  1.0000000E+04;  0.0000000E+00;  1.0000000E+04;  0.0000000E+00;  0.0000000E+00;  0.0000000E+00;  0.0000000E+00;
  2.0599999E+00;  9.9999998E-03; -3.9999999E-02;711;  0.0000000E+00;  0.0000000E+00;  0.0000000E+00;  1.0000000E+03;  4.0000001E-01;  0.0000000E+00;0;  0.0000000E+00;  0.0000000E+00;  0.0000000E+00;0;  0.0000000E+00;  1.0000000E+04;  0.0000000E+00;  0.0000000E+00;  1.0000000E+04;  0.0000000E+00;  1.0000000E+04;  0.0000000E+00;  0.0000000E+00;  0.0000000E+00;  0.0000000E+00;
  2.0599999E+00;  9.9999998E-03; -2.0000000E-02;712;  0.0000000E+00;  0.0000000E+00;  0.0000000E+00;  1.0000000E+03;  4.0000001E-01;  0.0000000E+00;0;  0.0000000E+00;  0.0000000E+00;  0.0000000E+00;0;  0.0000000E+00;  1.0000000E+04;  0.0000000E+00;  0.0000000E+00;  1.0000000E+04;  0.0000000E+00;  1.0000000E+04;  0.0000000E+00;  0.0000000E+00;  0.0000000E+00;  0.0000000E+00;
  2.0599999E+00;  9.9999998E-03;  0.0000000E+00;713;  0.0000000E+00;  0.0000000E+00;  0.0000000E+00;  1.0000000E+03;  4.0000001E-01;  0.0000000E+00;0;  0.0000000E+00;  0.0000000E+00;  0.0000000E+00;0;  0.0000000E+00;  1.0000000E+04;  0.0000000E+00;  0.0000000E+00;  1.0000000E+04;  0.0000000E+00;  1.0000000E+04;  0.0000000E+00;  0.0000000E+00;  0.0000000E+00;  0.0000000E+00;
  2.0599999E+00;  9.9999998E-03;  2.0000000E-02;714;  0.0000000E+00;  0.0000000E+00;  0.0000000E+00;  1.0000000E+03;  4.0000001E-01;  0.0000000E+00;0;  0.0000000E+00;  0.0000000E+00;  0.0000000E+00;0;  0.0000000E+00;  1.0000000E+04;  0.0000000E+00;  0.0000000E+00;  1.0000000E+04;  0.0000000E+00;  1.0000000E+04;  0.0000000E+00;  0.0000000E+00;  0.0000000E+00;  0.0000000E+00;
  2.0599999E+00;  9.9999998E-03;  3.9999999E-02;715;  0.0000000E+00;  0.0000000E+00;  0.0000000E+00;  1.0000000E+03;  4.0000001E-01;  0.0000000E+00;0;  0.0000000E+00;  0.0000000E+00;  0.0000000E+00;0;  0.0000000E+00;  1.0000000E+04;  0.0000000E+00;  0.0000000E+00;  1.0000000E+04;  0.0000000E+00;  1.0000000E+04;  0.0000000E+00;  0.0000000E+00;  0.0000000E+00;  0.0000000E+00;
  2.0599999E+00;  9.9999998E-03;  5.9999999E-02;716;  0.0000000E+00;  0.0000000E+00;  0.0000000E+00;  1.0000000E+03;  4.0000001E-01;  0.0000000E+00;0;  0.0000000E+00;  0.0000000E+00;  0.0000000E+00;0;  0.0000000E+00;  1.0000000E+04;  0.0000000E+00;  0.0000000E+00;  1.0000000E+04;  0.0000000E+00;  1.0000000E+04;  0.0000000E+00;  0.0000000E+00;  0.0000000E+00;  0.0000000E+00;
  2.0599999E+00;  9.9999998E-03;  7.9999998E-02;717;  0.0000000E+00;  0.0000000E+00;  0.0000000E+00;  1.0000000E+03;  4.0000001E-01;  0.0000000E+00;0;  0.0000000E+00;  0.0000000E+00;  0.0000000E+00;0;  0.0000000E+00;  1.0000000E+04;  0.0000000E+00;  0.0000000E+00;  1.0000000E+04;  0.0000000E+00;  1.0000000E+04;  0.0000000E+00;  0.0000000E+00;  0.0000000E+00;  0.0000000E+00;
  2.0599999E+00;  9.9999998E-03;  1.0000000E-01;718;  0.0000000E+00;  0.0000000E+00;  0.0000000E+00;  1.0000000E+03;  4.0000001E-01;  0.0000000E+00;0;  0.0000000E+00;  0.0000000E+00;  0.0000000E+00;0;  0.0000000E+00;  1.0000000E+04;  0.0000000E+00;  0.0000000E+00;  1.0000000E+04;  0.0000000E+00;  1.0000000E+04;  0.0000000E+00;  0.0000000E+00;  0.0000000E+00;  0.0000000E+00;
  2.0599999E+00;  9.9999998E-03;  1.2000000E-01;719;  0.0000000E+00;  0.0000000E+00;  0.0000000E+00;  1.0000000E+03;  4.0000001E-01;  0.0000000E+00;0;  0.0000000E+00;  0.0000000E+00;  0.0000000E+00;0;  0.0000000E+00;  1.0000000E+04;  0.0000000E+00;  0.0000000E+00;  1.0000000E+04;  0.0000000E+00;  1.0000000E+04;  0.0000000E+00;  0.0000000E+00;  0.0000000E+00;  0.0000000E+00;
  2.0599999E+00;  9.9999998E-03;  1.4000000E-01;720;  0.0000000E+00;  0.0000000E+00;  0.0000000E+00;  1.0000000E+03;  4.0000001E-01;  0.0000000E+00;0;  0.0000000E+00;  0.0000000E+00;  0.0000000E+00;0;  0.0000000E+00;  1.0000000E+04;  0.0000000E+00;  0.0000000E+00;  1.0000000E+04;  0.0000000E+00;  1.0000000E+04;  0.0000000E+00;  0.0000000E+00;  0.0000000E+00;  0.0000000E+00;
  2.0599999E+00;  9.9999998E-03;  1.6000000E-01;721;  0.0000000E+00;  0.0000000E+00;  0.0000000E+00;  1.0000000E+03;  4.0000001E-01;  0.0000000E+00;0;  0.0000000E+00;  0.0000000E+00;  0.0000000E+00;0;  0.0000000E+00;  1.0000000E+04;  0.0000000E+00;  0.0000000E+00;  1.0000000E+04;  0.0000000E+00;  1.0000000E+04;  0.0000000E+00;  0.0000000E+00;  0.0000000E+00;  0.0000000E+00;
  2.0599999E+00;  9.9999998E-03;  1.8000001E-01;722;  0.0000000E+00;  0.0000000E+00;  0.0000000E+00;  1.0000000E+03;  4.0000001E-01;  0.0000000E+00;0;  0.0000000E+00;  0.0000000E+00;  0.0000000E+00;0;  0.0000000E+00;  1.0000000E+04;  0.0000000E+00;  0.0000000E+00;  1.0000000E+04;  0.0000000E+00;  1.0000000E+04;  0.0000000E+00;  0.0000000E+00;  0.0000000E+00;  0.0000000E+00;
  2.0599999E+00;  9.9999998E-03;  2.0000000E-01;723;  0.0000000E+00;  0.0000000E+00;  0.0000000E+00;  1.0000000E+03;  4.0000001E-01;  0.0000000E+00;0;  0.0000000E+00;  0.0000000E+00;  0.0000000E+00;0;  0.0000000E+00;  1.0000000E+04;  0.0000000E+00;  0.0000000E+00;  1.0000000E+04;  0.0000000E+00;  1.0000000E+04;  0.0000000E+00;  0.0000000E+00;  0.0000000E+00;  0.0000000E+00;
  2.0599999E+00;  9.9999998E-03;  2.2000000E-01;724;  0.0000000E+00;  0.0000000E+00;  0.0000000E+00;  1.0000000E+03;  4.0000001E-01;  0.0000000E+00;0;  0.0000000E+00;  0.0000000E+00;  0.0000000E+00;0;  0.0000000E+00;  1.0000000E+04;  0.0000000E+00;  0.0000000E+00;  1.0000000E+04;  0.0000000E+00;  1.0000000E+04;  0.0000000E+00;  0.0000000E+00;  0.0000000E+00;  0.0000000E+00;
  2.0599999E+00;  9.9999998E-03;  2.3999999E-01;725;  0.0000000E+00;  0.0000000E+00;  0.0000000E+00;  1.0000000E+03;  4.0000001E-01;  0.0000000E+00;0;  0.0000000E+00;  0.0000000E+00;  0.0000000E+00;0;  0.0000000E+00;  1.0000000E+04;  0.0000000E+00;  0.0000000E+00;  1.0000000E+04;  0.0000000E+00;  1.0000000E+04;  0.0000000E+00;  0.0000000E+00;  0.0000000E+00;  0.0000000E+00;
  2.0599999E+00;  9.9999998E-03;  2.5999999E-01;726;  0.0000000E+00;  0.0000000E+00;  0.0000000E+00;  1.0000000E+03;  4.0000001E-01;  0.0000000E+00;0;  0.0000000E+00;  0.0000000E+00;  0.0000000E+00;0;  0.0000000E+00;  1.0000000E+04;  0.0000000E+00;  0.0000000E+00;  1.0000000E+04;  0.0000000E+00;  1.0000000E+04;  0.0000000E+00;  0.0000000E+00;  0.0000000E+00;  0.0000000E+00;
  2.0599999E+00;  9.9999998E-03;  2.8000000E-01;727;  0.0000000E+00;  0.0000000E+00;  0.0000000E+00;  1.0000000E+03;  4.0000001E-01;  0.0000000E+00;0;  0.0000000E+00;  0.0000000E+00;  0.0000000E+00;0;  0.0000000E+00;  1.0000000E+04;  0.0000000E+00;  0.0000000E+00;  1.0000000E+04;  0.0000000E+00;  1.0000000E+04;  0.0000000E+00;  0.0000000E+00;  0.0000000E+00;  0.0000000E+00;
  2.0599999E+00;  9.9999998E-03;  3.0000001E-01;728;  0.0000000E+00;  0.0000000E+00;  0.0000000E+00;  1.0000000E+03;  4.0000001E-01;  0.0000000E+00;0;  0.0000000E+00;  0.0000000E+00;  0.0000000E+00;0;  0.0000000E+00;  1.0000000E+04;  0.0000000E+00;  0.0000000E+00;  1.0000000E+04;  0.0000000E+00;  1.0000000E+04;  0.0000000E+00;  0.0000000E+00;  0.0000000E+00;  0.0000000E+00;
  2.0599999E+00;  9.9999998E-03;  3.1999999E-01;729;  0.0000000E+00;  0.0000000E+00;  0.0000000E+00;  1.0000000E+03;  4.0000001E-01;  0.0000000E+00;0;  0.0000000E+00;  0.0000000E+00;  0.0000000E+00;0;  0.0000000E+00;  1.0000000E+04;  0.0000000E+00;  0.0000000E+00;  1.0000000E+04;  0.0000000E+00;  1.0000000E+04;  0.0000000E+00;  0.0000000E+00;  0.0000000E+00;  0.0000000E+00;
  2.0599999E+00;  9.9999998E-03;  3.4000000E-01;730;  0.0000000E+00;  0.0000000E+00;  0.0000000E+00;  1.0000000E+03;  4.0000001E-01;  0.0000000E+00;0;  0.0000000E+00;  0.0000000E+00;  0.0000000E+00;0;  0.0000000E+00;  1.0000000E+04;  0.0000000E+00;  0.0000000E+00;  1.0000000E+04;  0.0000000E+00;  1.0000000E+04;  0.0000000E+00;  0.0000000E+00;  0.0000000E+00;  0.0000000E+00;
  2.0599999E+00;  9.9999998E-03;  3.6000001E-01;731;  0.0000000E+00;  0.0000000E+00;  0.0000000E+00;  1.0000000E+03;  4.0000001E-01;  0.0000000E+00;0;  0.0000000E+00;  0.0000000E+00;  0.0000000E+00;0;  0.0000000E+00;  1.0000000E+04;  0.0000000E+00;  0.0000000E+00;  1.0000000E+04;  0.0000000E+00;  1.0000000E+04;  0.0000000E+00;  0.0000000E+00;  0.0000000E+00;  0.0000000E+00;
  2.0599999E+00;  9.9999998E-03;  3.8000000E-01;732;  0.0000000E+00;  0.0000000E+00;  0.0000000E+00;  1.0000000E+03;  4.0000001E-01;  0.0000000E+00;0;  0.0000000E+00;  0.0000000E+00;  0.0000000E+00;0;  0.0000000E+00;  1.0000000E+04;  0.0000000E+00;  0.0000000E+00;  1.0000000E+04;  0.0000000E+00;  1.0000000E+04;  0.0000000E+00;  0.0000000E+00;  0.0000000E+00;  0.0000000E+00;
  2.0799999E+00;  9.9999998E-03; -4.0000001E-01;733;  0.0000000E+00;  0.0000000E+00;  0.0000000E+00;  1.0000000E+03;  4.0000001E-01;  0.0000000E+00;0;  0.0000000E+00;  0.0000000E+00;  0.0000000E+00;0;  0.0000000E+00;  1.0000000E+04;  0.0000000E+00;  0.0000000E+00;  1.0000000E+04;  0.0000000E+00;  1.0000000E+04;  0.0000000E+00;  0.0000000E+00;  0.0000000E+00;  0.0000000E+00;
  2.0799999E+00;  9.9999998E-03; -3.8000000E-01;734;  0.0000000E+00;  0.0000000E+00;  0.0000000E+00;  1.0000000E+03;  4.0000001E-01;  0.0000000E+00;0;  0.0000000E+00;  0.0000000E+00;  0.0000000E+00;0;  0.0000000E+00;  1.0000000E+04;  0.0000000E+00;  0.0000000E+00;  1.0000000E+04;  0.0000000E+00;  1.0000000E+04;  0.0000000E+00;  0.0000000E+00;  0.0000000E+00;  0.0000000E+00;
  2.0799999E+00;  9.9999998E-03; -3.6000001E-01;735;  0.0000000E+00;  0.0000000E+00;  0.0000000E+00;  1.0000000E+03;  4.0000001E-01;  0.0000000E+00;0;  0.0000000E+00;  0.0000000E+00;  0.0000000E+00;0;  0.0000000E+00;  1.0000000E+04;  0.0000000E+00;  0.0000000E+00;  1.0000000E+04;  0.0000000E+00;  1.0000000E+04;  0.0000000E+00;  0.0000000E+00;  0.0000000E+00;  0.0000000E+00;
  2.0799999E+00;  9.9999998E-03; -3.4000000E-01;736;  0.0000000E+00;  0.0000000E+00;  0.0000000E+00;  1.0000000E+03;  4.0000001E-01;  0.0000000E+00;0;  0.0000000E+00;  0.0000000E+00;  0.0000000E+00;0;  0.0000000E+00;  1.0000000E+04;  0.0000000E+00;  0.0000000E+00;  1.0000000E+04;  0.0000000E+00;  1.0000000E+04;  0.0000000E+00;  0.0000000E+00;  0.0000000E+00;  0.0000000E+00;
  2.0799999E+00;  9.9999998E-03; -3.1999999E-01;737;  0.0000000E+00;  0.0000000E+00;  0.0000000E+00;  1.0000000E+03;  4.0000001E-01;  0.0000000E+00;0;  0.0000000E+00;  0.0000000E+00;  0.0000000E+00;0;  0.0000000E+00;  1.0000000E+04;  0.0000000E+00;  0.0000000E+00;  1.0000000E+04;  0.0000000E+00;  1.0000000E+04;  0.0000000E+00;  0.0000000E+00;  0.0000000E+00;  0.0000000E+00;
  2.0799999E+00;  9.9999998E-03; -3.0000001E-01;738;  0.0000000E+00;  0.0000000E+00;  0.0000000E+00;  1.0000000E+03;  4.0000001E-01;  0.0000000E+00;0;  0.0000000E+00;  0.0000000E+00;  0.0000000E+00;0;  0.0000000E+00;  1.0000000E+04;  0.0000000E+00;  0.0000000E+00;  1.0000000E+04;  0.0000000E+00;  1.0000000E+04;  0.0000000E+00;  0.0000000E+00;  0.0000000E+00;  0.0000000E+00;
  2.0799999E+00;  9.9999998E-03; -2.8000000E-01;739;  0.0000000E+00;  0.0000000E+00;  0.0000000E+00;  1.0000000E+03;  4.0000001E-01;  0.0000000E+00;0;  0.0000000E+00;  0.0000000E+00;  0.0000000E+00;0;  0.0000000E+00;  1.0000000E+04;  0.0000000E+00;  0.0000000E+00;  1.0000000E+04;  0.0000000E+00;  1.0000000E+04;  0.0000000E+00;  0.0000000E+00;  0.0000000E+00;  0.0000000E+00;
  2.0799999E+00;  9.9999998E-03; -2.5999999E-01;740;  0.0000000E+00;  0.0000000E+00;  0.0000000E+00;  1.0000000E+03;  4.0000001E-01;  0.0000000E+00;0;  0.0000000E+00;  0.0000000E+00;  0.0000000E+00;0;  0.0000000E+00;  1.0000000E+04;  0.0000000E+00;  0.0000000E+00;  1.0000000E+04;  0.0000000E+00;  1.0000000E+04;  0.0000000E+00;  0.0000000E+00;  0.0000000E+00;  0.0000000E+00;
  2.0799999E+00;  9.9999998E-03; -2.3999999E-01;741;  0.0000000E+00;  0.0000000E+00;  0.0000000E+00;  1.0000000E+03;  4.0000001E-01;  0.0000000E+00;0;  0.0000000E+00;  0.0000000E+00;  0.0000000E+00;0;  0.0000000E+00;  1.0000000E+04;  0.0000000E+00;  0.0000000E+00;  1.0000000E+04;  0.0000000E+00;  1.0000000E+04;  0.0000000E+00;  0.0000000E+00;  0.0000000E+00;  0.0000000E+00;
  2.0799999E+00;  9.9999998E-03; -2.2000000E-01;742;  0.0000000E+00;  0.0000000E+00;  0.0000000E+00;  1.0000000E+03;  4.0000001E-01;  0.0000000E+00;0;  0.0000000E+00;  0.0000000E+00;  0.0000000E+00;0;  0.0000000E+00;  1.0000000E+04;  0.0000000E+00;  0.0000000E+00;  1.0000000E+04;  0.0000000E+00;  1.0000000E+04;  0.0000000E+00;  0.0000000E+00;  0.0000000E+00;  0.0000000E+00;
  2.0799999E+00;  9.9999998E-03; -2.0000000E-01;743;  0.0000000E+00;  0.0000000E+00;  0.0000000E+00;  1.0000000E+03;  4.0000001E-01;  0.0000000E+00;0;  0.0000000E+00;  0.0000000E+00;  0.0000000E+00;0;  0.0000000E+00;  1.0000000E+04;  0.0000000E+00;  0.0000000E+00;  1.0000000E+04;  0.0000000E+00;  1.0000000E+04;  0.0000000E+00;  0.0000000E+00;  0.0000000E+00;  0.0000000E+00;
  2.0799999E+00;  9.9999998E-03; -1.8000001E-01;744;  0.0000000E+00;  0.0000000E+00;  0.0000000E+00;  1.0000000E+03;  4.0000001E-01;  0.0000000E+00;0;  0.0000000E+00;  0.0000000E+00;  0.0000000E+00;0;  0.0000000E+00;  1.0000000E+04;  0.0000000E+00;  0.0000000E+00;  1.0000000E+04;  0.0000000E+00;  1.0000000E+04;  0.0000000E+00;  0.0000000E+00;  0.0000000E+00;  0.0000000E+00;
  2.0799999E+00;  9.9999998E-03; -1.6000000E-01;745;  0.0000000E+00;  0.0000000E+00;  0.0000000E+00;  1.0000000E+03;  4.0000001E-01;  0.0000000E+00;0;  0.0000000E+00;  0.0000000E+00;  0.0000000E+00;0;  0.0000000E+00;  1.0000000E+04;  0.0000000E+00;  0.0000000E+00;  1.0000000E+04;  0.0000000E+00;  1.0000000E+04;  0.0000000E+00;  0.0000000E+00;  0.0000000E+00;  0.0000000E+00;
  2.0799999E+00;  9.9999998E-03; -1.4000000E-01;746;  0.0000000E+00;  0.0000000E+00;  0.0000000E+00;  1.0000000E+03;  4.0000001E-01;  0.0000000E+00;0;  0.0000000E+00;  0.0000000E+00;  0.0000000E+00;0;  0.0000000E+00;  1.0000000E+04;  0.0000000E+00;  0.0000000E+00;  1.0000000E+04;  0.0000000E+00;  1.0000000E+04;  0.0000000E+00;  0.0000000E+00;  0.0000000E+00;  0.0000000E+00;
  2.0799999E+00;  9.9999998E-03; -1.2000000E-01;747;  0.0000000E+00;  0.0000000E+00;  0.0000000E+00;  1.0000000E+03;  4.0000001E-01;  0.0000000E+00;0;  0.0000000E+00;  0.0000000E+00;  0.0000000E+00;0;  0.0000000E+00;  1.0000000E+04;  0.0000000E+00;  0.0000000E+00;  1.0000000E+04;  0.0000000E+00;  1.0000000E+04;  0.0000000E+00;  0.0000000E+00;  0.0000000E+00;  0.0000000E+00;
  2.0799999E+00;  9.9999998E-03; -1.0000000E-01;748;  0.0000000E+00;  0.0000000E+00;  0.0000000E+00;  1.0000000E+03;  4.0000001E-01;  0.0000000E+00;0;  0.0000000E+00;  0.0000000E+00;  0.0000000E+00;0;  0.0000000E+00;  1.0000000E+04;  0.0000000E+00;  0.0000000E+00;  1.0000000E+04;  0.0000000E+00;  1.0000000E+04;  0.0000000E+00;  0.0000000E+00;  0.0000000E+00;  0.0000000E+00;
  2.0799999E+00;  9.9999998E-03; -7.9999998E-02;749;  0.0000000E+00;  0.0000000E+00;  0.0000000E+00;  1.0000000E+03;  4.0000001E-01;  0.0000000E+00;0;  0.0000000E+00;  0.0000000E+00;  0.0000000E+00;0;  0.0000000E+00;  1.0000000E+04;  0.0000000E+00;  0.0000000E+00;  1.0000000E+04;  0.0000000E+00;  1.0000000E+04;  0.0000000E+00;  0.0000000E+00;  0.0000000E+00;  0.0000000E+00;
  2.0799999E+00;  9.9999998E-03; -5.9999999E-02;750;  0.0000000E+00;  0.0000000E+00;  0.0000000E+00;  1.0000000E+03;  4.0000001E-01;  0.0000000E+00;0;  0.0000000E+00;  0.0000000E+00;  0.0000000E+00;0;  0.0000000E+00;  1.0000000E+04;  0.0000000E+00;  0.0000000E+00;  1.0000000E+04;  0.0000000E+00;  1.0000000E+04;  0.0000000E+00;  0.0000000E+00;  0.0000000E+00;  0.0000000E+00;
  2.0799999E+00;  9.9999998E-03; -3.9999999E-02;751;  0.0000000E+00;  0.0000000E+00;  0.0000000E+00;  1.0000000E+03;  4.0000001E-01;  0.0000000E+00;0;  0.0000000E+00;  0.0000000E+00;  0.0000000E+00;0;  0.0000000E+00;  1.0000000E+04;  0.0000000E+00;  0.0000000E+00;  1.0000000E+04;  0.0000000E+00;  1.0000000E+04;  0.0000000E+00;  0.0000000E+00;  0.0000000E+00;  0.0000000E+00;
  2.0799999E+00;  9.9999998E-03; -2.0000000E-02;752;  0.0000000E+00;  0.0000000E+00;  0.0000000E+00;  1.0000000E+03;  4.0000001E-01;  0.0000000E+00;0;  0.0000000E+00;  0.0000000E+00;  0.0000000E+00;0;  0.0000000E+00;  1.0000000E+04;  0.0000000E+00;  0.0000000E+00;  1.0000000E+04;  0.0000000E+00;  1.0000000E+04;  0.0000000E+00;  0.0000000E+00;  0.0000000E+00;  0.0000000E+00;
  2.0799999E+00;  9.9999998E-03;  0.0000000E+00;753;  0.0000000E+00;  0.0000000E+00;  0.0000000E+00;  1.0000000E+03;  4.0000001E-01;  0.0000000E+00;0;  0.0000000E+00;  0.0000000E+00;  0.0000000E+00;0;  0.0000000E+00;  1.0000000E+04;  0.0000000E+00;  0.0000000E+00;  1.0000000E+04;  0.0000000E+00;  1.0000000E+04;  0.0000000E+00;  0.0000000E+00;  0.0000000E+00;  0.0000000E+00;
  2.0799999E+00;  9.9999998E-03;  2.0000000E-02;754;  0.0000000E+00;  0.0000000E+00;  0.0000000E+00;  1.0000000E+03;  4.0000001E-01;  0.0000000E+00;0;  0.0000000E+00;  0.0000000E+00;  0.0000000E+00;0;  0.0000000E+00;  1.0000000E+04;  0.0000000E+00;  0.0000000E+00;  1.0000000E+04;  0.0000000E+00;  1.0000000E+04;  0.0000000E+00;  0.0000000E+00;  0.0000000E+00;  0.0000000E+00;
  2.0799999E+00;  9.9999998E-03;  3.9999999E-02;755;  0.0000000E+00;  0.0000000E+00;  0.0000000E+00;  1.0000000E+03;  4.0000001E-01;  0.0000000E+00;0;  0.0000000E+00;  0.0000000E+00;  0.0000000E+00;0;  0.0000000E+00;  1.0000000E+04;  0.0000000E+00;  0.0000000E+00;  1.0000000E+04;  0.0000000E+00;  1.0000000E+04;  0.0000000E+00;  0.0000000E+00;  0.0000000E+00;  0.0000000E+00;
  2.0799999E+00;  9.9999998E-03;  5.9999999E-02;756;  0.0000000E+00;  0.0000000E+00;  0.0000000E+00;  1.0000000E+03;  4.0000001E-01;  0.0000000E+00;0;  0.0000000E+00;  0.0000000E+00;  0.0000000E+00;0;  0.0000000E+00;  1.0000000E+04;  0.0000000E+00;  0.0000000E+00;  1.0000000E+04;  0.0000000E+00;  1.0000000E+04;  0.0000000E+00;  0.0000000E+00;  0.0000000E+00;  0.0000000E+00;
  2.0799999E+00;  9.9999998E-03;  7.9999998E-02;757;  0.0000000E+00;  0.0000000E+00;  0.0000000E+00;  1.0000000E+03;  4.0000001E-01;  0.0000000E+00;0;  0.0000000E+00;  0.0000000E+00;  0.0000000E+00;0;  0.0000000E+00;  1.0000000E+04;  0.0000000E+00;  0.0000000E+00;  1.0000000E+04;  0.0000000E+00;  1.0000000E+04;  0.0000000E+00;  0.0000000E+00;  0.0000000E+00;  0.0000000E+00;
  2.0799999E+00;  9.9999998E-03;  1.0000000E-01;758;  0.0000000E+00;  0.0000000E+00;  0.0000000E+00;  1.0000000E+03;  4.0000001E-01;  0.0000000E+00;0;  0.0000000E+00;  0.0000000E+00;  0.0000000E+00;0;  0.0000000E+00;  1.0000000E+04;  0.0000000E+00;  0.0000000E+00;  1.0000000E+04;  0.0000000E+00;  1.0000000E+04;  0.0000000E+00;  0.0000000E+00;  0.0000000E+00;  0.0000000E+00;
  2.0799999E+00;  9.9999998E-03;  1.2000000E-01;759;  0.0000000E+00;  0.0000000E+00;  0.0000000E+00;  1.0000000E+03;  4.0000001E-01;  0.0000000E+00;0;  0.0000000E+00;  0.0000000E+00;  0.0000000E+00;0;  0.0000000E+00;  1.0000000E+04;  0.0000000E+00;  0.0000000E+00;  1.0000000E+04;  0.0000000E+00;  1.0000000E+04;  0.0000000E+00;  0.0000000E+00;  0.0000000E+00;  0.0000000E+00;
  2.0799999E+00;  9.9999998E-03;  1.4000000E-01;760;  0.0000000E+00;  0.0000000E+00;  0.0000000E+00;  1.0000000E+03;  4.0000001E-01;  0.0000000E+00;0;  0.0000000E+00;  0.0000000E+00;  0.0000000E+00;0;  0.0000000E+00;  1.0000000E+04;  0.0000000E+00;  0.0000000E+00;  1.0000000E+04;  0.0000000E+00;  1.0000000E+04;  0.0000000E+00;  0.0000000E+00;  0.0000000E+00;  0.0000000E+00;
  2.0799999E+00;  9.9999998E-03;  1.6000000E-01;761;  0.0000000E+00;  0.0000000E+00;  0.0000000E+00;  1.0000000E+03;  4.0000001E-01;  0.0000000E+00;0;  0.0000000E+00;  0.0000000E+00;  0.0000000E+00;0;  0.0000000E+00;  1.0000000E+04;  0.0000000E+00;  0.0000000E+00;  1.0000000E+04;  0.0000000E+00;  1.0000000E+04;  0.0000000E+00;  0.0000000E+00;  0.0000000E+00;  0.0000000E+00;
  2.0799999E+00;  9.9999998E-03;  1.8000001E-01;762;  0.0000000E+00;  0.0000000E+00;  0.0000000E+00;  1.0000000E+03;  4.0000001E-01;  0.0000000E+00;0;  0.0000000E+00;  0.0000000E+00;  0.0000000E+00;0;  0.0000000E+00;  1.0000000E+04;  0.0000000E+00;  0.0000000E+00;  1.0000000E+04;  0.0000000E+00;  1.0000000E+04;  0.0000000E+00;  0.0000000E+00;  0.0000000E+00;  0.0000000E+00;
  2.0799999E+00;  9.9999998E-03;  2.0000000E-01;763;  0.0000000E+00;  0.0000000E+00;  0.0000000E+00;  1.0000000E+03;  4.0000001E-01;  0.0000000E+00;0;  0.0000000E+00;  0.0000000E+00;  0.0000000E+00;0;  0.0000000E+00;  1.0000000E+04;  0.0000000E+00;  0.0000000E+00;  1.0000000E+04;  0.0000000E+00;  1.0000000E+04;  0.0000000E+00;  0.0000000E+00;  0.0000000E+00;  0.0000000E+00;
  2.0799999E+00;  9.9999998E-03;  2.2000000E-01;764;  0.0000000E+00;  0.0000000E+00;  0.0000000E+00;  1.0000000E+03;  4.0000001E-01;  0.0000000E+00;0;  0.0000000E+00;  0.0000000E+00;  0.0000000E+00;0;  0.0000000E+00;  1.0000000E+04;  0.0000000E+00;  0.0000000E+00;  1.0000000E+04;  0.0000000E+00;  1.0000000E+04;  0.0000000E+00;  0.0000000E+00;  0.0000000E+00;  0.0000000E+00;
  2.0799999E+00;  9.9999998E-03;  2.3999999E-01;765;  0.0000000E+00;  0.0000000E+00;  0.0000000E+00;  1.0000000E+03;  4.0000001E-01;  0.0000000E+00;0;  0.0000000E+00;  0.0000000E+00;  0.0000000E+00;0;  0.0000000E+00;  1.0000000E+04;  0.0000000E+00;  0.0000000E+00;  1.0000000E+04;  0.0000000E+00;  1.0000000E+04;  0.0000000E+00;  0.0000000E+00;  0.0000000E+00;  0.0000000E+00;
  2.0799999E+00;  9.9999998E-03;  2.5999999E-01;766;  0.0000000E+00;  0.0000000E+00;  0.0000000E+00;  1.0000000E+03;  4.0000001E-01;  0.0000000E+00;0;  0.0000000E+00;  0.0000000E+00;  0.0000000E+00;0;  0.0000000E+00;  1.0000000E+04;  0.0000000E+00;  0.0000000E+00;  1.0000000E+04;  0.0000000E+00;  1.0000000E+04;  0.0000000E+00;  0.0000000E+00;  0.0000000E+00;  0.0000000E+00;
  2.0799999E+00;  9.9999998E-03;  2.8000000E-01;767;  0.0000000E+00;  0.0000000E+00;  0.0000000E+00;  1.0000000E+03;  4.0000001E-01;  0.0000000E+00;0;  0.0000000E+00;  0.0000000E+00;  0.0000000E+00;0;  0.0000000E+00;  1.0000000E+04;  0.0000000E+00;  0.0000000E+00;  1.0000000E+04;  0.0000000E+00;  1.0000000E+04;  0.0000000E+00;  0.0000000E+00;  0.0000000E+00;  0.0000000E+00;
  2.0799999E+00;  9.9999998E-03;  3.0000001E-01;768;  0.0000000E+00;  0.0000000E+00;  0.0000000E+00;  1.0000000E+03;  4.0000001E-01;  0.0000000E+00;0;  0.0000000E+00;  0.0000000E+00;  0.0000000E+00;0;  0.0000000E+00;  1.0000000E+04;  0.0000000E+00;  0.0000000E+00;  1.0000000E+04;  0.0000000E+00;  1.0000000E+04;  0.0000000E+00;  0.0000000E+00;  0.0000000E+00;  0.0000000E+00;
  2.0799999E+00;  9.9999998E-03;  3.1999999E-01;769;  0.0000000E+00;  0.0000000E+00;  0.0000000E+00;  1.0000000E+03;  4.0000001E-01;  0.0000000E+00;0;  0.0000000E+00;  0.0000000E+00;  0.0000000E+00;0;  0.0000000E+00;  1.0000000E+04;  0.0000000E+00;  0.0000000E+00;  1.0000000E+04;  0.0000000E+00;  1.0000000E+04;  0.0000000E+00;  0.0000000E+00;  0.0000000E+00;  0.0000000E+00;
  2.0799999E+00;  9.9999998E-03;  3.4000000E-01;770;  0.0000000E+00;  0.0000000E+00;  0.0000000E+00;  1.0000000E+03;  4.0000001E-01;  0.0000000E+00;0;  0.0000000E+00;  0.0000000E+00;  0.0000000E+00;0;  0.0000000E+00;  1.0000000E+04;  0.0000000E+00;  0.0000000E+00;  1.0000000E+04;  0.0000000E+00;  1.0000000E+04;  0.0000000E+00;  0.0000000E+00;  0.0000000E+00;  0.0000000E+00;
  2.0799999E+00;  9.9999998E-03;  3.6000001E-01;771;  0.0000000E+00;  0.0000000E+00;  0.0000000E+00;  1.0000000E+03;  4.0000001E-01;  0.0000000E+00;0;  0.0000000E+00;  0.0000000E+00;  0.0000000E+00;0;  0.0000000E+00;  1.0000000E+04;  0.0000000E+00;  0.0000000E+00;  1.0000000E+04;  0.0000000E+00;  1.0000000E+04;  0.0000000E+00;  0.0000000E+00;  0.0000000E+00;  0.0000000E+00;
  2.0799999E+00;  9.9999998E-03;  3.8000000E-01;772;  0.0000000E+00;  0.0000000E+00;  0.0000000E+00;  1.0000000E+03;  4.0000001E-01;  0.0000000E+00;0;  0.0000000E+00;  0.0000000E+00;  0.0000000E+00;0;  0.0000000E+00;  1.0000000E+04;  0.0000000E+00;  0.0000000E+00;  1.0000000E+04;  0.0000000E+00;  1.0000000E+04;  0.0000000E+00;  0.0000000E+00;  0.0000000E+00;  0.0000000E+00;
  2.0799999E+00;  9.9999998E-03;  4.0000001E-01;773;  0.0000000E+00;  0.0000000E+00;  0.0000000E+00;  1.0000000E+03;  4.0000001E-01;  0.0000000E+00;0;  0.0000000E+00;  0.0000000E+00;  0.0000000E+00;0;  0.0000000E+00;  1.0000000E+04;  0.0000000E+00;  0.0000000E+00;  1.0000000E+04;  0.0000000E+00;  1.0000000E+04;  0.0000000E+00;  0.0000000E+00;  0.0000000E+00;  0.0000000E+00;
  2.0999999E+00;  9.9999998E-03; -4.0000001E-01;774;  0.0000000E+00;  0.0000000E+00;  0.0000000E+00;  1.0000000E+03;  4.0000001E-01;  0.0000000E+00;0;  0.0000000E+00;  0.0000000E+00;  0.0000000E+00;0;  0.0000000E+00;  1.0000000E+04;  0.0000000E+00;  0.0000000E+00;  1.0000000E+04;  0.0000000E+00;  1.0000000E+04;  0.0000000E+00;  0.0000000E+00;  0.0000000E+00;  0.0000000E+00;
  2.0999999E+00;  9.9999998E-03; -3.8000000E-01;775;  0.0000000E+00;  0.0000000E+00;  0.0000000E+00;  1.0000000E+03;  4.0000001E-01;  0.0000000E+00;0;  0.0000000E+00;  0.0000000E+00;  0.0000000E+00;0;  0.0000000E+00;  1.0000000E+04;  0.0000000E+00;  0.0000000E+00;  1.0000000E+04;  0.0000000E+00;  1.0000000E+04;  0.0000000E+00;  0.0000000E+00;  0.0000000E+00;  0.0000000E+00;
  2.0999999E+00;  9.9999998E-03; -3.6000001E-01;776;  0.0000000E+00;  0.0000000E+00;  0.0000000E+00;  1.0000000E+03;  4.0000001E-01;  0.0000000E+00;0;  0.0000000E+00;  0.0000000E+00;  0.0000000E+00;0;  0.0000000E+00;  1.0000000E+04;  0.0000000E+00;  0.0000000E+00;  1.0000000E+04;  0.0000000E+00;  1.0000000E+04;  0.0000000E+00;  0.0000000E+00;  0.0000000E+00;  0.0000000E+00;
  2.0999999E+00;  9.9999998E-03; -3.4000000E-01;777;  0.0000000E+00;  0.0000000E+00;  0.0000000E+00;  1.0000000E+03;  4.0000001E-01;  0.0000000E+00;0;  0.0000000E+00;  0.0000000E+00;  0.0000000E+00;0;  0.0000000E+00;  1.0000000E+04;  0.0000000E+00;  0.0000000E+00;  1.0000000E+04;  0.0000000E+00;  1.0000000E+04;  0.0000000E+00;  0.0000000E+00;  0.0000000E+00;  0.0000000E+00;
  2.0999999E+00;  9.9999998E-03; -3.1999999E-01;778;  0.0000000E+00;  0.0000000E+00;  0.0000000E+00;  1.0000000E+03;  4.0000001E-01;  0.0000000E+00;0;  0.0000000E+00;  0.0000000E+00;  0.0000000E+00;0;  0.0000000E+00;  1.0000000E+04;  0.0000000E+00;  0.0000000E+00;  1.0000000E+04;  0.0000000E+00;  1.0000000E+04;  0.0000000E+00;  0.0000000E+00;  0.0000000E+00;  0.0000000E+00;
  2.0999999E+00;  9.9999998E-03; -3.0000001E-01;779;  0.0000000E+00;  0.0000000E+00;  0.0000000E+00;  1.0000000E+03;  4.0000001E-01;  0.0000000E+00;0;  0.0000000E+00;  0.0000000E+00;  0.0000000E+00;0;  0.0000000E+00;  1.0000000E+04;  0.0000000E+00;  0.0000000E+00;  1.0000000E+04;  0.0000000E+00;  1.0000000E+04;  0.0000000E+00;  0.0000000E+00;  0.0000000E+00;  0.0000000E+00;
  2.0999999E+00;  9.9999998E-03; -2.8000000E-01;780;  0.0000000E+00;  0.0000000E+00;  0.0000000E+00;  1.0000000E+03;  4.0000001E-01;  0.0000000E+00;0;  0.0000000E+00;  0.0000000E+00;  0.0000000E+00;0;  0.0000000E+00;  1.0000000E+04;  0.0000000E+00;  0.0000000E+00;  1.0000000E+04;  0.0000000E+00;  1.0000000E+04;  0.0000000E+00;  0.0000000E+00;  0.0000000E+00;  0.0000000E+00;
  2.0999999E+00;  9.9999998E-03; -2.5999999E-01;781;  0.0000000E+00;  0.0000000E+00;  0.0000000E+00;  1.0000000E+03;  4.0000001E-01;  0.0000000E+00;0;  0.0000000E+00;  0.0000000E+00;  0.0000000E+00;0;  0.0000000E+00;  1.0000000E+04;  0.0000000E+00;  0.0000000E+00;  1.0000000E+04;  0.0000000E+00;  1.0000000E+04;  0.0000000E+00;  0.0000000E+00;  0.0000000E+00;  0.0000000E+00;
  2.0999999E+00;  9.9999998E-03; -2.3999999E-01;782;  0.0000000E+00;  0.0000000E+00;  0.0000000E+00;  1.0000000E+03;  4.0000001E-01;  0.0000000E+00;0;  0.0000000E+00;  0.0000000E+00;  0.0000000E+00;0;  0.0000000E+00;  1.0000000E+04;  0.0000000E+00;  0.0000000E+00;  1.0000000E+04;  0.0000000E+00;  1.0000000E+04;  0.0000000E+00;  0.0000000E+00;  0.0000000E+00;  0.0000000E+00;
  2.0999999E+00;  9.9999998E-03; -2.2000000E-01;783;  0.0000000E+00;  0.0000000E+00;  0.0000000E+00;  1.0000000E+03;  4.0000001E-01;  0.0000000E+00;0;  0.0000000E+00;  0.0000000E+00;  0.0000000E+00;0;  0.0000000E+00;  1.0000000E+04;  0.0000000E+00;  0.0000000E+00;  1.0000000E+04;  0.0000000E+00;  1.0000000E+04;  0.0000000E+00;  0.0000000E+00;  0.0000000E+00;  0.0000000E+00;
  2.0999999E+00;  9.9999998E-03; -2.0000000E-01;784;  0.0000000E+00;  0.0000000E+00;  0.0000000E+00;  1.0000000E+03;  4.0000001E-01;  0.0000000E+00;0;  0.0000000E+00;  0.0000000E+00;  0.0000000E+00;0;  0.0000000E+00;  1.0000000E+04;  0.0000000E+00;  0.0000000E+00;  1.0000000E+04;  0.0000000E+00;  1.0000000E+04;  0.0000000E+00;  0.0000000E+00;  0.0000000E+00;  0.0000000E+00;
  2.0999999E+00;  9.9999998E-03; -1.8000001E-01;785;  0.0000000E+00;  0.0000000E+00;  0.0000000E+00;  1.0000000E+03;  4.0000001E-01;  0.0000000E+00;0;  0.0000000E+00;  0.0000000E+00;  0.0000000E+00;0;  0.0000000E+00;  1.0000000E+04;  0.0000000E+00;  0.0000000E+00;  1.0000000E+04;  0.0000000E+00;  1.0000000E+04;  0.0000000E+00;  0.0000000E+00;  0.0000000E+00;  0.0000000E+00;
  2.0999999E+00;  9.9999998E-03; -1.6000000E-01;786;  0.0000000E+00;  0.0000000E+00;  0.0000000E+00;  1.0000000E+03;  4.0000001E-01;  0.0000000E+00;0;  0.0000000E+00;  0.0000000E+00;  0.0000000E+00;0;  0.0000000E+00;  1.0000000E+04;  0.0000000E+00;  0.0000000E+00;  1.0000000E+04;  0.0000000E+00;  1.0000000E+04;  0.0000000E+00;  0.0000000E+00;  0.0000000E+00;  0.0000000E+00;
  2.0999999E+00;  9.9999998E-03; -1.4000000E-01;787;  0.0000000E+00;  0.0000000E+00;  0.0000000E+00;  1.0000000E+03;  4.0000001E-01;  0.0000000E+00;0;  0.0000000E+00;  0.0000000E+00;  0.0000000E+00;0;  0.0000000E+00;  1.0000000E+04;  0.0000000E+00;  0.0000000E+00;  1.0000000E+04;  0.0000000E+00;  1.0000000E+04;  0.0000000E+00;  0.0000000E+00;  0.0000000E+00;  0.0000000E+00;
  2.0999999E+00;  9.9999998E-03; -1.2000000E-01;788;  0.0000000E+00;  0.0000000E+00;  0.0000000E+00;  1.0000000E+03;  4.0000001E-01;  0.0000000E+00;0;  0.0000000E+00;  0.0000000E+00;  0.0000000E+00;0;  0.0000000E+00;  1.0000000E+04;  0.0000000E+00;  0.0000000E+00;  1.0000000E+04;  0.0000000E+00;  1.0000000E+04;  0.0000000E+00;  0.0000000E+00;  0.0000000E+00;  0.0000000E+00;
  2.0999999E+00;  9.9999998E-03; -1.0000000E-01;789;  0.0000000E+00;  0.0000000E+00;  0.0000000E+00;  1.0000000E+03;  4.0000001E-01;  0.0000000E+00;0;  0.0000000E+00;  0.0000000E+00;  0.0000000E+00;0;  0.0000000E+00;  1.0000000E+04;  0.0000000E+00;  0.0000000E+00;  1.0000000E+04;  0.0000000E+00;  1.0000000E+04;  0.0000000E+00;  0.0000000E+00;  0.0000000E+00;  0.0000000E+00;
  2.0999999E+00;  9.9999998E-03; -7.9999998E-02;790;  0.0000000E+00;  0.0000000E+00;  0.0000000E+00;  1.0000000E+03;  4.0000001E-01;  0.0000000E+00;0;  0.0000000E+00;  0.0000000E+00;  0.0000000E+00;0;  0.0000000E+00;  1.0000000E+04;  0.0000000E+00;  0.0000000E+00;  1.0000000E+04;  0.0000000E+00;  1.0000000E+04;  0.0000000E+00;  0.0000000E+00;  0.0000000E+00;  0.0000000E+00;
  2.0999999E+00;  9.9999998E-03; -5.9999999E-02;791;  0.0000000E+00;  0.0000000E+00;  0.0000000E+00;  1.0000000E+03;  4.0000001E-01;  0.0000000E+00;0;  0.0000000E+00;  0.0000000E+00;  0.0000000E+00;0;  0.0000000E+00;  1.0000000E+04;  0.0000000E+00;  0.0000000E+00;  1.0000000E+04;  0.0000000E+00;  1.0000000E+04;  0.0000000E+00;  0.0000000E+00;  0.0000000E+00;  0.0000000E+00;
  2.0999999E+00;  9.9999998E-03; -3.9999999E-02;792;  0.0000000E+00;  0.0000000E+00;  0.0000000E+00;  1.0000000E+03;  4.0000001E-01;  0.0000000E+00;0;  0.0000000E+00;  0.0000000E+00;  0.0000000E+00;0;  0.0000000E+00;  1.0000000E+04;  0.0000000E+00;  0.0000000E+00;  1.0000000E+04;  0.0000000E+00;  1.0000000E+04;  0.0000000E+00;  0.0000000E+00;  0.0000000E+00;  0.0000000E+00;
  2.0999999E+00;  9.9999998E-03; -2.0000000E-02;793;  0.0000000E+00;  0.0000000E+00;  0.0000000E+00;  1.0000000E+03;  4.0000001E-01;  0.0000000E+00;0;  0.0000000E+00;  0.0000000E+00;  0.0000000E+00;0;  0.0000000E+00;  1.0000000E+04;  0.0000000E+00;  0.0000000E+00;  1.0000000E+04;  0.0000000E+00;  1.0000000E+04;  0.0000000E+00;  0.0000000E+00;  0.0000000E+00;  0.0000000E+00;
  2.0999999E+00;  9.9999998E-03;  0.0000000E+00;794;  0.0000000E+00;  0.0000000E+00;  0.0000000E+00;  1.0000000E+03;  4.0000001E-01;  0.0000000E+00;0;  0.0000000E+00;  0.0000000E+00;  0.0000000E+00;0;  0.0000000E+00;  1.0000000E+04;  0.0000000E+00;  0.0000000E+00;  1.0000000E+04;  0.0000000E+00;  1.0000000E+04;  0.0000000E+00;  0.0000000E+00;  0.0000000E+00;  0.0000000E+00;
  2.0999999E+00;  9.9999998E-03;  2.0000000E-02;795;  0.0000000E+00;  0.0000000E+00;  0.0000000E+00;  1.0000000E+03;  4.0000001E-01;  0.0000000E+00;0;  0.0000000E+00;  0.0000000E+00;  0.0000000E+00;0;  0.0000000E+00;  1.0000000E+04;  0.0000000E+00;  0.0000000E+00;  1.0000000E+04;  0.0000000E+00;  1.0000000E+04;  0.0000000E+00;  0.0000000E+00;  0.0000000E+00;  0.0000000E+00;
  2.0999999E+00;  9.9999998E-03;  3.9999999E-02;796;  0.0000000E+00;  0.0000000E+00;  0.0000000E+00;  1.0000000E+03;  4.0000001E-01;  0.0000000E+00;0;  0.0000000E+00;  0.0000000E+00;  0.0000000E+00;0;  0.0000000E+00;  1.0000000E+04;  0.0000000E+00;  0.0000000E+00;  1.0000000E+04;  0.0000000E+00;  1.0000000E+04;  0.0000000E+00;  0.0000000E+00;  0.0000000E+00;  0.0000000E+00;
  2.0999999E+00;  9.9999998E-03;  5.9999999E-02;797;  0.0000000E+00;  0.0000000E+00;  0.0000000E+00;  1.0000000E+03;  4.0000001E-01;  0.0000000E+00;0;  0.0000000E+00;  0.0000000E+00;  0.0000000E+00;0;  0.0000000E+00;  1.0000000E+04;  0.0000000E+00;  0.0000000E+00;  1.0000000E+04;  0.0000000E+00;  1.0000000E+04;  0.0000000E+00;  0.0000000E+00;  0.0000000E+00;  0.0000000E+00;
  2.0999999E+00;  9.9999998E-03;  7.9999998E-02;798;  0.0000000E+00;  0.0000000E+00;  0.0000000E+00;  1.0000000E+03;  4.0000001E-01;  0.0000000E+00;0;  0.0000000E+00;  0.0000000E+00;  0.0000000E+00;0;  0.0000000E+00;  1.0000000E+04;  0.0000000E+00;  0.0000000E+00;  1.0000000E+04;  0.0000000E+00;  1.0000000E+04;  0.0000000E+00;  0.0000000E+00;  0.0000000E+00;  0.0000000E+00;
  2.0999999E+00;  9.9999998E-03;  1.0000000E-01;799;  0.0000000E+00;  0.0000000E+00;  0.0000000E+00;  1.0000000E+03;  4.0000001E-01;  0.0000000E+00;0;  0.0000000E+00;  0.0000000E+00;  0.0000000E+00;0;  0.0000000E+00;  1.0000000E+04;  0.0000000E+00;  0.0000000E+00;  1.0000000E+04;  0.0000000E+00;  1.0000000E+04;  0.0000000E+00;  0.0000000E+00;  0.0000000E+00;  0.0000000E+00;
  2.0999999E+00;  9.9999998E-03;  1.2000000E-01;800;  0.0000000E+00;  0.0000000E+00;  0.0000000E+00;  1.0000000E+03;  4.0000001E-01;  0.0000000E+00;0;  0.0000000E+00;  0.0000000E+00;  0.0000000E+00;0;  0.0000000E+00;  1.0000000E+04;  0.0000000E+00;  0.0000000E+00;  1.0000000E+04;  0.0000000E+00;  1.0000000E+04;  0.0000000E+00;  0.0000000E+00;  0.0000000E+00;  0.0000000E+00;
  2.0999999E+00;  9.9999998E-03;  1.4000000E-01;801;  0.0000000E+00;  0.0000000E+00;  0.0000000E+00;  1.0000000E+03;  4.0000001E-01;  0.0000000E+00;0;  0.0000000E+00;  0.0000000E+00;  0.0000000E+00;0;  0.0000000E+00;  1.0000000E+04;  0.0000000E+00;  0.0000000E+00;  1.0000000E+04;  0.0000000E+00;  1.0000000E+04;  0.0000000E+00;  0.0000000E+00;  0.0000000E+00;  0.0000000E+00;
  2.0999999E+00;  9.9999998E-03;  1.6000000E-01;802;  0.0000000E+00;  0.0000000E+00;  0.0000000E+00;  1.0000000E+03;  4.0000001E-01;  0.0000000E+00;0;  0.0000000E+00;  0.0000000E+00;  0.0000000E+00;0;  0.0000000E+00;  1.0000000E+04;  0.0000000E+00;  0.0000000E+00;  1.0000000E+04;  0.0000000E+00;  1.0000000E+04;  0.0000000E+00;  0.0000000E+00;  0.0000000E+00;  0.0000000E+00;
  2.0999999E+00;  9.9999998E-03;  1.8000001E-01;803;  0.0000000E+00;  0.0000000E+00;  0.0000000E+00;  1.0000000E+03;  4.0000001E-01;  0.0000000E+00;0;  0.0000000E+00;  0.0000000E+00;  0.0000000E+00;0;  0.0000000E+00;  1.0000000E+04;  0.0000000E+00;  0.0000000E+00;  1.0000000E+04;  0.0000000E+00;  1.0000000E+04;  0.0000000E+00;  0.0000000E+00;  0.0000000E+00;  0.0000000E+00;
  2.0999999E+00;  9.9999998E-03;  2.0000000E-01;804;  0.0000000E+00;  0.0000000E+00;  0.0000000E+00;  1.0000000E+03;  4.0000001E-01;  0.0000000E+00;0;  0.0000000E+00;  0.0000000E+00;  0.0000000E+00;0;  0.0000000E+00;  1.0000000E+04;  0.0000000E+00;  0.0000000E+00;  1.0000000E+04;  0.0000000E+00;  1.0000000E+04;  0.0000000E+00;  0.0000000E+00;  0.0000000E+00;  0.0000000E+00;
  2.0999999E+00;  9.9999998E-03;  2.2000000E-01;805;  0.0000000E+00;  0.0000000E+00;  0.0000000E+00;  1.0000000E+03;  4.0000001E-01;  0.0000000E+00;0;  0.0000000E+00;  0.0000000E+00;  0.0000000E+00;0;  0.0000000E+00;  1.0000000E+04;  0.0000000E+00;  0.0000000E+00;  1.0000000E+04;  0.0000000E+00;  1.0000000E+04;  0.0000000E+00;  0.0000000E+00;  0.0000000E+00;  0.0000000E+00;
  2.0999999E+00;  9.9999998E-03;  2.3999999E-01;806;  0.0000000E+00;  0.0000000E+00;  0.0000000E+00;  1.0000000E+03;  4.0000001E-01;  0.0000000E+00;0;  0.0000000E+00;  0.0000000E+00;  0.0000000E+00;0;  0.0000000E+00;  1.0000000E+04;  0.0000000E+00;  0.0000000E+00;  1.0000000E+04;  0.0000000E+00;  1.0000000E+04;  0.0000000E+00;  0.0000000E+00;  0.0000000E+00;  0.0000000E+00;
  2.0999999E+00;  9.9999998E-03;  2.5999999E-01;807;  0.0000000E+00;  0.0000000E+00;  0.0000000E+00;  1.0000000E+03;  4.0000001E-01;  0.0000000E+00;0;  0.0000000E+00;  0.0000000E+00;  0.0000000E+00;0;  0.0000000E+00;  1.0000000E+04;  0.0000000E+00;  0.0000000E+00;  1.0000000E+04;  0.0000000E+00;  1.0000000E+04;  0.0000000E+00;  0.0000000E+00;  0.0000000E+00;  0.0000000E+00;
  2.0999999E+00;  9.9999998E-03;  2.8000000E-01;808;  0.0000000E+00;  0.0000000E+00;  0.0000000E+00;  1.0000000E+03;  4.0000001E-01;  0.0000000E+00;0;  0.0000000E+00;  0.0000000E+00;  0.0000000E+00;0;  0.0000000E+00;  1.0000000E+04;  0.0000000E+00;  0.0000000E+00;  1.0000000E+04;  0.0000000E+00;  1.0000000E+04;  0.0000000E+00;  0.0000000E+00;  0.0000000E+00;  0.0000000E+00;
  2.0999999E+00;  9.9999998E-03;  3.0000001E-01;809;  0.0000000E+00;  0.0000000E+00;  0.0000000E+00;  1.0000000E+03;  4.0000001E-01;  0.0000000E+00;0;  0.0000000E+00;  0.0000000E+00;  0.0000000E+00;0;  0.0000000E+00;  1.0000000E+04;  0.0000000E+00;  0.0000000E+00;  1.0000000E+04;  0.0000000E+00;  1.0000000E+04;  0.0000000E+00;  0.0000000E+00;  0.0000000E+00;  0.0000000E+00;
  2.0999999E+00;  9.9999998E-03;  3.1999999E-01;810;  0.0000000E+00;  0.0000000E+00;  0.0000000E+00;  1.0000000E+03;  4.0000001E-01;  0.0000000E+00;0;  0.0000000E+00;  0.0000000E+00;  0.0000000E+00;0;  0.0000000E+00;  1.0000000E+04;  0.0000000E+00;  0.0000000E+00;  1.0000000E+04;  0.0000000E+00;  1.0000000E+04;  0.0000000E+00;  0.0000000E+00;  0.0000000E+00;  0.0000000E+00;
  2.0999999E+00;  9.9999998E-03;  3.4000000E-01;811;  0.0000000E+00;  0.0000000E+00;  0.0000000E+00;  1.0000000E+03;  4.0000001E-01;  0.0000000E+00;0;  0.0000000E+00;  0.0000000E+00;  0.0000000E+00;0;  0.0000000E+00;  1.0000000E+04;  0.0000000E+00;  0.0000000E+00;  1.0000000E+04;  0.0000000E+00;  1.0000000E+04;  0.0000000E+00;  0.0000000E+00;  0.0000000E+00;  0.0000000E+00;
  2.0999999E+00;  9.9999998E-03;  3.6000001E-01;812;  0.0000000E+00;  0.0000000E+00;  0.0000000E+00;  1.0000000E+03;  4.0000001E-01;  0.0000000E+00;0;  0.0000000E+00;  0.0000000E+00;  0.0000000E+00;0;  0.0000000E+00;  1.0000000E+04;  0.0000000E+00;  0.0000000E+00;  1.0000000E+04;  0.0000000E+00;  1.0000000E+04;  0.0000000E+00;  0.0000000E+00;  0.0000000E+00;  0.0000000E+00;
  2.0999999E+00;  9.9999998E-03;  3.8000000E-01;813;  0.0000000E+00;  0.0000000E+00;  0.0000000E+00;  1.0000000E+03;  4.0000001E-01;  0.0000000E+00;0;  0.0000000E+00;  0.0000000E+00;  0.0000000E+00;0;  0.0000000E+00;  1.0000000E+04;  0.0000000E+00;  0.0000000E+00;  1.0000000E+04;  0.0000000E+00;  1.0000000E+04;  0.0000000E+00;  0.0000000E+00;  0.0000000E+00;  0.0000000E+00;
  2.0999999E+00;  9.9999998E-03;  4.0000001E-01;814;  0.0000000E+00;  0.0000000E+00;  0.0000000E+00;  1.0000000E+03;  4.0000001E-01;  0.0000000E+00;0;  0.0000000E+00;  0.0000000E+00;  0.0000000E+00;0;  0.0000000E+00;  1.0000000E+04;  0.0000000E+00;  0.0000000E+00;  1.0000000E+04;  0.0000000E+00;  1.0000000E+04;  0.0000000E+00;  0.0000000E+00;  0.0000000E+00;  0.0000000E+00;
  2.1199999E+00;  9.9999998E-03; -4.1999999E-01;815;  0.0000000E+00;  0.0000000E+00;  0.0000000E+00;  1.0000000E+03;  4.0000001E-01;  0.0000000E+00;0;  0.0000000E+00;  0.0000000E+00;  0.0000000E+00;0;  0.0000000E+00;  1.0000000E+04;  0.0000000E+00;  0.0000000E+00;  1.0000000E+04;  0.0000000E+00;  1.0000000E+04;  0.0000000E+00;  0.0000000E+00;  0.0000000E+00;  0.0000000E+00;
  2.1199999E+00;  9.9999998E-03; -4.0000001E-01;816;  0.0000000E+00;  0.0000000E+00;  0.0000000E+00;  1.0000000E+03;  4.0000001E-01;  0.0000000E+00;0;  0.0000000E+00;  0.0000000E+00;  0.0000000E+00;0;  0.0000000E+00;  1.0000000E+04;  0.0000000E+00;  0.0000000E+00;  1.0000000E+04;  0.0000000E+00;  1.0000000E+04;  0.0000000E+00;  0.0000000E+00;  0.0000000E+00;  0.0000000E+00;
  2.1199999E+00;  9.9999998E-03; -3.8000000E-01;817;  0.0000000E+00;  0.0000000E+00;  0.0000000E+00;  1.0000000E+03;  4.0000001E-01;  0.0000000E+00;0;  0.0000000E+00;  0.0000000E+00;  0.0000000E+00;0;  0.0000000E+00;  1.0000000E+04;  0.0000000E+00;  0.0000000E+00;  1.0000000E+04;  0.0000000E+00;  1.0000000E+04;  0.0000000E+00;  0.0000000E+00;  0.0000000E+00;  0.0000000E+00;
  2.1199999E+00;  9.9999998E-03; -3.6000001E-01;818;  0.0000000E+00;  0.0000000E+00;  0.0000000E+00;  1.0000000E+03;  4.0000001E-01;  0.0000000E+00;0;  0.0000000E+00;  0.0000000E+00;  0.0000000E+00;0;  0.0000000E+00;  1.0000000E+04;  0.0000000E+00;  0.0000000E+00;  1.0000000E+04;  0.0000000E+00;  1.0000000E+04;  0.0000000E+00;  0.0000000E+00;  0.0000000E+00;  0.0000000E+00;
  2.1199999E+00;  9.9999998E-03; -3.4000000E-01;819;  0.0000000E+00;  0.0000000E+00;  0.0000000E+00;  1.0000000E+03;  4.0000001E-01;  0.0000000E+00;0;  0.0000000E+00;  0.0000000E+00;  0.0000000E+00;0;  0.0000000E+00;  1.0000000E+04;  0.0000000E+00;  0.0000000E+00;  1.0000000E+04;  0.0000000E+00;  1.0000000E+04;  0.0000000E+00;  0.0000000E+00;  0.0000000E+00;  0.0000000E+00;
  2.1199999E+00;  9.9999998E-03; -3.1999999E-01;820;  0.0000000E+00;  0.0000000E+00;  0.0000000E+00;  1.0000000E+03;  4.0000001E-01;  0.0000000E+00;0;  0.0000000E+00;  0.0000000E+00;  0.0000000E+00;0;  0.0000000E+00;  1.0000000E+04;  0.0000000E+00;  0.0000000E+00;  1.0000000E+04;  0.0000000E+00;  1.0000000E+04;  0.0000000E+00;  0.0000000E+00;  0.0000000E+00;  0.0000000E+00;
  2.1199999E+00;  9.9999998E-03; -3.0000001E-01;821;  0.0000000E+00;  0.0000000E+00;  0.0000000E+00;  1.0000000E+03;  4.0000001E-01;  0.0000000E+00;0;  0.0000000E+00;  0.0000000E+00;  0.0000000E+00;0;  0.0000000E+00;  1.0000000E+04;  0.0000000E+00;  0.0000000E+00;  1.0000000E+04;  0.0000000E+00;  1.0000000E+04;  0.0000000E+00;  0.0000000E+00;  0.0000000E+00;  0.0000000E+00;
  2.1199999E+00;  9.9999998E-03; -2.8000000E-01;822;  0.0000000E+00;  0.0000000E+00;  0.0000000E+00;  1.0000000E+03;  4.0000001E-01;  0.0000000E+00;0;  0.0000000E+00;  0.0000000E+00;  0.0000000E+00;0;  0.0000000E+00;  1.0000000E+04;  0.0000000E+00;  0.0000000E+00;  1.0000000E+04;  0.0000000E+00;  1.0000000E+04;  0.0000000E+00;  0.0000000E+00;  0.0000000E+00;  0.0000000E+00;
  2.1199999E+00;  9.9999998E-03; -2.5999999E-01;823;  0.0000000E+00;  0.0000000E+00;  0.0000000E+00;  1.0000000E+03;  4.0000001E-01;  0.0000000E+00;0;  0.0000000E+00;  0.0000000E+00;  0.0000000E+00;0;  0.0000000E+00;  1.0000000E+04;  0.0000000E+00;  0.0000000E+00;  1.0000000E+04;  0.0000000E+00;  1.0000000E+04;  0.0000000E+00;  0.0000000E+00;  0.0000000E+00;  0.0000000E+00;
  2.1199999E+00;  9.9999998E-03; -2.3999999E-01;824;  0.0000000E+00;  0.0000000E+00;  0.0000000E+00;  1.0000000E+03;  4.0000001E-01;  0.0000000E+00;0;  0.0000000E+00;  0.0000000E+00;  0.0000000E+00;0;  0.0000000E+00;  1.0000000E+04;  0.0000000E+00;  0.0000000E+00;  1.0000000E+04;  0.0000000E+00;  1.0000000E+04;  0.0000000E+00;  0.0000000E+00;  0.0000000E+00;  0.0000000E+00;
  2.1199999E+00;  9.9999998E-03; -2.2000000E-01;825;  0.0000000E+00;  0.0000000E+00;  0.0000000E+00;  1.0000000E+03;  4.0000001E-01;  0.0000000E+00;0;  0.0000000E+00;  0.0000000E+00;  0.0000000E+00;0;  0.0000000E+00;  1.0000000E+04;  0.0000000E+00;  0.0000000E+00;  1.0000000E+04;  0.0000000E+00;  1.0000000E+04;  0.0000000E+00;  0.0000000E+00;  0.0000000E+00;  0.0000000E+00;
  2.1199999E+00;  9.9999998E-03; -2.0000000E-01;826;  0.0000000E+00;  0.0000000E+00;  0.0000000E+00;  1.0000000E+03;  4.0000001E-01;  0.0000000E+00;0;  0.0000000E+00;  0.0000000E+00;  0.0000000E+00;0;  0.0000000E+00;  1.0000000E+04;  0.0000000E+00;  0.0000000E+00;  1.0000000E+04;  0.0000000E+00;  1.0000000E+04;  0.0000000E+00;  0.0000000E+00;  0.0000000E+00;  0.0000000E+00;
  2.1199999E+00;  9.9999998E-03; -1.8000001E-01;827;  0.0000000E+00;  0.0000000E+00;  0.0000000E+00;  1.0000000E+03;  4.0000001E-01;  0.0000000E+00;0;  0.0000000E+00;  0.0000000E+00;  0.0000000E+00;0;  0.0000000E+00;  1.0000000E+04;  0.0000000E+00;  0.0000000E+00;  1.0000000E+04;  0.0000000E+00;  1.0000000E+04;  0.0000000E+00;  0.0000000E+00;  0.0000000E+00;  0.0000000E+00;
  2.1199999E+00;  9.9999998E-03; -1.6000000E-01;828;  0.0000000E+00;  0.0000000E+00;  0.0000000E+00;  1.0000000E+03;  4.0000001E-01;  0.0000000E+00;0;  0.0000000E+00;  0.0000000E+00;  0.0000000E+00;0;  0.0000000E+00;  1.0000000E+04;  0.0000000E+00;  0.0000000E+00;  1.0000000E+04;  0.0000000E+00;  1.0000000E+04;  0.0000000E+00;  0.0000000E+00;  0.0000000E+00;  0.0000000E+00;
  2.1199999E+00;  9.9999998E-03; -1.4000000E-01;829;  0.0000000E+00;  0.0000000E+00;  0.0000000E+00;  1.0000000E+03;  4.0000001E-01;  0.0000000E+00;0;  0.0000000E+00;  0.0000000E+00;  0.0000000E+00;0;  0.0000000E+00;  1.0000000E+04;  0.0000000E+00;  0.0000000E+00;  1.0000000E+04;  0.0000000E+00;  1.0000000E+04;  0.0000000E+00;  0.0000000E+00;  0.0000000E+00;  0.0000000E+00;
  2.1199999E+00;  9.9999998E-03; -1.2000000E-01;830;  0.0000000E+00;  0.0000000E+00;  0.0000000E+00;  1.0000000E+03;  4.0000001E-01;  0.0000000E+00;0;  0.0000000E+00;  0.0000000E+00;  0.0000000E+00;0;  0.0000000E+00;  1.0000000E+04;  0.0000000E+00;  0.0000000E+00;  1.0000000E+04;  0.0000000E+00;  1.0000000E+04;  0.0000000E+00;  0.0000000E+00;  0.0000000E+00;  0.0000000E+00;
  2.1199999E+00;  9.9999998E-03; -1.0000000E-01;831;  0.0000000E+00;  0.0000000E+00;  0.0000000E+00;  1.0000000E+03;  4.0000001E-01;  0.0000000E+00;0;  0.0000000E+00;  0.0000000E+00;  0.0000000E+00;0;  0.0000000E+00;  1.0000000E+04;  0.0000000E+00;  0.0000000E+00;  1.0000000E+04;  0.0000000E+00;  1.0000000E+04;  0.0000000E+00;  0.0000000E+00;  0.0000000E+00;  0.0000000E+00;
  2.1199999E+00;  9.9999998E-03; -7.9999998E-02;832;  0.0000000E+00;  0.0000000E+00;  0.0000000E+00;  1.0000000E+03;  4.0000001E-01;  0.0000000E+00;0;  0.0000000E+00;  0.0000000E+00;  0.0000000E+00;0;  0.0000000E+00;  1.0000000E+04;  0.0000000E+00;  0.0000000E+00;  1.0000000E+04;  0.0000000E+00;  1.0000000E+04;  0.0000000E+00;  0.0000000E+00;  0.0000000E+00;  0.0000000E+00;
  2.1199999E+00;  9.9999998E-03; -5.9999999E-02;833;  0.0000000E+00;  0.0000000E+00;  0.0000000E+00;  1.0000000E+03;  4.0000001E-01;  0.0000000E+00;0;  0.0000000E+00;  0.0000000E+00;  0.0000000E+00;0;  0.0000000E+00;  1.0000000E+04;  0.0000000E+00;  0.0000000E+00;  1.0000000E+04;  0.0000000E+00;  1.0000000E+04;  0.0000000E+00;  0.0000000E+00;  0.0000000E+00;  0.0000000E+00;
  2.1199999E+00;  9.9999998E-03; -3.9999999E-02;834;  0.0000000E+00;  0.0000000E+00;  0.0000000E+00;  1.0000000E+03;  4.0000001E-01;  0.0000000E+00;0;  0.0000000E+00;  0.0000000E+00;  0.0000000E+00;0;  0.0000000E+00;  1.0000000E+04;  0.0000000E+00;  0.0000000E+00;  1.0000000E+04;  0.0000000E+00;  1.0000000E+04;  0.0000000E+00;  0.0000000E+00;  0.0000000E+00;  0.0000000E+00;
  2.1199999E+00;  9.9999998E-03; -2.0000000E-02;835;  0.0000000E+00;  0.0000000E+00;  0.0000000E+00;  1.0000000E+03;  4.0000001E-01;  0.0000000E+00;0;  0.0000000E+00;  0.0000000E+00;  0.0000000E+00;0;  0.0000000E+00;  1.0000000E+04;  0.0000000E+00;  0.0000000E+00;  1.0000000E+04;  0.0000000E+00;  1.0000000E+04;  0.0000000E+00;  0.0000000E+00;  0.0000000E+00;  0.0000000E+00;
  2.1199999E+00;  9.9999998E-03;  0.0000000E+00;836;  0.0000000E+00;  0.0000000E+00;  0.0000000E+00;  1.0000000E+03;  4.0000001E-01;  0.0000000E+00;0;  0.0000000E+00;  0.0000000E+00;  0.0000000E+00;0;  0.0000000E+00;  1.0000000E+04;  0.0000000E+00;  0.0000000E+00;  1.0000000E+04;  0.0000000E+00;  1.0000000E+04;  0.0000000E+00;  0.0000000E+00;  0.0000000E+00;  0.0000000E+00;
  2.1199999E+00;  9.9999998E-03;  2.0000000E-02;837;  0.0000000E+00;  0.0000000E+00;  0.0000000E+00;  1.0000000E+03;  4.0000001E-01;  0.0000000E+00;0;  0.0000000E+00;  0.0000000E+00;  0.0000000E+00;0;  0.0000000E+00;  1.0000000E+04;  0.0000000E+00;  0.0000000E+00;  1.0000000E+04;  0.0000000E+00;  1.0000000E+04;  0.0000000E+00;  0.0000000E+00;  0.0000000E+00;  0.0000000E+00;
  2.1199999E+00;  9.9999998E-03;  3.9999999E-02;838;  0.0000000E+00;  0.0000000E+00;  0.0000000E+00;  1.0000000E+03;  4.0000001E-01;  0.0000000E+00;0;  0.0000000E+00;  0.0000000E+00;  0.0000000E+00;0;  0.0000000E+00;  1.0000000E+04;  0.0000000E+00;  0.0000000E+00;  1.0000000E+04;  0.0000000E+00;  1.0000000E+04;  0.0000000E+00;  0.0000000E+00;  0.0000000E+00;  0.0000000E+00;
  2.1199999E+00;  9.9999998E-03;  5.9999999E-02;839;  0.0000000E+00;  0.0000000E+00;  0.0000000E+00;  1.0000000E+03;  4.0000001E-01;  0.0000000E+00;0;  0.0000000E+00;  0.0000000E+00;  0.0000000E+00;0;  0.0000000E+00;  1.0000000E+04;  0.0000000E+00;  0.0000000E+00;  1.0000000E+04;  0.0000000E+00;  1.0000000E+04;  0.0000000E+00;  0.0000000E+00;  0.0000000E+00;  0.0000000E+00;
  2.1199999E+00;  9.9999998E-03;  7.9999998E-02;840;  0.0000000E+00;  0.0000000E+00;  0.0000000E+00;  1.0000000E+03;  4.0000001E-01;  0.0000000E+00;0;  0.0000000E+00;  0.0000000E+00;  0.0000000E+00;0;  0.0000000E+00;  1.0000000E+04;  0.0000000E+00;  0.0000000E+00;  1.0000000E+04;  0.0000000E+00;  1.0000000E+04;  0.0000000E+00;  0.0000000E+00;  0.0000000E+00;  0.0000000E+00;
  2.1199999E+00;  9.9999998E-03;  1.0000000E-01;841;  0.0000000E+00;  0.0000000E+00;  0.0000000E+00;  1.0000000E+03;  4.0000001E-01;  0.0000000E+00;0;  0.0000000E+00;  0.0000000E+00;  0.0000000E+00;0;  0.0000000E+00;  1.0000000E+04;  0.0000000E+00;  0.0000000E+00;  1.0000000E+04;  0.0000000E+00;  1.0000000E+04;  0.0000000E+00;  0.0000000E+00;  0.0000000E+00;  0.0000000E+00;
  2.1199999E+00;  9.9999998E-03;  1.2000000E-01;842;  0.0000000E+00;  0.0000000E+00;  0.0000000E+00;  1.0000000E+03;  4.0000001E-01;  0.0000000E+00;0;  0.0000000E+00;  0.0000000E+00;  0.0000000E+00;0;  0.0000000E+00;  1.0000000E+04;  0.0000000E+00;  0.0000000E+00;  1.0000000E+04;  0.0000000E+00;  1.0000000E+04;  0.0000000E+00;  0.0000000E+00;  0.0000000E+00;  0.0000000E+00;
  2.1199999E+00;  9.9999998E-03;  1.4000000E-01;843;  0.0000000E+00;  0.0000000E+00;  0.0000000E+00;  1.0000000E+03;  4.0000001E-01;  0.0000000E+00;0;  0.0000000E+00;  0.0000000E+00;  0.0000000E+00;0;  0.0000000E+00;  1.0000000E+04;  0.0000000E+00;  0.0000000E+00;  1.0000000E+04;  0.0000000E+00;  1.0000000E+04;  0.0000000E+00;  0.0000000E+00;  0.0000000E+00;  0.0000000E+00;
  2.1199999E+00;  9.9999998E-03;  1.6000000E-01;844;  0.0000000E+00;  0.0000000E+00;  0.0000000E+00;  1.0000000E+03;  4.0000001E-01;  0.0000000E+00;0;  0.0000000E+00;  0.0000000E+00;  0.0000000E+00;0;  0.0000000E+00;  1.0000000E+04;  0.0000000E+00;  0.0000000E+00;  1.0000000E+04;  0.0000000E+00;  1.0000000E+04;  0.0000000E+00;  0.0000000E+00;  0.0000000E+00;  0.0000000E+00;
  2.1199999E+00;  9.9999998E-03;  1.8000001E-01;845;  0.0000000E+00;  0.0000000E+00;  0.0000000E+00;  1.0000000E+03;  4.0000001E-01;  0.0000000E+00;0;  0.0000000E+00;  0.0000000E+00;  0.0000000E+00;0;  0.0000000E+00;  1.0000000E+04;  0.0000000E+00;  0.0000000E+00;  1.0000000E+04;  0.0000000E+00;  1.0000000E+04;  0.0000000E+00;  0.0000000E+00;  0.0000000E+00;  0.0000000E+00;
  2.1199999E+00;  9.9999998E-03;  2.0000000E-01;846;  0.0000000E+00;  0.0000000E+00;  0.0000000E+00;  1.0000000E+03;  4.0000001E-01;  0.0000000E+00;0;  0.0000000E+00;  0.0000000E+00;  0.0000000E+00;0;  0.0000000E+00;  1.0000000E+04;  0.0000000E+00;  0.0000000E+00;  1.0000000E+04;  0.0000000E+00;  1.0000000E+04;  0.0000000E+00;  0.0000000E+00;  0.0000000E+00;  0.0000000E+00;
  2.1199999E+00;  9.9999998E-03;  2.2000000E-01;847;  0.0000000E+00;  0.0000000E+00;  0.0000000E+00;  1.0000000E+03;  4.0000001E-01;  0.0000000E+00;0;  0.0000000E+00;  0.0000000E+00;  0.0000000E+00;0;  0.0000000E+00;  1.0000000E+04;  0.0000000E+00;  0.0000000E+00;  1.0000000E+04;  0.0000000E+00;  1.0000000E+04;  0.0000000E+00;  0.0000000E+00;  0.0000000E+00;  0.0000000E+00;
  2.1199999E+00;  9.9999998E-03;  2.3999999E-01;848;  0.0000000E+00;  0.0000000E+00;  0.0000000E+00;  1.0000000E+03;  4.0000001E-01;  0.0000000E+00;0;  0.0000000E+00;  0.0000000E+00;  0.0000000E+00;0;  0.0000000E+00;  1.0000000E+04;  0.0000000E+00;  0.0000000E+00;  1.0000000E+04;  0.0000000E+00;  1.0000000E+04;  0.0000000E+00;  0.0000000E+00;  0.0000000E+00;  0.0000000E+00;
  2.1199999E+00;  9.9999998E-03;  2.5999999E-01;849;  0.0000000E+00;  0.0000000E+00;  0.0000000E+00;  1.0000000E+03;  4.0000001E-01;  0.0000000E+00;0;  0.0000000E+00;  0.0000000E+00;  0.0000000E+00;0;  0.0000000E+00;  1.0000000E+04;  0.0000000E+00;  0.0000000E+00;  1.0000000E+04;  0.0000000E+00;  1.0000000E+04;  0.0000000E+00;  0.0000000E+00;  0.0000000E+00;  0.0000000E+00;
  2.1199999E+00;  9.9999998E-03;  2.8000000E-01;850;  0.0000000E+00;  0.0000000E+00;  0.0000000E+00;  1.0000000E+03;  4.0000001E-01;  0.0000000E+00;0;  0.0000000E+00;  0.0000000E+00;  0.0000000E+00;0;  0.0000000E+00;  1.0000000E+04;  0.0000000E+00;  0.0000000E+00;  1.0000000E+04;  0.0000000E+00;  1.0000000E+04;  0.0000000E+00;  0.0000000E+00;  0.0000000E+00;  0.0000000E+00;
  2.1199999E+00;  9.9999998E-03;  3.0000001E-01;851;  0.0000000E+00;  0.0000000E+00;  0.0000000E+00;  1.0000000E+03;  4.0000001E-01;  0.0000000E+00;0;  0.0000000E+00;  0.0000000E+00;  0.0000000E+00;0;  0.0000000E+00;  1.0000000E+04;  0.0000000E+00;  0.0000000E+00;  1.0000000E+04;  0.0000000E+00;  1.0000000E+04;  0.0000000E+00;  0.0000000E+00;  0.0000000E+00;  0.0000000E+00;
  2.1199999E+00;  9.9999998E-03;  3.1999999E-01;852;  0.0000000E+00;  0.0000000E+00;  0.0000000E+00;  1.0000000E+03;  4.0000001E-01;  0.0000000E+00;0;  0.0000000E+00;  0.0000000E+00;  0.0000000E+00;0;  0.0000000E+00;  1.0000000E+04;  0.0000000E+00;  0.0000000E+00;  1.0000000E+04;  0.0000000E+00;  1.0000000E+04;  0.0000000E+00;  0.0000000E+00;  0.0000000E+00;  0.0000000E+00;
  2.1199999E+00;  9.9999998E-03;  3.4000000E-01;853;  0.0000000E+00;  0.0000000E+00;  0.0000000E+00;  1.0000000E+03;  4.0000001E-01;  0.0000000E+00;0;  0.0000000E+00;  0.0000000E+00;  0.0000000E+00;0;  0.0000000E+00;  1.0000000E+04;  0.0000000E+00;  0.0000000E+00;  1.0000000E+04;  0.0000000E+00;  1.0000000E+04;  0.0000000E+00;  0.0000000E+00;  0.0000000E+00;  0.0000000E+00;
  2.1199999E+00;  9.9999998E-03;  3.6000001E-01;854;  0.0000000E+00;  0.0000000E+00;  0.0000000E+00;  1.0000000E+03;  4.0000001E-01;  0.0000000E+00;0;  0.0000000E+00;  0.0000000E+00;  0.0000000E+00;0;  0.0000000E+00;  1.0000000E+04;  0.0000000E+00;  0.0000000E+00;  1.0000000E+04;  0.0000000E+00;  1.0000000E+04;  0.0000000E+00;  0.0000000E+00;  0.0000000E+00;  0.0000000E+00;
  2.1199999E+00;  9.9999998E-03;  3.8000000E-01;855;  0.0000000E+00;  0.0000000E+00;  0.0000000E+00;  1.0000000E+03;  4.0000001E-01;  0.0000000E+00;0;  0.0000000E+00;  0.0000000E+00;  0.0000000E+00;0;  0.0000000E+00;  1.0000000E+04;  0.0000000E+00;  0.0000000E+00;  1.0000000E+04;  0.0000000E+00;  1.0000000E+04;  0.0000000E+00;  0.0000000E+00;  0.0000000E+00;  0.0000000E+00;
  2.1199999E+00;  9.9999998E-03;  4.0000001E-01;856;  0.0000000E+00;  0.0000000E+00;  0.0000000E+00;  1.0000000E+03;  4.0000001E-01;  0.0000000E+00;0;  0.0000000E+00;  0.0000000E+00;  0.0000000E+00;0;  0.0000000E+00;  1.0000000E+04;  0.0000000E+00;  0.0000000E+00;  1.0000000E+04;  0.0000000E+00;  1.0000000E+04;  0.0000000E+00;  0.0000000E+00;  0.0000000E+00;  0.0000000E+00;
  2.1400001E+00;  9.9999998E-03; -3.8000000E-01;857;  0.0000000E+00;  0.0000000E+00;  0.0000000E+00;  1.0000000E+03;  4.0000001E-01;  0.0000000E+00;0;  0.0000000E+00;  0.0000000E+00;  0.0000000E+00;0;  0.0000000E+00;  1.0000000E+04;  0.0000000E+00;  0.0000000E+00;  1.0000000E+04;  0.0000000E+00;  1.0000000E+04;  0.0000000E+00;  0.0000000E+00;  0.0000000E+00;  0.0000000E+00;
  2.1400001E+00;  9.9999998E-03; -3.6000001E-01;858;  0.0000000E+00;  0.0000000E+00;  0.0000000E+00;  1.0000000E+03;  4.0000001E-01;  0.0000000E+00;0;  0.0000000E+00;  0.0000000E+00;  0.0000000E+00;0;  0.0000000E+00;  1.0000000E+04;  0.0000000E+00;  0.0000000E+00;  1.0000000E+04;  0.0000000E+00;  1.0000000E+04;  0.0000000E+00;  0.0000000E+00;  0.0000000E+00;  0.0000000E+00;
  2.1400001E+00;  9.9999998E-03; -3.4000000E-01;859;  0.0000000E+00;  0.0000000E+00;  0.0000000E+00;  1.0000000E+03;  4.0000001E-01;  0.0000000E+00;0;  0.0000000E+00;  0.0000000E+00;  0.0000000E+00;0;  0.0000000E+00;  1.0000000E+04;  0.0000000E+00;  0.0000000E+00;  1.0000000E+04;  0.0000000E+00;  1.0000000E+04;  0.0000000E+00;  0.0000000E+00;  0.0000000E+00;  0.0000000E+00;
  2.1400001E+00;  9.9999998E-03; -3.1999999E-01;860;  0.0000000E+00;  0.0000000E+00;  0.0000000E+00;  1.0000000E+03;  4.0000001E-01;  0.0000000E+00;0;  0.0000000E+00;  0.0000000E+00;  0.0000000E+00;0;  0.0000000E+00;  1.0000000E+04;  0.0000000E+00;  0.0000000E+00;  1.0000000E+04;  0.0000000E+00;  1.0000000E+04;  0.0000000E+00;  0.0000000E+00;  0.0000000E+00;  0.0000000E+00;
  2.1400001E+00;  9.9999998E-03; -3.0000001E-01;861;  0.0000000E+00;  0.0000000E+00;  0.0000000E+00;  1.0000000E+03;  4.0000001E-01;  0.0000000E+00;0;  0.0000000E+00;  0.0000000E+00;  0.0000000E+00;0;  0.0000000E+00;  1.0000000E+04;  0.0000000E+00;  0.0000000E+00;  1.0000000E+04;  0.0000000E+00;  1.0000000E+04;  0.0000000E+00;  0.0000000E+00;  0.0000000E+00;  0.0000000E+00;
  2.1400001E+00;  9.9999998E-03; -2.8000000E-01;862;  0.0000000E+00;  0.0000000E+00;  0.0000000E+00;  1.0000000E+03;  4.0000001E-01;  0.0000000E+00;0;  0.0000000E+00;  0.0000000E+00;  0.0000000E+00;0;  0.0000000E+00;  1.0000000E+04;  0.0000000E+00;  0.0000000E+00;  1.0000000E+04;  0.0000000E+00;  1.0000000E+04;  0.0000000E+00;  0.0000000E+00;  0.0000000E+00;  0.0000000E+00;
  2.1400001E+00;  9.9999998E-03; -2.5999999E-01;863;  0.0000000E+00;  0.0000000E+00;  0.0000000E+00;  1.0000000E+03;  4.0000001E-01;  0.0000000E+00;0;  0.0000000E+00;  0.0000000E+00;  0.0000000E+00;0;  0.0000000E+00;  1.0000000E+04;  0.0000000E+00;  0.0000000E+00;  1.0000000E+04;  0.0000000E+00;  1.0000000E+04;  0.0000000E+00;  0.0000000E+00;  0.0000000E+00;  0.0000000E+00;
  2.1400001E+00;  9.9999998E-03; -2.3999999E-01;864;  0.0000000E+00;  0.0000000E+00;  0.0000000E+00;  1.0000000E+03;  4.0000001E-01;  0.0000000E+00;0;  0.0000000E+00;  0.0000000E+00;  0.0000000E+00;0;  0.0000000E+00;  1.0000000E+04;  0.0000000E+00;  0.0000000E+00;  1.0000000E+04;  0.0000000E+00;  1.0000000E+04;  0.0000000E+00;  0.0000000E+00;  0.0000000E+00;  0.0000000E+00;
  2.1400001E+00;  9.9999998E-03; -2.2000000E-01;865;  0.0000000E+00;  0.0000000E+00;  0.0000000E+00;  1.0000000E+03;  4.0000001E-01;  0.0000000E+00;0;  0.0000000E+00;  0.0000000E+00;  0.0000000E+00;0;  0.0000000E+00;  1.0000000E+04;  0.0000000E+00;  0.0000000E+00;  1.0000000E+04;  0.0000000E+00;  1.0000000E+04;  0.0000000E+00;  0.0000000E+00;  0.0000000E+00;  0.0000000E+00;
  2.1400001E+00;  9.9999998E-03; -2.0000000E-01;866;  0.0000000E+00;  0.0000000E+00;  0.0000000E+00;  1.0000000E+03;  4.0000001E-01;  0.0000000E+00;0;  0.0000000E+00;  0.0000000E+00;  0.0000000E+00;0;  0.0000000E+00;  1.0000000E+04;  0.0000000E+00;  0.0000000E+00;  1.0000000E+04;  0.0000000E+00;  1.0000000E+04;  0.0000000E+00;  0.0000000E+00;  0.0000000E+00;  0.0000000E+00;
  2.1400001E+00;  9.9999998E-03; -1.8000001E-01;867;  0.0000000E+00;  0.0000000E+00;  0.0000000E+00;  1.0000000E+03;  4.0000001E-01;  0.0000000E+00;0;  0.0000000E+00;  0.0000000E+00;  0.0000000E+00;0;  0.0000000E+00;  1.0000000E+04;  0.0000000E+00;  0.0000000E+00;  1.0000000E+04;  0.0000000E+00;  1.0000000E+04;  0.0000000E+00;  0.0000000E+00;  0.0000000E+00;  0.0000000E+00;
  2.1400001E+00;  9.9999998E-03; -1.6000000E-01;868;  0.0000000E+00;  0.0000000E+00;  0.0000000E+00;  1.0000000E+03;  4.0000001E-01;  0.0000000E+00;0;  0.0000000E+00;  0.0000000E+00;  0.0000000E+00;0;  0.0000000E+00;  1.0000000E+04;  0.0000000E+00;  0.0000000E+00;  1.0000000E+04;  0.0000000E+00;  1.0000000E+04;  0.0000000E+00;  0.0000000E+00;  0.0000000E+00;  0.0000000E+00;
  2.1400001E+00;  9.9999998E-03; -1.4000000E-01;869;  0.0000000E+00;  0.0000000E+00;  0.0000000E+00;  1.0000000E+03;  4.0000001E-01;  0.0000000E+00;0;  0.0000000E+00;  0.0000000E+00;  0.0000000E+00;0;  0.0000000E+00;  1.0000000E+04;  0.0000000E+00;  0.0000000E+00;  1.0000000E+04;  0.0000000E+00;  1.0000000E+04;  0.0000000E+00;  0.0000000E+00;  0.0000000E+00;  0.0000000E+00;
  2.1400001E+00;  9.9999998E-03; -1.2000000E-01;870;  0.0000000E+00;  0.0000000E+00;  0.0000000E+00;  1.0000000E+03;  4.0000001E-01;  0.0000000E+00;0;  0.0000000E+00;  0.0000000E+00;  0.0000000E+00;0;  0.0000000E+00;  1.0000000E+04;  0.0000000E+00;  0.0000000E+00;  1.0000000E+04;  0.0000000E+00;  1.0000000E+04;  0.0000000E+00;  0.0000000E+00;  0.0000000E+00;  0.0000000E+00;
  2.1400001E+00;  9.9999998E-03; -1.0000000E-01;871;  0.0000000E+00;  0.0000000E+00;  0.0000000E+00;  1.0000000E+03;  4.0000001E-01;  0.0000000E+00;0;  0.0000000E+00;  0.0000000E+00;  0.0000000E+00;0;  0.0000000E+00;  1.0000000E+04;  0.0000000E+00;  0.0000000E+00;  1.0000000E+04;  0.0000000E+00;  1.0000000E+04;  0.0000000E+00;  0.0000000E+00;  0.0000000E+00;  0.0000000E+00;
  2.1400001E+00;  9.9999998E-03; -7.9999998E-02;872;  0.0000000E+00;  0.0000000E+00;  0.0000000E+00;  1.0000000E+03;  4.0000001E-01;  0.0000000E+00;0;  0.0000000E+00;  0.0000000E+00;  0.0000000E+00;0;  0.0000000E+00;  1.0000000E+04;  0.0000000E+00;  0.0000000E+00;  1.0000000E+04;  0.0000000E+00;  1.0000000E+04;  0.0000000E+00;  0.0000000E+00;  0.0000000E+00;  0.0000000E+00;
  2.1400001E+00;  9.9999998E-03; -5.9999999E-02;873;  0.0000000E+00;  0.0000000E+00;  0.0000000E+00;  1.0000000E+03;  4.0000001E-01;  0.0000000E+00;0;  0.0000000E+00;  0.0000000E+00;  0.0000000E+00;0;  0.0000000E+00;  1.0000000E+04;  0.0000000E+00;  0.0000000E+00;  1.0000000E+04;  0.0000000E+00;  1.0000000E+04;  0.0000000E+00;  0.0000000E+00;  0.0000000E+00;  0.0000000E+00;
  2.1400001E+00;  9.9999998E-03; -3.9999999E-02;874;  0.0000000E+00;  0.0000000E+00;  0.0000000E+00;  1.0000000E+03;  4.0000001E-01;  0.0000000E+00;0;  0.0000000E+00;  0.0000000E+00;  0.0000000E+00;0;  0.0000000E+00;  1.0000000E+04;  0.0000000E+00;  0.0000000E+00;  1.0000000E+04;  0.0000000E+00;  1.0000000E+04;  0.0000000E+00;  0.0000000E+00;  0.0000000E+00;  0.0000000E+00;
  2.1400001E+00;  9.9999998E-03; -2.0000000E-02;875;  0.0000000E+00;  0.0000000E+00;  0.0000000E+00;  1.0000000E+03;  4.0000001E-01;  0.0000000E+00;0;  0.0000000E+00;  0.0000000E+00;  0.0000000E+00;0;  0.0000000E+00;  1.0000000E+04;  0.0000000E+00;  0.0000000E+00;  1.0000000E+04;  0.0000000E+00;  1.0000000E+04;  0.0000000E+00;  0.0000000E+00;  0.0000000E+00;  0.0000000E+00;
  2.1400001E+00;  9.9999998E-03;  0.0000000E+00;876;  0.0000000E+00;  0.0000000E+00;  0.0000000E+00;  1.0000000E+03;  4.0000001E-01;  0.0000000E+00;0;  0.0000000E+00;  0.0000000E+00;  0.0000000E+00;0;  0.0000000E+00;  1.0000000E+04;  0.0000000E+00;  0.0000000E+00;  1.0000000E+04;  0.0000000E+00;  1.0000000E+04;  0.0000000E+00;  0.0000000E+00;  0.0000000E+00;  0.0000000E+00;
  2.1400001E+00;  9.9999998E-03;  2.0000000E-02;877;  0.0000000E+00;  0.0000000E+00;  0.0000000E+00;  1.0000000E+03;  4.0000001E-01;  0.0000000E+00;0;  0.0000000E+00;  0.0000000E+00;  0.0000000E+00;0;  0.0000000E+00;  1.0000000E+04;  0.0000000E+00;  0.0000000E+00;  1.0000000E+04;  0.0000000E+00;  1.0000000E+04;  0.0000000E+00;  0.0000000E+00;  0.0000000E+00;  0.0000000E+00;
  2.1400001E+00;  9.9999998E-03;  3.9999999E-02;878;  0.0000000E+00;  0.0000000E+00;  0.0000000E+00;  1.0000000E+03;  4.0000001E-01;  0.0000000E+00;0;  0.0000000E+00;  0.0000000E+00;  0.0000000E+00;0;  0.0000000E+00;  1.0000000E+04;  0.0000000E+00;  0.0000000E+00;  1.0000000E+04;  0.0000000E+00;  1.0000000E+04;  0.0000000E+00;  0.0000000E+00;  0.0000000E+00;  0.0000000E+00;
  2.1400001E+00;  9.9999998E-03;  5.9999999E-02;879;  0.0000000E+00;  0.0000000E+00;  0.0000000E+00;  1.0000000E+03;  4.0000001E-01;  0.0000000E+00;0;  0.0000000E+00;  0.0000000E+00;  0.0000000E+00;0;  0.0000000E+00;  1.0000000E+04;  0.0000000E+00;  0.0000000E+00;  1.0000000E+04;  0.0000000E+00;  1.0000000E+04;  0.0000000E+00;  0.0000000E+00;  0.0000000E+00;  0.0000000E+00;
  2.1400001E+00;  9.9999998E-03;  7.9999998E-02;880;  0.0000000E+00;  0.0000000E+00;  0.0000000E+00;  1.0000000E+03;  4.0000001E-01;  0.0000000E+00;0;  0.0000000E+00;  0.0000000E+00;  0.0000000E+00;0;  0.0000000E+00;  1.0000000E+04;  0.0000000E+00;  0.0000000E+00;  1.0000000E+04;  0.0000000E+00;  1.0000000E+04;  0.0000000E+00;  0.0000000E+00;  0.0000000E+00;  0.0000000E+00;
  2.1400001E+00;  9.9999998E-03;  1.0000000E-01;881;  0.0000000E+00;  0.0000000E+00;  0.0000000E+00;  1.0000000E+03;  4.0000001E-01;  0.0000000E+00;0;  0.0000000E+00;  0.0000000E+00;  0.0000000E+00;0;  0.0000000E+00;  1.0000000E+04;  0.0000000E+00;  0.0000000E+00;  1.0000000E+04;  0.0000000E+00;  1.0000000E+04;  0.0000000E+00;  0.0000000E+00;  0.0000000E+00;  0.0000000E+00;
  2.1400001E+00;  9.9999998E-03;  1.2000000E-01;882;  0.0000000E+00;  0.0000000E+00;  0.0000000E+00;  1.0000000E+03;  4.0000001E-01;  0.0000000E+00;0;  0.0000000E+00;  0.0000000E+00;  0.0000000E+00;0;  0.0000000E+00;  1.0000000E+04;  0.0000000E+00;  0.0000000E+00;  1.0000000E+04;  0.0000000E+00;  1.0000000E+04;  0.0000000E+00;  0.0000000E+00;  0.0000000E+00;  0.0000000E+00;
  2.1400001E+00;  9.9999998E-03;  1.4000000E-01;883;  0.0000000E+00;  0.0000000E+00;  0.0000000E+00;  1.0000000E+03;  4.0000001E-01;  0.0000000E+00;0;  0.0000000E+00;  0.0000000E+00;  0.0000000E+00;0;  0.0000000E+00;  1.0000000E+04;  0.0000000E+00;  0.0000000E+00;  1.0000000E+04;  0.0000000E+00;  1.0000000E+04;  0.0000000E+00;  0.0000000E+00;  0.0000000E+00;  0.0000000E+00;
  2.1400001E+00;  9.9999998E-03;  1.6000000E-01;884;  0.0000000E+00;  0.0000000E+00;  0.0000000E+00;  1.0000000E+03;  4.0000001E-01;  0.0000000E+00;0;  0.0000000E+00;  0.0000000E+00;  0.0000000E+00;0;  0.0000000E+00;  1.0000000E+04;  0.0000000E+00;  0.0000000E+00;  1.0000000E+04;  0.0000000E+00;  1.0000000E+04;  0.0000000E+00;  0.0000000E+00;  0.0000000E+00;  0.0000000E+00;
  2.1400001E+00;  9.9999998E-03;  1.8000001E-01;885;  0.0000000E+00;  0.0000000E+00;  0.0000000E+00;  1.0000000E+03;  4.0000001E-01;  0.0000000E+00;0;  0.0000000E+00;  0.0000000E+00;  0.0000000E+00;0;  0.0000000E+00;  1.0000000E+04;  0.0000000E+00;  0.0000000E+00;  1.0000000E+04;  0.0000000E+00;  1.0000000E+04;  0.0000000E+00;  0.0000000E+00;  0.0000000E+00;  0.0000000E+00;
  2.1400001E+00;  9.9999998E-03;  2.0000000E-01;886;  0.0000000E+00;  0.0000000E+00;  0.0000000E+00;  1.0000000E+03;  4.0000001E-01;  0.0000000E+00;0;  0.0000000E+00;  0.0000000E+00;  0.0000000E+00;0;  0.0000000E+00;  1.0000000E+04;  0.0000000E+00;  0.0000000E+00;  1.0000000E+04;  0.0000000E+00;  1.0000000E+04;  0.0000000E+00;  0.0000000E+00;  0.0000000E+00;  0.0000000E+00;
  2.1400001E+00;  9.9999998E-03;  2.2000000E-01;887;  0.0000000E+00;  0.0000000E+00;  0.0000000E+00;  1.0000000E+03;  4.0000001E-01;  0.0000000E+00;0;  0.0000000E+00;  0.0000000E+00;  0.0000000E+00;0;  0.0000000E+00;  1.0000000E+04;  0.0000000E+00;  0.0000000E+00;  1.0000000E+04;  0.0000000E+00;  1.0000000E+04;  0.0000000E+00;  0.0000000E+00;  0.0000000E+00;  0.0000000E+00;
  2.1400001E+00;  9.9999998E-03;  2.3999999E-01;888;  0.0000000E+00;  0.0000000E+00;  0.0000000E+00;  1.0000000E+03;  4.0000001E-01;  0.0000000E+00;0;  0.0000000E+00;  0.0000000E+00;  0.0000000E+00;0;  0.0000000E+00;  1.0000000E+04;  0.0000000E+00;  0.0000000E+00;  1.0000000E+04;  0.0000000E+00;  1.0000000E+04;  0.0000000E+00;  0.0000000E+00;  0.0000000E+00;  0.0000000E+00;
  2.1400001E+00;  9.9999998E-03;  2.5999999E-01;889;  0.0000000E+00;  0.0000000E+00;  0.0000000E+00;  1.0000000E+03;  4.0000001E-01;  0.0000000E+00;0;  0.0000000E+00;  0.0000000E+00;  0.0000000E+00;0;  0.0000000E+00;  1.0000000E+04;  0.0000000E+00;  0.0000000E+00;  1.0000000E+04;  0.0000000E+00;  1.0000000E+04;  0.0000000E+00;  0.0000000E+00;  0.0000000E+00;  0.0000000E+00;
  2.1400001E+00;  9.9999998E-03;  2.8000000E-01;890;  0.0000000E+00;  0.0000000E+00;  0.0000000E+00;  1.0000000E+03;  4.0000001E-01;  0.0000000E+00;0;  0.0000000E+00;  0.0000000E+00;  0.0000000E+00;0;  0.0000000E+00;  1.0000000E+04;  0.0000000E+00;  0.0000000E+00;  1.0000000E+04;  0.0000000E+00;  1.0000000E+04;  0.0000000E+00;  0.0000000E+00;  0.0000000E+00;  0.0000000E+00;
  2.1400001E+00;  9.9999998E-03;  3.0000001E-01;891;  0.0000000E+00;  0.0000000E+00;  0.0000000E+00;  1.0000000E+03;  4.0000001E-01;  0.0000000E+00;0;  0.0000000E+00;  0.0000000E+00;  0.0000000E+00;0;  0.0000000E+00;  1.0000000E+04;  0.0000000E+00;  0.0000000E+00;  1.0000000E+04;  0.0000000E+00;  1.0000000E+04;  0.0000000E+00;  0.0000000E+00;  0.0000000E+00;  0.0000000E+00;
  2.1400001E+00;  9.9999998E-03;  3.1999999E-01;892;  0.0000000E+00;  0.0000000E+00;  0.0000000E+00;  1.0000000E+03;  4.0000001E-01;  0.0000000E+00;0;  0.0000000E+00;  0.0000000E+00;  0.0000000E+00;0;  0.0000000E+00;  1.0000000E+04;  0.0000000E+00;  0.0000000E+00;  1.0000000E+04;  0.0000000E+00;  1.0000000E+04;  0.0000000E+00;  0.0000000E+00;  0.0000000E+00;  0.0000000E+00;
  2.1400001E+00;  9.9999998E-03;  3.4000000E-01;893;  0.0000000E+00;  0.0000000E+00;  0.0000000E+00;  1.0000000E+03;  4.0000001E-01;  0.0000000E+00;0;  0.0000000E+00;  0.0000000E+00;  0.0000000E+00;0;  0.0000000E+00;  1.0000000E+04;  0.0000000E+00;  0.0000000E+00;  1.0000000E+04;  0.0000000E+00;  1.0000000E+04;  0.0000000E+00;  0.0000000E+00;  0.0000000E+00;  0.0000000E+00;
  2.1400001E+00;  9.9999998E-03;  3.6000001E-01;894;  0.0000000E+00;  0.0000000E+00;  0.0000000E+00;  1.0000000E+03;  4.0000001E-01;  0.0000000E+00;0;  0.0000000E+00;  0.0000000E+00;  0.0000000E+00;0;  0.0000000E+00;  1.0000000E+04;  0.0000000E+00;  0.0000000E+00;  1.0000000E+04;  0.0000000E+00;  1.0000000E+04;  0.0000000E+00;  0.0000000E+00;  0.0000000E+00;  0.0000000E+00;
  2.1400001E+00;  9.9999998E-03;  3.8000000E-01;895;  0.0000000E+00;  0.0000000E+00;  0.0000000E+00;  1.0000000E+03;  4.0000001E-01;  0.0000000E+00;0;  0.0000000E+00;  0.0000000E+00;  0.0000000E+00;0;  0.0000000E+00;  1.0000000E+04;  0.0000000E+00;  0.0000000E+00;  1.0000000E+04;  0.0000000E+00;  1.0000000E+04;  0.0000000E+00;  0.0000000E+00;  0.0000000E+00;  0.0000000E+00;
  2.1400001E+00;  9.9999998E-03;  4.0000001E-01;896;  0.0000000E+00;  0.0000000E+00;  0.0000000E+00;  1.0000000E+03;  4.0000001E-01;  0.0000000E+00;0;  0.0000000E+00;  0.0000000E+00;  0.0000000E+00;0;  0.0000000E+00;  1.0000000E+04;  0.0000000E+00;  0.0000000E+00;  1.0000000E+04;  0.0000000E+00;  1.0000000E+04;  0.0000000E+00;  0.0000000E+00;  0.0000000E+00;  0.0000000E+00;
  2.1600001E+00;  9.9999998E-03; -2.8000000E-01;897;  0.0000000E+00;  0.0000000E+00;  0.0000000E+00;  1.0000000E+03;  4.0000001E-01;  0.0000000E+00;0;  0.0000000E+00;  0.0000000E+00;  0.0000000E+00;0;  0.0000000E+00;  1.0000000E+04;  0.0000000E+00;  0.0000000E+00;  1.0000000E+04;  0.0000000E+00;  1.0000000E+04;  0.0000000E+00;  0.0000000E+00;  0.0000000E+00;  0.0000000E+00;
  2.1600001E+00;  9.9999998E-03; -2.5999999E-01;898;  0.0000000E+00;  0.0000000E+00;  0.0000000E+00;  1.0000000E+03;  4.0000001E-01;  0.0000000E+00;0;  0.0000000E+00;  0.0000000E+00;  0.0000000E+00;0;  0.0000000E+00;  1.0000000E+04;  0.0000000E+00;  0.0000000E+00;  1.0000000E+04;  0.0000000E+00;  1.0000000E+04;  0.0000000E+00;  0.0000000E+00;  0.0000000E+00;  0.0000000E+00;
  2.1600001E+00;  9.9999998E-03; -2.3999999E-01;899;  0.0000000E+00;  0.0000000E+00;  0.0000000E+00;  1.0000000E+03;  4.0000001E-01;  0.0000000E+00;0;  0.0000000E+00;  0.0000000E+00;  0.0000000E+00;0;  0.0000000E+00;  1.0000000E+04;  0.0000000E+00;  0.0000000E+00;  1.0000000E+04;  0.0000000E+00;  1.0000000E+04;  0.0000000E+00;  0.0000000E+00;  0.0000000E+00;  0.0000000E+00;
  2.1600001E+00;  9.9999998E-03; -2.2000000E-01;900;  0.0000000E+00;  0.0000000E+00;  0.0000000E+00;  1.0000000E+03;  4.0000001E-01;  0.0000000E+00;0;  0.0000000E+00;  0.0000000E+00;  0.0000000E+00;0;  0.0000000E+00;  1.0000000E+04;  0.0000000E+00;  0.0000000E+00;  1.0000000E+04;  0.0000000E+00;  1.0000000E+04;  0.0000000E+00;  0.0000000E+00;  0.0000000E+00;  0.0000000E+00;
  2.1600001E+00;  9.9999998E-03; -2.0000000E-01;901;  0.0000000E+00;  0.0000000E+00;  0.0000000E+00;  1.0000000E+03;  4.0000001E-01;  0.0000000E+00;0;  0.0000000E+00;  0.0000000E+00;  0.0000000E+00;0;  0.0000000E+00;  1.0000000E+04;  0.0000000E+00;  0.0000000E+00;  1.0000000E+04;  0.0000000E+00;  1.0000000E+04;  0.0000000E+00;  0.0000000E+00;  0.0000000E+00;  0.0000000E+00;
  2.1600001E+00;  9.9999998E-03; -1.8000001E-01;902;  0.0000000E+00;  0.0000000E+00;  0.0000000E+00;  1.0000000E+03;  4.0000001E-01;  0.0000000E+00;0;  0.0000000E+00;  0.0000000E+00;  0.0000000E+00;0;  0.0000000E+00;  1.0000000E+04;  0.0000000E+00;  0.0000000E+00;  1.0000000E+04;  0.0000000E+00;  1.0000000E+04;  0.0000000E+00;  0.0000000E+00;  0.0000000E+00;  0.0000000E+00;
  2.1600001E+00;  9.9999998E-03; -1.6000000E-01;903;  0.0000000E+00;  0.0000000E+00;  0.0000000E+00;  1.0000000E+03;  4.0000001E-01;  0.0000000E+00;0;  0.0000000E+00;  0.0000000E+00;  0.0000000E+00;0;  0.0000000E+00;  1.0000000E+04;  0.0000000E+00;  0.0000000E+00;  1.0000000E+04;  0.0000000E+00;  1.0000000E+04;  0.0000000E+00;  0.0000000E+00;  0.0000000E+00;  0.0000000E+00;
  2.1600001E+00;  9.9999998E-03; -1.4000000E-01;904;  0.0000000E+00;  0.0000000E+00;  0.0000000E+00;  1.0000000E+03;  4.0000001E-01;  0.0000000E+00;0;  0.0000000E+00;  0.0000000E+00;  0.0000000E+00;0;  0.0000000E+00;  1.0000000E+04;  0.0000000E+00;  0.0000000E+00;  1.0000000E+04;  0.0000000E+00;  1.0000000E+04;  0.0000000E+00;  0.0000000E+00;  0.0000000E+00;  0.0000000E+00;
  2.1600001E+00;  9.9999998E-03; -1.2000000E-01;905;  0.0000000E+00;  0.0000000E+00;  0.0000000E+00;  1.0000000E+03;  4.0000001E-01;  0.0000000E+00;0;  0.0000000E+00;  0.0000000E+00;  0.0000000E+00;0;  0.0000000E+00;  1.0000000E+04;  0.0000000E+00;  0.0000000E+00;  1.0000000E+04;  0.0000000E+00;  1.0000000E+04;  0.0000000E+00;  0.0000000E+00;  0.0000000E+00;  0.0000000E+00;
  2.1600001E+00;  9.9999998E-03; -1.0000000E-01;906;  0.0000000E+00;  0.0000000E+00;  0.0000000E+00;  1.0000000E+03;  4.0000001E-01;  0.0000000E+00;0;  0.0000000E+00;  0.0000000E+00;  0.0000000E+00;0;  0.0000000E+00;  1.0000000E+04;  0.0000000E+00;  0.0000000E+00;  1.0000000E+04;  0.0000000E+00;  1.0000000E+04;  0.0000000E+00;  0.0000000E+00;  0.0000000E+00;  0.0000000E+00;
  2.1600001E+00;  9.9999998E-03; -7.9999998E-02;907;  0.0000000E+00;  0.0000000E+00;  0.0000000E+00;  1.0000000E+03;  4.0000001E-01;  0.0000000E+00;0;  0.0000000E+00;  0.0000000E+00;  0.0000000E+00;0;  0.0000000E+00;  1.0000000E+04;  0.0000000E+00;  0.0000000E+00;  1.0000000E+04;  0.0000000E+00;  1.0000000E+04;  0.0000000E+00;  0.0000000E+00;  0.0000000E+00;  0.0000000E+00;
  2.1600001E+00;  9.9999998E-03; -5.9999999E-02;908;  0.0000000E+00;  0.0000000E+00;  0.0000000E+00;  1.0000000E+03;  4.0000001E-01;  0.0000000E+00;0;  0.0000000E+00;  0.0000000E+00;  0.0000000E+00;0;  0.0000000E+00;  1.0000000E+04;  0.0000000E+00;  0.0000000E+00;  1.0000000E+04;  0.0000000E+00;  1.0000000E+04;  0.0000000E+00;  0.0000000E+00;  0.0000000E+00;  0.0000000E+00;
  2.1600001E+00;  9.9999998E-03; -3.9999999E-02;909;  0.0000000E+00;  0.0000000E+00;  0.0000000E+00;  1.0000000E+03;  4.0000001E-01;  0.0000000E+00;0;  0.0000000E+00;  0.0000000E+00;  0.0000000E+00;0;  0.0000000E+00;  1.0000000E+04;  0.0000000E+00;  0.0000000E+00;  1.0000000E+04;  0.0000000E+00;  1.0000000E+04;  0.0000000E+00;  0.0000000E+00;  0.0000000E+00;  0.0000000E+00;
  2.1600001E+00;  9.9999998E-03; -2.0000000E-02;910;  0.0000000E+00;  0.0000000E+00;  0.0000000E+00;  1.0000000E+03;  4.0000001E-01;  0.0000000E+00;0;  0.0000000E+00;  0.0000000E+00;  0.0000000E+00;0;  0.0000000E+00;  1.0000000E+04;  0.0000000E+00;  0.0000000E+00;  1.0000000E+04;  0.0000000E+00;  1.0000000E+04;  0.0000000E+00;  0.0000000E+00;  0.0000000E+00;  0.0000000E+00;
  2.1600001E+00;  9.9999998E-03;  0.0000000E+00;911;  0.0000000E+00;  0.0000000E+00;  0.0000000E+00;  1.0000000E+03;  4.0000001E-01;  0.0000000E+00;0;  0.0000000E+00;  0.0000000E+00;  0.0000000E+00;0;  0.0000000E+00;  1.0000000E+04;  0.0000000E+00;  0.0000000E+00;  1.0000000E+04;  0.0000000E+00;  1.0000000E+04;  0.0000000E+00;  0.0000000E+00;  0.0000000E+00;  0.0000000E+00;
  2.1600001E+00;  9.9999998E-03;  2.0000000E-02;912;  0.0000000E+00;  0.0000000E+00;  0.0000000E+00;  1.0000000E+03;  4.0000001E-01;  0.0000000E+00;0;  0.0000000E+00;  0.0000000E+00;  0.0000000E+00;0;  0.0000000E+00;  1.0000000E+04;  0.0000000E+00;  0.0000000E+00;  1.0000000E+04;  0.0000000E+00;  1.0000000E+04;  0.0000000E+00;  0.0000000E+00;  0.0000000E+00;  0.0000000E+00;
  2.1600001E+00;  9.9999998E-03;  3.9999999E-02;913;  0.0000000E+00;  0.0000000E+00;  0.0000000E+00;  1.0000000E+03;  4.0000001E-01;  0.0000000E+00;0;  0.0000000E+00;  0.0000000E+00;  0.0000000E+00;0;  0.0000000E+00;  1.0000000E+04;  0.0000000E+00;  0.0000000E+00;  1.0000000E+04;  0.0000000E+00;  1.0000000E+04;  0.0000000E+00;  0.0000000E+00;  0.0000000E+00;  0.0000000E+00;
  2.1600001E+00;  9.9999998E-03;  5.9999999E-02;914;  0.0000000E+00;  0.0000000E+00;  0.0000000E+00;  1.0000000E+03;  4.0000001E-01;  0.0000000E+00;0;  0.0000000E+00;  0.0000000E+00;  0.0000000E+00;0;  0.0000000E+00;  1.0000000E+04;  0.0000000E+00;  0.0000000E+00;  1.0000000E+04;  0.0000000E+00;  1.0000000E+04;  0.0000000E+00;  0.0000000E+00;  0.0000000E+00;  0.0000000E+00;
  2.1600001E+00;  9.9999998E-03;  7.9999998E-02;915;  0.0000000E+00;  0.0000000E+00;  0.0000000E+00;  1.0000000E+03;  4.0000001E-01;  0.0000000E+00;0;  0.0000000E+00;  0.0000000E+00;  0.0000000E+00;0;  0.0000000E+00;  1.0000000E+04;  0.0000000E+00;  0.0000000E+00;  1.0000000E+04;  0.0000000E+00;  1.0000000E+04;  0.0000000E+00;  0.0000000E+00;  0.0000000E+00;  0.0000000E+00;
  2.1600001E+00;  9.9999998E-03;  1.0000000E-01;916;  0.0000000E+00;  0.0000000E+00;  0.0000000E+00;  1.0000000E+03;  4.0000001E-01;  0.0000000E+00;0;  0.0000000E+00;  0.0000000E+00;  0.0000000E+00;0;  0.0000000E+00;  1.0000000E+04;  0.0000000E+00;  0.0000000E+00;  1.0000000E+04;  0.0000000E+00;  1.0000000E+04;  0.0000000E+00;  0.0000000E+00;  0.0000000E+00;  0.0000000E+00;
  2.1600001E+00;  9.9999998E-03;  1.2000000E-01;917;  0.0000000E+00;  0.0000000E+00;  0.0000000E+00;  1.0000000E+03;  4.0000001E-01;  0.0000000E+00;0;  0.0000000E+00;  0.0000000E+00;  0.0000000E+00;0;  0.0000000E+00;  1.0000000E+04;  0.0000000E+00;  0.0000000E+00;  1.0000000E+04;  0.0000000E+00;  1.0000000E+04;  0.0000000E+00;  0.0000000E+00;  0.0000000E+00;  0.0000000E+00;
  2.1600001E+00;  9.9999998E-03;  1.4000000E-01;918;  0.0000000E+00;  0.0000000E+00;  0.0000000E+00;  1.0000000E+03;  4.0000001E-01;  0.0000000E+00;0;  0.0000000E+00;  0.0000000E+00;  0.0000000E+00;0;  0.0000000E+00;  1.0000000E+04;  0.0000000E+00;  0.0000000E+00;  1.0000000E+04;  0.0000000E+00;  1.0000000E+04;  0.0000000E+00;  0.0000000E+00;  0.0000000E+00;  0.0000000E+00;
  2.1600001E+00;  9.9999998E-03;  1.6000000E-01;919;  0.0000000E+00;  0.0000000E+00;  0.0000000E+00;  1.0000000E+03;  4.0000001E-01;  0.0000000E+00;0;  0.0000000E+00;  0.0000000E+00;  0.0000000E+00;0;  0.0000000E+00;  1.0000000E+04;  0.0000000E+00;  0.0000000E+00;  1.0000000E+04;  0.0000000E+00;  1.0000000E+04;  0.0000000E+00;  0.0000000E+00;  0.0000000E+00;  0.0000000E+00;
  2.1600001E+00;  9.9999998E-03;  1.8000001E-01;920;  0.0000000E+00;  0.0000000E+00;  0.0000000E+00;  1.0000000E+03;  4.0000001E-01;  0.0000000E+00;0;  0.0000000E+00;  0.0000000E+00;  0.0000000E+00;0;  0.0000000E+00;  1.0000000E+04;  0.0000000E+00;  0.0000000E+00;  1.0000000E+04;  0.0000000E+00;  1.0000000E+04;  0.0000000E+00;  0.0000000E+00;  0.0000000E+00;  0.0000000E+00;
  2.1600001E+00;  9.9999998E-03;  2.0000000E-01;921;  0.0000000E+00;  0.0000000E+00;  0.0000000E+00;  1.0000000E+03;  4.0000001E-01;  0.0000000E+00;0;  0.0000000E+00;  0.0000000E+00;  0.0000000E+00;0;  0.0000000E+00;  1.0000000E+04;  0.0000000E+00;  0.0000000E+00;  1.0000000E+04;  0.0000000E+00;  1.0000000E+04;  0.0000000E+00;  0.0000000E+00;  0.0000000E+00;  0.0000000E+00;
  2.1600001E+00;  9.9999998E-03;  2.2000000E-01;922;  0.0000000E+00;  0.0000000E+00;  0.0000000E+00;  1.0000000E+03;  4.0000001E-01;  0.0000000E+00;0;  0.0000000E+00;  0.0000000E+00;  0.0000000E+00;0;  0.0000000E+00;  1.0000000E+04;  0.0000000E+00;  0.0000000E+00;  1.0000000E+04;  0.0000000E+00;  1.0000000E+04;  0.0000000E+00;  0.0000000E+00;  0.0000000E+00;  0.0000000E+00;
  2.1600001E+00;  9.9999998E-03;  2.3999999E-01;923;  0.0000000E+00;  0.0000000E+00;  0.0000000E+00;  1.0000000E+03;  4.0000001E-01;  0.0000000E+00;0;  0.0000000E+00;  0.0000000E+00;  0.0000000E+00;0;  0.0000000E+00;  1.0000000E+04;  0.0000000E+00;  0.0000000E+00;  1.0000000E+04;  0.0000000E+00;  1.0000000E+04;  0.0000000E+00;  0.0000000E+00;  0.0000000E+00;  0.0000000E+00;
  2.1600001E+00;  9.9999998E-03;  2.5999999E-01;924;  0.0000000E+00;  0.0000000E+00;  0.0000000E+00;  1.0000000E+03;  4.0000001E-01;  0.0000000E+00;0;  0.0000000E+00;  0.0000000E+00;  0.0000000E+00;0;  0.0000000E+00;  1.0000000E+04;  0.0000000E+00;  0.0000000E+00;  1.0000000E+04;  0.0000000E+00;  1.0000000E+04;  0.0000000E+00;  0.0000000E+00;  0.0000000E+00;  0.0000000E+00;
  2.1600001E+00;  9.9999998E-03;  2.8000000E-01;925;  0.0000000E+00;  0.0000000E+00;  0.0000000E+00;  1.0000000E+03;  4.0000001E-01;  0.0000000E+00;0;  0.0000000E+00;  0.0000000E+00;  0.0000000E+00;0;  0.0000000E+00;  1.0000000E+04;  0.0000000E+00;  0.0000000E+00;  1.0000000E+04;  0.0000000E+00;  1.0000000E+04;  0.0000000E+00;  0.0000000E+00;  0.0000000E+00;  0.0000000E+00;
  2.1600001E+00;  9.9999998E-03;  3.0000001E-01;926;  0.0000000E+00;  0.0000000E+00;  0.0000000E+00;  1.0000000E+03;  4.0000001E-01;  0.0000000E+00;0;  0.0000000E+00;  0.0000000E+00;  0.0000000E+00;0;  0.0000000E+00;  1.0000000E+04;  0.0000000E+00;  0.0000000E+00;  1.0000000E+04;  0.0000000E+00;  1.0000000E+04;  0.0000000E+00;  0.0000000E+00;  0.0000000E+00;  0.0000000E+00;
  2.1600001E+00;  9.9999998E-03;  3.1999999E-01;927;  0.0000000E+00;  0.0000000E+00;  0.0000000E+00;  1.0000000E+03;  4.0000001E-01;  0.0000000E+00;0;  0.0000000E+00;  0.0000000E+00;  0.0000000E+00;0;  0.0000000E+00;  1.0000000E+04;  0.0000000E+00;  0.0000000E+00;  1.0000000E+04;  0.0000000E+00;  1.0000000E+04;  0.0000000E+00;  0.0000000E+00;  0.0000000E+00;  0.0000000E+00;
  2.1600001E+00;  9.9999998E-03;  3.4000000E-01;928;  0.0000000E+00;  0.0000000E+00;  0.0000000E+00;  1.0000000E+03;  4.0000001E-01;  0.0000000E+00;0;  0.0000000E+00;  0.0000000E+00;  0.0000000E+00;0;  0.0000000E+00;  1.0000000E+04;  0.0000000E+00;  0.0000000E+00;  1.0000000E+04;  0.0000000E+00;  1.0000000E+04;  0.0000000E+00;  0.0000000E+00;  0.0000000E+00;  0.0000000E+00;
  2.1600001E+00;  9.9999998E-03;  3.6000001E-01;929;  0.0000000E+00;  0.0000000E+00;  0.0000000E+00;  1.0000000E+03;  4.0000001E-01;  0.0000000E+00;0;  0.0000000E+00;  0.0000000E+00;  0.0000000E+00;0;  0.0000000E+00;  1.0000000E+04;  0.0000000E+00;  0.0000000E+00;  1.0000000E+04;  0.0000000E+00;  1.0000000E+04;  0.0000000E+00;  0.0000000E+00;  0.0000000E+00;  0.0000000E+00;
  2.1600001E+00;  9.9999998E-03;  3.8000000E-01;930;  0.0000000E+00;  0.0000000E+00;  0.0000000E+00;  1.0000000E+03;  4.0000001E-01;  0.0000000E+00;0;  0.0000000E+00;  0.0000000E+00;  0.0000000E+00;0;  0.0000000E+00;  1.0000000E+04;  0.0000000E+00;  0.0000000E+00;  1.0000000E+04;  0.0000000E+00;  1.0000000E+04;  0.0000000E+00;  0.0000000E+00;  0.0000000E+00;  0.0000000E+00;
  2.1600001E+00;  9.9999998E-03;  4.0000001E-01;931;  0.0000000E+00;  0.0000000E+00;  0.0000000E+00;  1.0000000E+03;  4.0000001E-01;  0.0000000E+00;0;  0.0000000E+00;  0.0000000E+00;  0.0000000E+00;0;  0.0000000E+00;  1.0000000E+04;  0.0000000E+00;  0.0000000E+00;  1.0000000E+04;  0.0000000E+00;  1.0000000E+04;  0.0000000E+00;  0.0000000E+00;  0.0000000E+00;  0.0000000E+00;
  2.1800001E+00;  9.9999998E-03; -1.8000001E-01;932;  0.0000000E+00;  0.0000000E+00;  0.0000000E+00;  1.0000000E+03;  4.0000001E-01;  0.0000000E+00;0;  0.0000000E+00;  0.0000000E+00;  0.0000000E+00;0;  0.0000000E+00;  1.0000000E+04;  0.0000000E+00;  0.0000000E+00;  1.0000000E+04;  0.0000000E+00;  1.0000000E+04;  0.0000000E+00;  0.0000000E+00;  0.0000000E+00;  0.0000000E+00;
  2.1800001E+00;  9.9999998E-03; -1.6000000E-01;933;  0.0000000E+00;  0.0000000E+00;  0.0000000E+00;  1.0000000E+03;  4.0000001E-01;  0.0000000E+00;0;  0.0000000E+00;  0.0000000E+00;  0.0000000E+00;0;  0.0000000E+00;  1.0000000E+04;  0.0000000E+00;  0.0000000E+00;  1.0000000E+04;  0.0000000E+00;  1.0000000E+04;  0.0000000E+00;  0.0000000E+00;  0.0000000E+00;  0.0000000E+00;
  2.1800001E+00;  9.9999998E-03; -1.4000000E-01;934;  0.0000000E+00;  0.0000000E+00;  0.0000000E+00;  1.0000000E+03;  4.0000001E-01;  0.0000000E+00;0;  0.0000000E+00;  0.0000000E+00;  0.0000000E+00;0;  0.0000000E+00;  1.0000000E+04;  0.0000000E+00;  0.0000000E+00;  1.0000000E+04;  0.0000000E+00;  1.0000000E+04;  0.0000000E+00;  0.0000000E+00;  0.0000000E+00;  0.0000000E+00;
  2.1800001E+00;  9.9999998E-03; -1.2000000E-01;935;  0.0000000E+00;  0.0000000E+00;  0.0000000E+00;  1.0000000E+03;  4.0000001E-01;  0.0000000E+00;0;  0.0000000E+00;  0.0000000E+00;  0.0000000E+00;0;  0.0000000E+00;  1.0000000E+04;  0.0000000E+00;  0.0000000E+00;  1.0000000E+04;  0.0000000E+00;  1.0000000E+04;  0.0000000E+00;  0.0000000E+00;  0.0000000E+00;  0.0000000E+00;
  2.1800001E+00;  9.9999998E-03; -1.0000000E-01;936;  0.0000000E+00;  0.0000000E+00;  0.0000000E+00;  1.0000000E+03;  4.0000001E-01;  0.0000000E+00;0;  0.0000000E+00;  0.0000000E+00;  0.0000000E+00;0;  0.0000000E+00;  1.0000000E+04;  0.0000000E+00;  0.0000000E+00;  1.0000000E+04;  0.0000000E+00;  1.0000000E+04;  0.0000000E+00;  0.0000000E+00;  0.0000000E+00;  0.0000000E+00;
  2.1800001E+00;  9.9999998E-03; -7.9999998E-02;937;  0.0000000E+00;  0.0000000E+00;  0.0000000E+00;  1.0000000E+03;  4.0000001E-01;  0.0000000E+00;0;  0.0000000E+00;  0.0000000E+00;  0.0000000E+00;0;  0.0000000E+00;  1.0000000E+04;  0.0000000E+00;  0.0000000E+00;  1.0000000E+04;  0.0000000E+00;  1.0000000E+04;  0.0000000E+00;  0.0000000E+00;  0.0000000E+00;  0.0000000E+00;
  2.1800001E+00;  9.9999998E-03; -5.9999999E-02;938;  0.0000000E+00;  0.0000000E+00;  0.0000000E+00;  1.0000000E+03;  4.0000001E-01;  0.0000000E+00;0;  0.0000000E+00;  0.0000000E+00;  0.0000000E+00;0;  0.0000000E+00;  1.0000000E+04;  0.0000000E+00;  0.0000000E+00;  1.0000000E+04;  0.0000000E+00;  1.0000000E+04;  0.0000000E+00;  0.0000000E+00;  0.0000000E+00;  0.0000000E+00;
  2.1800001E+00;  9.9999998E-03; -3.9999999E-02;939;  0.0000000E+00;  0.0000000E+00;  0.0000000E+00;  1.0000000E+03;  4.0000001E-01;  0.0000000E+00;0;  0.0000000E+00;  0.0000000E+00;  0.0000000E+00;0;  0.0000000E+00;  1.0000000E+04;  0.0000000E+00;  0.0000000E+00;  1.0000000E+04;  0.0000000E+00;  1.0000000E+04;  0.0000000E+00;  0.0000000E+00;  0.0000000E+00;  0.0000000E+00;
  2.1800001E+00;  9.9999998E-03; -2.0000000E-02;940;  0.0000000E+00;  0.0000000E+00;  0.0000000E+00;  1.0000000E+03;  4.0000001E-01;  0.0000000E+00;0;  0.0000000E+00;  0.0000000E+00;  0.0000000E+00;0;  0.0000000E+00;  1.0000000E+04;  0.0000000E+00;  0.0000000E+00;  1.0000000E+04;  0.0000000E+00;  1.0000000E+04;  0.0000000E+00;  0.0000000E+00;  0.0000000E+00;  0.0000000E+00;
  2.1800001E+00;  9.9999998E-03;  0.0000000E+00;941;  0.0000000E+00;  0.0000000E+00;  0.0000000E+00;  1.0000000E+03;  4.0000001E-01;  0.0000000E+00;0;  0.0000000E+00;  0.0000000E+00;  0.0000000E+00;0;  0.0000000E+00;  1.0000000E+04;  0.0000000E+00;  0.0000000E+00;  1.0000000E+04;  0.0000000E+00;  1.0000000E+04;  0.0000000E+00;  0.0000000E+00;  0.0000000E+00;  0.0000000E+00;
  2.1800001E+00;  9.9999998E-03;  2.0000000E-02;942;  0.0000000E+00;  0.0000000E+00;  0.0000000E+00;  1.0000000E+03;  4.0000001E-01;  0.0000000E+00;0;  0.0000000E+00;  0.0000000E+00;  0.0000000E+00;0;  0.0000000E+00;  1.0000000E+04;  0.0000000E+00;  0.0000000E+00;  1.0000000E+04;  0.0000000E+00;  1.0000000E+04;  0.0000000E+00;  0.0000000E+00;  0.0000000E+00;  0.0000000E+00;
  2.1800001E+00;  9.9999998E-03;  3.9999999E-02;943;  0.0000000E+00;  0.0000000E+00;  0.0000000E+00;  1.0000000E+03;  4.0000001E-01;  0.0000000E+00;0;  0.0000000E+00;  0.0000000E+00;  0.0000000E+00;0;  0.0000000E+00;  1.0000000E+04;  0.0000000E+00;  0.0000000E+00;  1.0000000E+04;  0.0000000E+00;  1.0000000E+04;  0.0000000E+00;  0.0000000E+00;  0.0000000E+00;  0.0000000E+00;
  2.1800001E+00;  9.9999998E-03;  5.9999999E-02;944;  0.0000000E+00;  0.0000000E+00;  0.0000000E+00;  1.0000000E+03;  4.0000001E-01;  0.0000000E+00;0;  0.0000000E+00;  0.0000000E+00;  0.0000000E+00;0;  0.0000000E+00;  1.0000000E+04;  0.0000000E+00;  0.0000000E+00;  1.0000000E+04;  0.0000000E+00;  1.0000000E+04;  0.0000000E+00;  0.0000000E+00;  0.0000000E+00;  0.0000000E+00;
  2.1800001E+00;  9.9999998E-03;  7.9999998E-02;945;  0.0000000E+00;  0.0000000E+00;  0.0000000E+00;  1.0000000E+03;  4.0000001E-01;  0.0000000E+00;0;  0.0000000E+00;  0.0000000E+00;  0.0000000E+00;0;  0.0000000E+00;  1.0000000E+04;  0.0000000E+00;  0.0000000E+00;  1.0000000E+04;  0.0000000E+00;  1.0000000E+04;  0.0000000E+00;  0.0000000E+00;  0.0000000E+00;  0.0000000E+00;
  2.1800001E+00;  9.9999998E-03;  1.0000000E-01;946;  0.0000000E+00;  0.0000000E+00;  0.0000000E+00;  1.0000000E+03;  4.0000001E-01;  0.0000000E+00;0;  0.0000000E+00;  0.0000000E+00;  0.0000000E+00;0;  0.0000000E+00;  1.0000000E+04;  0.0000000E+00;  0.0000000E+00;  1.0000000E+04;  0.0000000E+00;  1.0000000E+04;  0.0000000E+00;  0.0000000E+00;  0.0000000E+00;  0.0000000E+00;
  2.1800001E+00;  9.9999998E-03;  1.2000000E-01;947;  0.0000000E+00;  0.0000000E+00;  0.0000000E+00;  1.0000000E+03;  4.0000001E-01;  0.0000000E+00;0;  0.0000000E+00;  0.0000000E+00;  0.0000000E+00;0;  0.0000000E+00;  1.0000000E+04;  0.0000000E+00;  0.0000000E+00;  1.0000000E+04;  0.0000000E+00;  1.0000000E+04;  0.0000000E+00;  0.0000000E+00;  0.0000000E+00;  0.0000000E+00;
  2.1800001E+00;  9.9999998E-03;  1.4000000E-01;948;  0.0000000E+00;  0.0000000E+00;  0.0000000E+00;  1.0000000E+03;  4.0000001E-01;  0.0000000E+00;0;  0.0000000E+00;  0.0000000E+00;  0.0000000E+00;0;  0.0000000E+00;  1.0000000E+04;  0.0000000E+00;  0.0000000E+00;  1.0000000E+04;  0.0000000E+00;  1.0000000E+04;  0.0000000E+00;  0.0000000E+00;  0.0000000E+00;  0.0000000E+00;
  2.1800001E+00;  9.9999998E-03;  1.6000000E-01;949;  0.0000000E+00;  0.0000000E+00;  0.0000000E+00;  1.0000000E+03;  4.0000001E-01;  0.0000000E+00;0;  0.0000000E+00;  0.0000000E+00;  0.0000000E+00;0;  0.0000000E+00;  1.0000000E+04;  0.0000000E+00;  0.0000000E+00;  1.0000000E+04;  0.0000000E+00;  1.0000000E+04;  0.0000000E+00;  0.0000000E+00;  0.0000000E+00;  0.0000000E+00;
  2.1800001E+00;  9.9999998E-03;  1.8000001E-01;950;  0.0000000E+00;  0.0000000E+00;  0.0000000E+00;  1.0000000E+03;  4.0000001E-01;  0.0000000E+00;0;  0.0000000E+00;  0.0000000E+00;  0.0000000E+00;0;  0.0000000E+00;  1.0000000E+04;  0.0000000E+00;  0.0000000E+00;  1.0000000E+04;  0.0000000E+00;  1.0000000E+04;  0.0000000E+00;  0.0000000E+00;  0.0000000E+00;  0.0000000E+00;
  2.1800001E+00;  9.9999998E-03;  2.0000000E-01;951;  0.0000000E+00;  0.0000000E+00;  0.0000000E+00;  1.0000000E+03;  4.0000001E-01;  0.0000000E+00;0;  0.0000000E+00;  0.0000000E+00;  0.0000000E+00;0;  0.0000000E+00;  1.0000000E+04;  0.0000000E+00;  0.0000000E+00;  1.0000000E+04;  0.0000000E+00;  1.0000000E+04;  0.0000000E+00;  0.0000000E+00;  0.0000000E+00;  0.0000000E+00;
  2.1800001E+00;  9.9999998E-03;  2.2000000E-01;952;  0.0000000E+00;  0.0000000E+00;  0.0000000E+00;  1.0000000E+03;  4.0000001E-01;  0.0000000E+00;0;  0.0000000E+00;  0.0000000E+00;  0.0000000E+00;0;  0.0000000E+00;  1.0000000E+04;  0.0000000E+00;  0.0000000E+00;  1.0000000E+04;  0.0000000E+00;  1.0000000E+04;  0.0000000E+00;  0.0000000E+00;  0.0000000E+00;  0.0000000E+00;
  2.1800001E+00;  9.9999998E-03;  2.3999999E-01;953;  0.0000000E+00;  0.0000000E+00;  0.0000000E+00;  1.0000000E+03;  4.0000001E-01;  0.0000000E+00;0;  0.0000000E+00;  0.0000000E+00;  0.0000000E+00;0;  0.0000000E+00;  1.0000000E+04;  0.0000000E+00;  0.0000000E+00;  1.0000000E+04;  0.0000000E+00;  1.0000000E+04;  0.0000000E+00;  0.0000000E+00;  0.0000000E+00;  0.0000000E+00;
  2.1800001E+00;  9.9999998E-03;  2.5999999E-01;954;  0.0000000E+00;  0.0000000E+00;  0.0000000E+00;  1.0000000E+03;  4.0000001E-01;  0.0000000E+00;0;  0.0000000E+00;  0.0000000E+00;  0.0000000E+00;0;  0.0000000E+00;  1.0000000E+04;  0.0000000E+00;  0.0000000E+00;  1.0000000E+04;  0.0000000E+00;  1.0000000E+04;  0.0000000E+00;  0.0000000E+00;  0.0000000E+00;  0.0000000E+00;
  2.1800001E+00;  9.9999998E-03;  2.8000000E-01;955;  0.0000000E+00;  0.0000000E+00;  0.0000000E+00;  1.0000000E+03;  4.0000001E-01;  0.0000000E+00;0;  0.0000000E+00;  0.0000000E+00;  0.0000000E+00;0;  0.0000000E+00;  1.0000000E+04;  0.0000000E+00;  0.0000000E+00;  1.0000000E+04;  0.0000000E+00;  1.0000000E+04;  0.0000000E+00;  0.0000000E+00;  0.0000000E+00;  0.0000000E+00;
  2.1800001E+00;  9.9999998E-03;  3.0000001E-01;956;  0.0000000E+00;  0.0000000E+00;  0.0000000E+00;  1.0000000E+03;  4.0000001E-01;  0.0000000E+00;0;  0.0000000E+00;  0.0000000E+00;  0.0000000E+00;0;  0.0000000E+00;  1.0000000E+04;  0.0000000E+00;  0.0000000E+00;  1.0000000E+04;  0.0000000E+00;  1.0000000E+04;  0.0000000E+00;  0.0000000E+00;  0.0000000E+00;  0.0000000E+00;
  2.1800001E+00;  9.9999998E-03;  3.1999999E-01;957;  0.0000000E+00;  0.0000000E+00;  0.0000000E+00;  1.0000000E+03;  4.0000001E-01;  0.0000000E+00;0;  0.0000000E+00;  0.0000000E+00;  0.0000000E+00;0;  0.0000000E+00;  1.0000000E+04;  0.0000000E+00;  0.0000000E+00;  1.0000000E+04;  0.0000000E+00;  1.0000000E+04;  0.0000000E+00;  0.0000000E+00;  0.0000000E+00;  0.0000000E+00;
  2.1800001E+00;  9.9999998E-03;  3.4000000E-01;958;  0.0000000E+00;  0.0000000E+00;  0.0000000E+00;  1.0000000E+03;  4.0000001E-01;  0.0000000E+00;0;  0.0000000E+00;  0.0000000E+00;  0.0000000E+00;0;  0.0000000E+00;  1.0000000E+04;  0.0000000E+00;  0.0000000E+00;  1.0000000E+04;  0.0000000E+00;  1.0000000E+04;  0.0000000E+00;  0.0000000E+00;  0.0000000E+00;  0.0000000E+00;
  2.1800001E+00;  9.9999998E-03;  3.6000001E-01;959;  0.0000000E+00;  0.0000000E+00;  0.0000000E+00;  1.0000000E+03;  4.0000001E-01;  0.0000000E+00;0;  0.0000000E+00;  0.0000000E+00;  0.0000000E+00;0;  0.0000000E+00;  1.0000000E+04;  0.0000000E+00;  0.0000000E+00;  1.0000000E+04;  0.0000000E+00;  1.0000000E+04;  0.0000000E+00;  0.0000000E+00;  0.0000000E+00;  0.0000000E+00;
  2.1800001E+00;  9.9999998E-03;  3.8000000E-01;960;  0.0000000E+00;  0.0000000E+00;  0.0000000E+00;  1.0000000E+03;  4.0000001E-01;  0.0000000E+00;0;  0.0000000E+00;  0.0000000E+00;  0.0000000E+00;0;  0.0000000E+00;  1.0000000E+04;  0.0000000E+00;  0.0000000E+00;  1.0000000E+04;  0.0000000E+00;  1.0000000E+04;  0.0000000E+00;  0.0000000E+00;  0.0000000E+00;  0.0000000E+00;
  2.1800001E+00;  9.9999998E-03;  4.0000001E-01;961;  0.0000000E+00;  0.0000000E+00;  0.0000000E+00;  1.0000000E+03;  4.0000001E-01;  0.0000000E+00;0;  0.0000000E+00;  0.0000000E+00;  0.0000000E+00;0;  0.0000000E+00;  1.0000000E+04;  0.0000000E+00;  0.0000000E+00;  1.0000000E+04;  0.0000000E+00;  1.0000000E+04;  0.0000000E+00;  0.0000000E+00;  0.0000000E+00;  0.0000000E+00;
  2.2000000E+00;  9.9999998E-03; -7.9999998E-02;962;  0.0000000E+00;  0.0000000E+00;  0.0000000E+00;  1.0000000E+03;  4.0000001E-01;  0.0000000E+00;0;  0.0000000E+00;  0.0000000E+00;  0.0000000E+00;0;  0.0000000E+00;  1.0000000E+04;  0.0000000E+00;  0.0000000E+00;  1.0000000E+04;  0.0000000E+00;  1.0000000E+04;  0.0000000E+00;  0.0000000E+00;  0.0000000E+00;  0.0000000E+00;
  2.2000000E+00;  9.9999998E-03; -5.9999999E-02;963;  0.0000000E+00;  0.0000000E+00;  0.0000000E+00;  1.0000000E+03;  4.0000001E-01;  0.0000000E+00;0;  0.0000000E+00;  0.0000000E+00;  0.0000000E+00;0;  0.0000000E+00;  1.0000000E+04;  0.0000000E+00;  0.0000000E+00;  1.0000000E+04;  0.0000000E+00;  1.0000000E+04;  0.0000000E+00;  0.0000000E+00;  0.0000000E+00;  0.0000000E+00;
  2.2000000E+00;  9.9999998E-03; -3.9999999E-02;964;  0.0000000E+00;  0.0000000E+00;  0.0000000E+00;  1.0000000E+03;  4.0000001E-01;  0.0000000E+00;0;  0.0000000E+00;  0.0000000E+00;  0.0000000E+00;0;  0.0000000E+00;  1.0000000E+04;  0.0000000E+00;  0.0000000E+00;  1.0000000E+04;  0.0000000E+00;  1.0000000E+04;  0.0000000E+00;  0.0000000E+00;  0.0000000E+00;  0.0000000E+00;
  2.2000000E+00;  9.9999998E-03; -2.0000000E-02;965;  0.0000000E+00;  0.0000000E+00;  0.0000000E+00;  1.0000000E+03;  4.0000001E-01;  0.0000000E+00;0;  0.0000000E+00;  0.0000000E+00;  0.0000000E+00;0;  0.0000000E+00;  1.0000000E+04;  0.0000000E+00;  0.0000000E+00;  1.0000000E+04;  0.0000000E+00;  1.0000000E+04;  0.0000000E+00;  0.0000000E+00;  0.0000000E+00;  0.0000000E+00;
  2.2000000E+00;  9.9999998E-03;  0.0000000E+00;966;  0.0000000E+00;  0.0000000E+00;  0.0000000E+00;  1.0000000E+03;  4.0000001E-01;  0.0000000E+00;0;  0.0000000E+00;  0.0000000E+00;  0.0000000E+00;0;  0.0000000E+00;  1.0000000E+04;  0.0000000E+00;  0.0000000E+00;  1.0000000E+04;  0.0000000E+00;  1.0000000E+04;  0.0000000E+00;  0.0000000E+00;  0.0000000E+00;  0.0000000E+00;
  2.2000000E+00;  9.9999998E-03;  2.0000000E-02;967;  0.0000000E+00;  0.0000000E+00;  0.0000000E+00;  1.0000000E+03;  4.0000001E-01;  0.0000000E+00;0;  0.0000000E+00;  0.0000000E+00;  0.0000000E+00;0;  0.0000000E+00;  1.0000000E+04;  0.0000000E+00;  0.0000000E+00;  1.0000000E+04;  0.0000000E+00;  1.0000000E+04;  0.0000000E+00;  0.0000000E+00;  0.0000000E+00;  0.0000000E+00;
  2.2000000E+00;  9.9999998E-03;  3.9999999E-02;968;  0.0000000E+00;  0.0000000E+00;  0.0000000E+00;  1.0000000E+03;  4.0000001E-01;  0.0000000E+00;0;  0.0000000E+00;  0.0000000E+00;  0.0000000E+00;0;  0.0000000E+00;  1.0000000E+04;  0.0000000E+00;  0.0000000E+00;  1.0000000E+04;  0.0000000E+00;  1.0000000E+04;  0.0000000E+00;  0.0000000E+00;  0.0000000E+00;  0.0000000E+00;
  2.2000000E+00;  9.9999998E-03;  5.9999999E-02;969;  0.0000000E+00;  0.0000000E+00;  0.0000000E+00;  1.0000000E+03;  4.0000001E-01;  0.0000000E+00;0;  0.0000000E+00;  0.0000000E+00;  0.0000000E+00;0;  0.0000000E+00;  1.0000000E+04;  0.0000000E+00;  0.0000000E+00;  1.0000000E+04;  0.0000000E+00;  1.0000000E+04;  0.0000000E+00;  0.0000000E+00;  0.0000000E+00;  0.0000000E+00;
  2.2000000E+00;  9.9999998E-03;  7.9999998E-02;970;  0.0000000E+00;  0.0000000E+00;  0.0000000E+00;  1.0000000E+03;  4.0000001E-01;  0.0000000E+00;0;  0.0000000E+00;  0.0000000E+00;  0.0000000E+00;0;  0.0000000E+00;  1.0000000E+04;  0.0000000E+00;  0.0000000E+00;  1.0000000E+04;  0.0000000E+00;  1.0000000E+04;  0.0000000E+00;  0.0000000E+00;  0.0000000E+00;  0.0000000E+00;
  2.2000000E+00;  9.9999998E-03;  1.0000000E-01;971;  0.0000000E+00;  0.0000000E+00;  0.0000000E+00;  1.0000000E+03;  4.0000001E-01;  0.0000000E+00;0;  0.0000000E+00;  0.0000000E+00;  0.0000000E+00;0;  0.0000000E+00;  1.0000000E+04;  0.0000000E+00;  0.0000000E+00;  1.0000000E+04;  0.0000000E+00;  1.0000000E+04;  0.0000000E+00;  0.0000000E+00;  0.0000000E+00;  0.0000000E+00;
  2.2000000E+00;  9.9999998E-03;  1.2000000E-01;972;  0.0000000E+00;  0.0000000E+00;  0.0000000E+00;  1.0000000E+03;  4.0000001E-01;  0.0000000E+00;0;  0.0000000E+00;  0.0000000E+00;  0.0000000E+00;0;  0.0000000E+00;  1.0000000E+04;  0.0000000E+00;  0.0000000E+00;  1.0000000E+04;  0.0000000E+00;  1.0000000E+04;  0.0000000E+00;  0.0000000E+00;  0.0000000E+00;  0.0000000E+00;
  2.2000000E+00;  9.9999998E-03;  1.4000000E-01;973;  0.0000000E+00;  0.0000000E+00;  0.0000000E+00;  1.0000000E+03;  4.0000001E-01;  0.0000000E+00;0;  0.0000000E+00;  0.0000000E+00;  0.0000000E+00;0;  0.0000000E+00;  1.0000000E+04;  0.0000000E+00;  0.0000000E+00;  1.0000000E+04;  0.0000000E+00;  1.0000000E+04;  0.0000000E+00;  0.0000000E+00;  0.0000000E+00;  0.0000000E+00;
  2.2000000E+00;  9.9999998E-03;  1.6000000E-01;974;  0.0000000E+00;  0.0000000E+00;  0.0000000E+00;  1.0000000E+03;  4.0000001E-01;  0.0000000E+00;0;  0.0000000E+00;  0.0000000E+00;  0.0000000E+00;0;  0.0000000E+00;  1.0000000E+04;  0.0000000E+00;  0.0000000E+00;  1.0000000E+04;  0.0000000E+00;  1.0000000E+04;  0.0000000E+00;  0.0000000E+00;  0.0000000E+00;  0.0000000E+00;
  2.2000000E+00;  9.9999998E-03;  1.8000001E-01;975;  0.0000000E+00;  0.0000000E+00;  0.0000000E+00;  1.0000000E+03;  4.0000001E-01;  0.0000000E+00;0;  0.0000000E+00;  0.0000000E+00;  0.0000000E+00;0;  0.0000000E+00;  1.0000000E+04;  0.0000000E+00;  0.0000000E+00;  1.0000000E+04;  0.0000000E+00;  1.0000000E+04;  0.0000000E+00;  0.0000000E+00;  0.0000000E+00;  0.0000000E+00;
  2.2000000E+00;  9.9999998E-03;  2.0000000E-01;976;  0.0000000E+00;  0.0000000E+00;  0.0000000E+00;  1.0000000E+03;  4.0000001E-01;  0.0000000E+00;0;  0.0000000E+00;  0.0000000E+00;  0.0000000E+00;0;  0.0000000E+00;  1.0000000E+04;  0.0000000E+00;  0.0000000E+00;  1.0000000E+04;  0.0000000E+00;  1.0000000E+04;  0.0000000E+00;  0.0000000E+00;  0.0000000E+00;  0.0000000E+00;
  2.2000000E+00;  9.9999998E-03;  2.2000000E-01;977;  0.0000000E+00;  0.0000000E+00;  0.0000000E+00;  1.0000000E+03;  4.0000001E-01;  0.0000000E+00;0;  0.0000000E+00;  0.0000000E+00;  0.0000000E+00;0;  0.0000000E+00;  1.0000000E+04;  0.0000000E+00;  0.0000000E+00;  1.0000000E+04;  0.0000000E+00;  1.0000000E+04;  0.0000000E+00;  0.0000000E+00;  0.0000000E+00;  0.0000000E+00;
  2.2000000E+00;  9.9999998E-03;  2.3999999E-01;978;  0.0000000E+00;  0.0000000E+00;  0.0000000E+00;  1.0000000E+03;  4.0000001E-01;  0.0000000E+00;0;  0.0000000E+00;  0.0000000E+00;  0.0000000E+00;0;  0.0000000E+00;  1.0000000E+04;  0.0000000E+00;  0.0000000E+00;  1.0000000E+04;  0.0000000E+00;  1.0000000E+04;  0.0000000E+00;  0.0000000E+00;  0.0000000E+00;  0.0000000E+00;
  2.2000000E+00;  9.9999998E-03;  2.5999999E-01;979;  0.0000000E+00;  0.0000000E+00;  0.0000000E+00;  1.0000000E+03;  4.0000001E-01;  0.0000000E+00;0;  0.0000000E+00;  0.0000000E+00;  0.0000000E+00;0;  0.0000000E+00;  1.0000000E+04;  0.0000000E+00;  0.0000000E+00;  1.0000000E+04;  0.0000000E+00;  1.0000000E+04;  0.0000000E+00;  0.0000000E+00;  0.0000000E+00;  0.0000000E+00;
  2.2000000E+00;  9.9999998E-03;  2.8000000E-01;980;  0.0000000E+00;  0.0000000E+00;  0.0000000E+00;  1.0000000E+03;  4.0000001E-01;  0.0000000E+00;0;  0.0000000E+00;  0.0000000E+00;  0.0000000E+00;0;  0.0000000E+00;  1.0000000E+04;  0.0000000E+00;  0.0000000E+00;  1.0000000E+04;  0.0000000E+00;  1.0000000E+04;  0.0000000E+00;  0.0000000E+00;  0.0000000E+00;  0.0000000E+00;
  2.2000000E+00;  9.9999998E-03;  3.0000001E-01;981;  0.0000000E+00;  0.0000000E+00;  0.0000000E+00;  1.0000000E+03;  4.0000001E-01;  0.0000000E+00;0;  0.0000000E+00;  0.0000000E+00;  0.0000000E+00;0;  0.0000000E+00;  1.0000000E+04;  0.0000000E+00;  0.0000000E+00;  1.0000000E+04;  0.0000000E+00;  1.0000000E+04;  0.0000000E+00;  0.0000000E+00;  0.0000000E+00;  0.0000000E+00;
  2.2000000E+00;  9.9999998E-03;  3.1999999E-01;982;  0.0000000E+00;  0.0000000E+00;  0.0000000E+00;  1.0000000E+03;  4.0000001E-01;  0.0000000E+00;0;  0.0000000E+00;  0.0000000E+00;  0.0000000E+00;0;  0.0000000E+00;  1.0000000E+04;  0.0000000E+00;  0.0000000E+00;  1.0000000E+04;  0.0000000E+00;  1.0000000E+04;  0.0000000E+00;  0.0000000E+00;  0.0000000E+00;  0.0000000E+00;
  2.2000000E+00;  9.9999998E-03;  3.4000000E-01;983;  0.0000000E+00;  0.0000000E+00;  0.0000000E+00;  1.0000000E+03;  4.0000001E-01;  0.0000000E+00;0;  0.0000000E+00;  0.0000000E+00;  0.0000000E+00;0;  0.0000000E+00;  1.0000000E+04;  0.0000000E+00;  0.0000000E+00;  1.0000000E+04;  0.0000000E+00;  1.0000000E+04;  0.0000000E+00;  0.0000000E+00;  0.0000000E+00;  0.0000000E+00;
  2.2000000E+00;  9.9999998E-03;  3.6000001E-01;984;  0.0000000E+00;  0.0000000E+00;  0.0000000E+00;  1.0000000E+03;  4.0000001E-01;  0.0000000E+00;0;  0.0000000E+00;  0.0000000E+00;  0.0000000E+00;0;  0.0000000E+00;  1.0000000E+04;  0.0000000E+00;  0.0000000E+00;  1.0000000E+04;  0.0000000E+00;  1.0000000E+04;  0.0000000E+00;  0.0000000E+00;  0.0000000E+00;  0.0000000E+00;
  2.2000000E+00;  9.9999998E-03;  3.8000000E-01;985;  0.0000000E+00;  0.0000000E+00;  0.0000000E+00;  1.0000000E+03;  4.0000001E-01;  0.0000000E+00;0;  0.0000000E+00;  0.0000000E+00;  0.0000000E+00;0;  0.0000000E+00;  1.0000000E+04;  0.0000000E+00;  0.0000000E+00;  1.0000000E+04;  0.0000000E+00;  1.0000000E+04;  0.0000000E+00;  0.0000000E+00;  0.0000000E+00;  0.0000000E+00;
  2.2200000E+00;  9.9999998E-03;  2.0000000E-02;986;  0.0000000E+00;  0.0000000E+00;  0.0000000E+00;  1.0000000E+03;  4.0000001E-01;  0.0000000E+00;0;  0.0000000E+00;  0.0000000E+00;  0.0000000E+00;0;  0.0000000E+00;  1.0000000E+04;  0.0000000E+00;  0.0000000E+00;  1.0000000E+04;  0.0000000E+00;  1.0000000E+04;  0.0000000E+00;  0.0000000E+00;  0.0000000E+00;  0.0000000E+00;
  2.2200000E+00;  9.9999998E-03;  3.9999999E-02;987;  0.0000000E+00;  0.0000000E+00;  0.0000000E+00;  1.0000000E+03;  4.0000001E-01;  0.0000000E+00;0;  0.0000000E+00;  0.0000000E+00;  0.0000000E+00;0;  0.0000000E+00;  1.0000000E+04;  0.0000000E+00;  0.0000000E+00;  1.0000000E+04;  0.0000000E+00;  1.0000000E+04;  0.0000000E+00;  0.0000000E+00;  0.0000000E+00;  0.0000000E+00;
  2.2200000E+00;  9.9999998E-03;  5.9999999E-02;988;  0.0000000E+00;  0.0000000E+00;  0.0000000E+00;  1.0000000E+03;  4.0000001E-01;  0.0000000E+00;0;  0.0000000E+00;  0.0000000E+00;  0.0000000E+00;0;  0.0000000E+00;  1.0000000E+04;  0.0000000E+00;  0.0000000E+00;  1.0000000E+04;  0.0000000E+00;  1.0000000E+04;  0.0000000E+00;  0.0000000E+00;  0.0000000E+00;  0.0000000E+00;
  2.2200000E+00;  9.9999998E-03;  7.9999998E-02;989;  0.0000000E+00;  0.0000000E+00;  0.0000000E+00;  1.0000000E+03;  4.0000001E-01;  0.0000000E+00;0;  0.0000000E+00;  0.0000000E+00;  0.0000000E+00;0;  0.0000000E+00;  1.0000000E+04;  0.0000000E+00;  0.0000000E+00;  1.0000000E+04;  0.0000000E+00;  1.0000000E+04;  0.0000000E+00;  0.0000000E+00;  0.0000000E+00;  0.0000000E+00;
  2.2200000E+00;  9.9999998E-03;  1.0000000E-01;990;  0.0000000E+00;  0.0000000E+00;  0.0000000E+00;  1.0000000E+03;  4.0000001E-01;  0.0000000E+00;0;  0.0000000E+00;  0.0000000E+00;  0.0000000E+00;0;  0.0000000E+00;  1.0000000E+04;  0.0000000E+00;  0.0000000E+00;  1.0000000E+04;  0.0000000E+00;  1.0000000E+04;  0.0000000E+00;  0.0000000E+00;  0.0000000E+00;  0.0000000E+00;
  2.2200000E+00;  9.9999998E-03;  1.2000000E-01;991;  0.0000000E+00;  0.0000000E+00;  0.0000000E+00;  1.0000000E+03;  4.0000001E-01;  0.0000000E+00;0;  0.0000000E+00;  0.0000000E+00;  0.0000000E+00;0;  0.0000000E+00;  1.0000000E+04;  0.0000000E+00;  0.0000000E+00;  1.0000000E+04;  0.0000000E+00;  1.0000000E+04;  0.0000000E+00;  0.0000000E+00;  0.0000000E+00;  0.0000000E+00;
  2.2200000E+00;  9.9999998E-03;  1.4000000E-01;992;  0.0000000E+00;  0.0000000E+00;  0.0000000E+00;  1.0000000E+03;  4.0000001E-01;  0.0000000E+00;0;  0.0000000E+00;  0.0000000E+00;  0.0000000E+00;0;  0.0000000E+00;  1.0000000E+04;  0.0000000E+00;  0.0000000E+00;  1.0000000E+04;  0.0000000E+00;  1.0000000E+04;  0.0000000E+00;  0.0000000E+00;  0.0000000E+00;  0.0000000E+00;
  2.2200000E+00;  9.9999998E-03;  1.6000000E-01;993;  0.0000000E+00;  0.0000000E+00;  0.0000000E+00;  1.0000000E+03;  4.0000001E-01;  0.0000000E+00;0;  0.0000000E+00;  0.0000000E+00;  0.0000000E+00;0;  0.0000000E+00;  1.0000000E+04;  0.0000000E+00;  0.0000000E+00;  1.0000000E+04;  0.0000000E+00;  1.0000000E+04;  0.0000000E+00;  0.0000000E+00;  0.0000000E+00;  0.0000000E+00;
  2.2200000E+00;  9.9999998E-03;  1.8000001E-01;994;  0.0000000E+00;  0.0000000E+00;  0.0000000E+00;  1.0000000E+03;  4.0000001E-01;  0.0000000E+00;0;  0.0000000E+00;  0.0000000E+00;  0.0000000E+00;0;  0.0000000E+00;  1.0000000E+04;  0.0000000E+00;  0.0000000E+00;  1.0000000E+04;  0.0000000E+00;  1.0000000E+04;  0.0000000E+00;  0.0000000E+00;  0.0000000E+00;  0.0000000E+00;
  2.2200000E+00;  9.9999998E-03;  2.0000000E-01;995;  0.0000000E+00;  0.0000000E+00;  0.0000000E+00;  1.0000000E+03;  4.0000001E-01;  0.0000000E+00;0;  0.0000000E+00;  0.0000000E+00;  0.0000000E+00;0;  0.0000000E+00;  1.0000000E+04;  0.0000000E+00;  0.0000000E+00;  1.0000000E+04;  0.0000000E+00;  1.0000000E+04;  0.0000000E+00;  0.0000000E+00;  0.0000000E+00;  0.0000000E+00;
  2.2200000E+00;  9.9999998E-03;  2.2000000E-01;996;  0.0000000E+00;  0.0000000E+00;  0.0000000E+00;  1.0000000E+03;  4.0000001E-01;  0.0000000E+00;0;  0.0000000E+00;  0.0000000E+00;  0.0000000E+00;0;  0.0000000E+00;  1.0000000E+04;  0.0000000E+00;  0.0000000E+00;  1.0000000E+04;  0.0000000E+00;  1.0000000E+04;  0.0000000E+00;  0.0000000E+00;  0.0000000E+00;  0.0000000E+00;
  2.2200000E+00;  9.9999998E-03;  2.3999999E-01;997;  0.0000000E+00;  0.0000000E+00;  0.0000000E+00;  1.0000000E+03;  4.0000001E-01;  0.0000000E+00;0;  0.0000000E+00;  0.0000000E+00;  0.0000000E+00;0;  0.0000000E+00;  1.0000000E+04;  0.0000000E+00;  0.0000000E+00;  1.0000000E+04;  0.0000000E+00;  1.0000000E+04;  0.0000000E+00;  0.0000000E+00;  0.0000000E+00;  0.0000000E+00;
  2.2200000E+00;  9.9999998E-03;  2.5999999E-01;998;  0.0000000E+00;  0.0000000E+00;  0.0000000E+00;  1.0000000E+03;  4.0000001E-01;  0.0000000E+00;0;  0.0000000E+00;  0.0000000E+00;  0.0000000E+00;0;  0.0000000E+00;  1.0000000E+04;  0.0000000E+00;  0.0000000E+00;  1.0000000E+04;  0.0000000E+00;  1.0000000E+04;  0.0000000E+00;  0.0000000E+00;  0.0000000E+00;  0.0000000E+00;
  2.2200000E+00;  9.9999998E-03;  2.8000000E-01;999;  0.0000000E+00;  0.0000000E+00;  0.0000000E+00;  1.0000000E+03;  4.0000001E-01;  0.0000000E+00;0;  0.0000000E+00;  0.0000000E+00;  0.0000000E+00;0;  0.0000000E+00;  1.0000000E+04;  0.0000000E+00;  0.0000000E+00;  1.0000000E+04;  0.0000000E+00;  1.0000000E+04;  0.0000000E+00;  0.0000000E+00;  0.0000000E+00;  0.0000000E+00;
  2.2200000E+00;  9.9999998E-03;  3.0000001E-01;1000;  0.0000000E+00;  0.0000000E+00;  0.0000000E+00;  1.0000000E+03;  4.0000001E-01;  0.0000000E+00;0;  0.0000000E+00;  0.0000000E+00;  0.0000000E+00;0;  0.0000000E+00;  1.0000000E+04;  0.0000000E+00;  0.0000000E+00;  1.0000000E+04;  0.0000000E+00;  1.0000000E+04;  0.0000000E+00;  0.0000000E+00;  0.0000000E+00;  0.0000000E+00;
  2.2200000E+00;  9.9999998E-03;  3.1999999E-01;1001;  0.0000000E+00;  0.0000000E+00;  0.0000000E+00;  1.0000000E+03;  4.0000001E-01;  0.0000000E+00;0;  0.0000000E+00;  0.0000000E+00;  0.0000000E+00;0;  0.0000000E+00;  1.0000000E+04;  0.0000000E+00;  0.0000000E+00;  1.0000000E+04;  0.0000000E+00;  1.0000000E+04;  0.0000000E+00;  0.0000000E+00;  0.0000000E+00;  0.0000000E+00;
  2.2200000E+00;  9.9999998E-03;  3.4000000E-01;1002;  0.0000000E+00;  0.0000000E+00;  0.0000000E+00;  1.0000000E+03;  4.0000001E-01;  0.0000000E+00;0;  0.0000000E+00;  0.0000000E+00;  0.0000000E+00;0;  0.0000000E+00;  1.0000000E+04;  0.0000000E+00;  0.0000000E+00;  1.0000000E+04;  0.0000000E+00;  1.0000000E+04;  0.0000000E+00;  0.0000000E+00;  0.0000000E+00;  0.0000000E+00;
  2.2200000E+00;  9.9999998E-03;  3.6000001E-01;1003;  0.0000000E+00;  0.0000000E+00;  0.0000000E+00;  1.0000000E+03;  4.0000001E-01;  0.0000000E+00;0;  0.0000000E+00;  0.0000000E+00;  0.0000000E+00;0;  0.0000000E+00;  1.0000000E+04;  0.0000000E+00;  0.0000000E+00;  1.0000000E+04;  0.0000000E+00;  1.0000000E+04;  0.0000000E+00;  0.0000000E+00;  0.0000000E+00;  0.0000000E+00;
  2.2200000E+00;  9.9999998E-03;  3.8000000E-01;1004;  0.0000000E+00;  0.0000000E+00;  0.0000000E+00;  1.0000000E+03;  4.0000001E-01;  0.0000000E+00;0;  0.0000000E+00;  0.0000000E+00;  0.0000000E+00;0;  0.0000000E+00;  1.0000000E+04;  0.0000000E+00;  0.0000000E+00;  1.0000000E+04;  0.0000000E+00;  1.0000000E+04;  0.0000000E+00;  0.0000000E+00;  0.0000000E+00;  0.0000000E+00;
  2.2400000E+00;  9.9999998E-03;  1.2000000E-01;1005;  0.0000000E+00;  0.0000000E+00;  0.0000000E+00;  1.0000000E+03;  4.0000001E-01;  0.0000000E+00;0;  0.0000000E+00;  0.0000000E+00;  0.0000000E+00;0;  0.0000000E+00;  1.0000000E+04;  0.0000000E+00;  0.0000000E+00;  1.0000000E+04;  0.0000000E+00;  1.0000000E+04;  0.0000000E+00;  0.0000000E+00;  0.0000000E+00;  0.0000000E+00;
  2.2400000E+00;  9.9999998E-03;  1.4000000E-01;1006;  0.0000000E+00;  0.0000000E+00;  0.0000000E+00;  1.0000000E+03;  4.0000001E-01;  0.0000000E+00;0;  0.0000000E+00;  0.0000000E+00;  0.0000000E+00;0;  0.0000000E+00;  1.0000000E+04;  0.0000000E+00;  0.0000000E+00;  1.0000000E+04;  0.0000000E+00;  1.0000000E+04;  0.0000000E+00;  0.0000000E+00;  0.0000000E+00;  0.0000000E+00;
  2.2400000E+00;  9.9999998E-03;  1.6000000E-01;1007;  0.0000000E+00;  0.0000000E+00;  0.0000000E+00;  1.0000000E+03;  4.0000001E-01;  0.0000000E+00;0;  0.0000000E+00;  0.0000000E+00;  0.0000000E+00;0;  0.0000000E+00;  1.0000000E+04;  0.0000000E+00;  0.0000000E+00;  1.0000000E+04;  0.0000000E+00;  1.0000000E+04;  0.0000000E+00;  0.0000000E+00;  0.0000000E+00;  0.0000000E+00;
  2.2400000E+00;  9.9999998E-03;  1.8000001E-01;1008;  0.0000000E+00;  0.0000000E+00;  0.0000000E+00;  1.0000000E+03;  4.0000001E-01;  0.0000000E+00;0;  0.0000000E+00;  0.0000000E+00;  0.0000000E+00;0;  0.0000000E+00;  1.0000000E+04;  0.0000000E+00;  0.0000000E+00;  1.0000000E+04;  0.0000000E+00;  1.0000000E+04;  0.0000000E+00;  0.0000000E+00;  0.0000000E+00;  0.0000000E+00;
  2.2400000E+00;  9.9999998E-03;  2.0000000E-01;1009;  0.0000000E+00;  0.0000000E+00;  0.0000000E+00;  1.0000000E+03;  4.0000001E-01;  0.0000000E+00;0;  0.0000000E+00;  0.0000000E+00;  0.0000000E+00;0;  0.0000000E+00;  1.0000000E+04;  0.0000000E+00;  0.0000000E+00;  1.0000000E+04;  0.0000000E+00;  1.0000000E+04;  0.0000000E+00;  0.0000000E+00;  0.0000000E+00;  0.0000000E+00;
  2.2400000E+00;  9.9999998E-03;  2.2000000E-01;1010;  0.0000000E+00;  0.0000000E+00;  0.0000000E+00;  1.0000000E+03;  4.0000001E-01;  0.0000000E+00;0;  0.0000000E+00;  0.0000000E+00;  0.0000000E+00;0;  0.0000000E+00;  1.0000000E+04;  0.0000000E+00;  0.0000000E+00;  1.0000000E+04;  0.0000000E+00;  1.0000000E+04;  0.0000000E+00;  0.0000000E+00;  0.0000000E+00;  0.0000000E+00;
  2.2400000E+00;  9.9999998E-03;  2.3999999E-01;1011;  0.0000000E+00;  0.0000000E+00;  0.0000000E+00;  1.0000000E+03;  4.0000001E-01;  0.0000000E+00;0;  0.0000000E+00;  0.0000000E+00;  0.0000000E+00;0;  0.0000000E+00;  1.0000000E+04;  0.0000000E+00;  0.0000000E+00;  1.0000000E+04;  0.0000000E+00;  1.0000000E+04;  0.0000000E+00;  0.0000000E+00;  0.0000000E+00;  0.0000000E+00;
  2.2400000E+00;  9.9999998E-03;  2.5999999E-01;1012;  0.0000000E+00;  0.0000000E+00;  0.0000000E+00;  1.0000000E+03;  4.0000001E-01;  0.0000000E+00;0;  0.0000000E+00;  0.0000000E+00;  0.0000000E+00;0;  0.0000000E+00;  1.0000000E+04;  0.0000000E+00;  0.0000000E+00;  1.0000000E+04;  0.0000000E+00;  1.0000000E+04;  0.0000000E+00;  0.0000000E+00;  0.0000000E+00;  0.0000000E+00;
  2.2400000E+00;  9.9999998E-03;  2.8000000E-01;1013;  0.0000000E+00;  0.0000000E+00;  0.0000000E+00;  1.0000000E+03;  4.0000001E-01;  0.0000000E+00;0;  0.0000000E+00;  0.0000000E+00;  0.0000000E+00;0;  0.0000000E+00;  1.0000000E+04;  0.0000000E+00;  0.0000000E+00;  1.0000000E+04;  0.0000000E+00;  1.0000000E+04;  0.0000000E+00;  0.0000000E+00;  0.0000000E+00;  0.0000000E+00;
  2.2400000E+00;  9.9999998E-03;  3.0000001E-01;1014;  0.0000000E+00;  0.0000000E+00;  0.0000000E+00;  1.0000000E+03;  4.0000001E-01;  0.0000000E+00;0;  0.0000000E+00;  0.0000000E+00;  0.0000000E+00;0;  0.0000000E+00;  1.0000000E+04;  0.0000000E+00;  0.0000000E+00;  1.0000000E+04;  0.0000000E+00;  1.0000000E+04;  0.0000000E+00;  0.0000000E+00;  0.0000000E+00;  0.0000000E+00;
  2.2400000E+00;  9.9999998E-03;  3.1999999E-01;1015;  0.0000000E+00;  0.0000000E+00;  0.0000000E+00;  1.0000000E+03;  4.0000001E-01;  0.0000000E+00;0;  0.0000000E+00;  0.0000000E+00;  0.0000000E+00;0;  0.0000000E+00;  1.0000000E+04;  0.0000000E+00;  0.0000000E+00;  1.0000000E+04;  0.0000000E+00;  1.0000000E+04;  0.0000000E+00;  0.0000000E+00;  0.0000000E+00;  0.0000000E+00;
  2.2400000E+00;  9.9999998E-03;  3.4000000E-01;1016;  0.0000000E+00;  0.0000000E+00;  0.0000000E+00;  1.0000000E+03;  4.0000001E-01;  0.0000000E+00;0;  0.0000000E+00;  0.0000000E+00;  0.0000000E+00;0;  0.0000000E+00;  1.0000000E+04;  0.0000000E+00;  0.0000000E+00;  1.0000000E+04;  0.0000000E+00;  1.0000000E+04;  0.0000000E+00;  0.0000000E+00;  0.0000000E+00;  0.0000000E+00;
  2.2400000E+00;  9.9999998E-03;  3.6000001E-01;1017;  0.0000000E+00;  0.0000000E+00;  0.0000000E+00;  1.0000000E+03;  4.0000001E-01;  0.0000000E+00;0;  0.0000000E+00;  0.0000000E+00;  0.0000000E+00;0;  0.0000000E+00;  1.0000000E+04;  0.0000000E+00;  0.0000000E+00;  1.0000000E+04;  0.0000000E+00;  1.0000000E+04;  0.0000000E+00;  0.0000000E+00;  0.0000000E+00;  0.0000000E+00;
  2.2400000E+00;  9.9999998E-03;  3.8000000E-01;1018;  0.0000000E+00;  0.0000000E+00;  0.0000000E+00;  1.0000000E+03;  4.0000001E-01;  0.0000000E+00;0;  0.0000000E+00;  0.0000000E+00;  0.0000000E+00;0;  0.0000000E+00;  1.0000000E+04;  0.0000000E+00;  0.0000000E+00;  1.0000000E+04;  0.0000000E+00;  1.0000000E+04;  0.0000000E+00;  0.0000000E+00;  0.0000000E+00;  0.0000000E+00;
  2.2600000E+00;  9.9999998E-03;  2.2000000E-01;1019;  0.0000000E+00;  0.0000000E+00;  0.0000000E+00;  1.0000000E+03;  4.0000001E-01;  0.0000000E+00;0;  0.0000000E+00;  0.0000000E+00;  0.0000000E+00;0;  0.0000000E+00;  1.0000000E+04;  0.0000000E+00;  0.0000000E+00;  1.0000000E+04;  0.0000000E+00;  1.0000000E+04;  0.0000000E+00;  0.0000000E+00;  0.0000000E+00;  0.0000000E+00;
  2.2600000E+00;  9.9999998E-03;  2.3999999E-01;1020;  0.0000000E+00;  0.0000000E+00;  0.0000000E+00;  1.0000000E+03;  4.0000001E-01;  0.0000000E+00;0;  0.0000000E+00;  0.0000000E+00;  0.0000000E+00;0;  0.0000000E+00;  1.0000000E+04;  0.0000000E+00;  0.0000000E+00;  1.0000000E+04;  0.0000000E+00;  1.0000000E+04;  0.0000000E+00;  0.0000000E+00;  0.0000000E+00;  0.0000000E+00;
  2.2600000E+00;  9.9999998E-03;  2.5999999E-01;1021;  0.0000000E+00;  0.0000000E+00;  0.0000000E+00;  1.0000000E+03;  4.0000001E-01;  0.0000000E+00;0;  0.0000000E+00;  0.0000000E+00;  0.0000000E+00;0;  0.0000000E+00;  1.0000000E+04;  0.0000000E+00;  0.0000000E+00;  1.0000000E+04;  0.0000000E+00;  1.0000000E+04;  0.0000000E+00;  0.0000000E+00;  0.0000000E+00;  0.0000000E+00;
  2.2600000E+00;  9.9999998E-03;  2.8000000E-01;1022;  0.0000000E+00;  0.0000000E+00;  0.0000000E+00;  1.0000000E+03;  4.0000001E-01;  0.0000000E+00;0;  0.0000000E+00;  0.0000000E+00;  0.0000000E+00;0;  0.0000000E+00;  1.0000000E+04;  0.0000000E+00;  0.0000000E+00;  1.0000000E+04;  0.0000000E+00;  1.0000000E+04;  0.0000000E+00;  0.0000000E+00;  0.0000000E+00;  0.0000000E+00;
  2.2600000E+00;  9.9999998E-03;  3.0000001E-01;1023;  0.0000000E+00;  0.0000000E+00;  0.0000000E+00;  1.0000000E+03;  4.0000001E-01;  0.0000000E+00;0;  0.0000000E+00;  0.0000000E+00;  0.0000000E+00;0;  0.0000000E+00;  1.0000000E+04;  0.0000000E+00;  0.0000000E+00;  1.0000000E+04;  0.0000000E+00;  1.0000000E+04;  0.0000000E+00;  0.0000000E+00;  0.0000000E+00;  0.0000000E+00;
  2.2600000E+00;  9.9999998E-03;  3.1999999E-01;1024;  0.0000000E+00;  0.0000000E+00;  0.0000000E+00;  1.0000000E+03;  4.0000001E-01;  0.0000000E+00;0;  0.0000000E+00;  0.0000000E+00;  0.0000000E+00;0;  0.0000000E+00;  1.0000000E+04;  0.0000000E+00;  0.0000000E+00;  1.0000000E+04;  0.0000000E+00;  1.0000000E+04;  0.0000000E+00;  0.0000000E+00;  0.0000000E+00;  0.0000000E+00;
  2.2600000E+00;  9.9999998E-03;  3.4000000E-01;1025;  0.0000000E+00;  0.0000000E+00;  0.0000000E+00;  1.0000000E+03;  4.0000001E-01;  0.0000000E+00;0;  0.0000000E+00;  0.0000000E+00;  0.0000000E+00;0;  0.0000000E+00;  1.0000000E+04;  0.0000000E+00;  0.0000000E+00;  1.0000000E+04;  0.0000000E+00;  1.0000000E+04;  0.0000000E+00;  0.0000000E+00;  0.0000000E+00;  0.0000000E+00;
  2.2600000E+00;  9.9999998E-03;  3.6000001E-01;1026;  0.0000000E+00;  0.0000000E+00;  0.0000000E+00;  1.0000000E+03;  4.0000001E-01;  0.0000000E+00;0;  0.0000000E+00;  0.0000000E+00;  0.0000000E+00;0;  0.0000000E+00;  1.0000000E+04;  0.0000000E+00;  0.0000000E+00;  1.0000000E+04;  0.0000000E+00;  1.0000000E+04;  0.0000000E+00;  0.0000000E+00;  0.0000000E+00;  0.0000000E+00;
  2.2600000E+00;  9.9999998E-03;  3.8000000E-01;1027;  0.0000000E+00;  0.0000000E+00;  0.0000000E+00;  1.0000000E+03;  4.0000001E-01;  0.0000000E+00;0;  0.0000000E+00;  0.0000000E+00;  0.0000000E+00;0;  0.0000000E+00;  1.0000000E+04;  0.0000000E+00;  0.0000000E+00;  1.0000000E+04;  0.0000000E+00;  1.0000000E+04;  0.0000000E+00;  0.0000000E+00;  0.0000000E+00;  0.0000000E+00;
  2.2800000E+00;  9.9999998E-03;  3.1999999E-01;1028;  0.0000000E+00;  0.0000000E+00;  0.0000000E+00;  1.0000000E+03;  4.0000001E-01;  0.0000000E+00;0;  0.0000000E+00;  0.0000000E+00;  0.0000000E+00;0;  0.0000000E+00;  1.0000000E+04;  0.0000000E+00;  0.0000000E+00;  1.0000000E+04;  0.0000000E+00;  1.0000000E+04;  0.0000000E+00;  0.0000000E+00;  0.0000000E+00;  0.0000000E+00;
  2.2800000E+00;  9.9999998E-03;  3.4000000E-01;1029;  0.0000000E+00;  0.0000000E+00;  0.0000000E+00;  1.0000000E+03;  4.0000001E-01;  0.0000000E+00;0;  0.0000000E+00;  0.0000000E+00;  0.0000000E+00;0;  0.0000000E+00;  1.0000000E+04;  0.0000000E+00;  0.0000000E+00;  1.0000000E+04;  0.0000000E+00;  1.0000000E+04;  0.0000000E+00;  0.0000000E+00;  0.0000000E+00;  0.0000000E+00;
  2.2800000E+00;  9.9999998E-03;  3.6000001E-01;1030;  0.0000000E+00;  0.0000000E+00;  0.0000000E+00;  1.0000000E+03;  4.0000001E-01;  0.0000000E+00;0;  0.0000000E+00;  0.0000000E+00;  0.0000000E+00;0;  0.0000000E+00;  1.0000000E+04;  0.0000000E+00;  0.0000000E+00;  1.0000000E+04;  0.0000000E+00;  1.0000000E+04;  0.0000000E+00;  0.0000000E+00;  0.0000000E+00;  0.0000000E+00;
 -1.0173616E-05;  9.9999998E-03; -2.8000402E-01;1031; -4.6121650E-03;  0.0000000E+00; -1.8721482E-03;  1.0002158E+03;  4.0000001E-01;  1.7876035E+02;3; -2.7397413E+00;  0.0000000E+00; -1.1417232E+00;0; -9.2139781E-02;  1.0003977E+04;  0.0000000E+00; -8.7161834E-06;  1.0000000E+04;  0.0000000E+00;  1.0000341E+04; -8.4348544E-02;  0.0000000E+00; -7.7912388E-03;  1.4241649E+02;
 -1.2458605E-05;  9.9999998E-03; -2.6000389E-01;1032; -5.6778882E-03;  0.0000000E+00; -1.8257567E-03;  1.0002584E+03;  4.0000001E-01;  2.1401860E+02;3; -3.1877289E+00;  0.0000000E+00; -1.0545454E+00;0; -1.1055128E-01;  1.0005009E+04;  0.0000000E+00; -3.8907465E-06;  1.0000000E+04;  0.0000000E+00;  1.0000166E+04; -1.0640224E-01;  0.0000000E+00; -4.1490332E-03;  5.6605598E+01;
 -1.4410477E-05;  9.9999998E-03; -2.4000357E-01;1033; -6.5975995E-03;  0.0000000E+00; -1.6923947E-03;  1.0002941E+03;  4.0000001E-01;  2.4364740E+02;3; -3.5639000E+00;  0.0000000E+00; -9.4880247E-01;0; -1.2607765E-01;  1.0005895E+04;  0.0000000E+00; -9.7288648E-07;  1.0000000E+04;  0.0000000E+00;  9.9999883E+03; -1.2568340E-01;  0.0000000E+00; -3.9425143E-04;  3.0167706E+01;
 -1.5960468E-05;  9.9999998E-03; -2.2000313E-01;1034; -7.3409369E-03;  0.0000000E+00; -1.5087258E-03;  1.0003225E+03;  4.0000001E-01;  2.6715289E+02;3; -3.8863583E+00;  0.0000000E+00; -8.3909488E-01;0; -1.3867573E-01;  1.0006604E+04;  0.0000000E+00; -1.4926625E-08;  1.0000000E+04;  0.0000000E+00;  9.9998477E+03; -1.4127235E-01;  0.0000000E+00;  2.5966165E-03;  9.8084389E+01;
 -1.7116030E-05;  9.9999998E-03; -2.0000266E-01;1035; -7.9034083E-03;  0.0000000E+00; -1.3136580E-03;  1.0003446E+03;  4.0000001E-01;  2.8552274E+02;3; -4.1547756E+00;  0.0000000E+00; -7.4013686E-01;0; -1.4863728E-01;  1.0007131E+04;  0.0000000E+00; -4.4369298E-08;  1.0000000E+04;  0.0000000E+00;  9.9997646E+03; -1.5314439E-01;  0.0000000E+00;  4.5071030E-03;  1.3998558E+02;
  1.9990146E-02;  9.9999998E-03; -3.0000523E-01;1060; -4.3828711E-03;  0.0000000E+00; -2.4096328E-03;  1.0002053E+03;  4.0000001E-01;  1.7006924E+02;3; -2.5683336E+00;  0.0000000E+00; -1.4631348E+00;0; -8.6449727E-02;  1.0003528E+04;  0.0000000E+00; -8.9378373E-06;  1.0000000E+04;  0.0000000E+00;  1.0000581E+04; -7.3673926E-02;  0.0000000E+00; -1.2775803E-02;  2.5634073E+02;
  1.9986041E-02;  9.9999998E-03; -2.8000486E-01;1061; -6.2636137E-03;  0.0000000E+00; -2.2272663E-03;  1.0002606E+03;  4.0000001E-01;  2.1589510E+02;3; -3.3483601E+00;  0.0000000E+00; -1.2254181E+00;0; -1.0981051E-01;  1.0004782E+04;  0.0000000E+00; -3.2286819E-06;  1.0000000E+04;  0.0000000E+00;  1.0000428E+04; -1.0001081E-01;  0.0000000E+00; -9.7996993E-03;  1.8122394E+02;
  1.9982498E-02;  9.9999998E-03; -2.6000485E-01;1062; -7.9003777E-03;  0.0000000E+00; -2.2469421E-03;  1.0003087E+03;  4.0000001E-01;  2.5569643E+02;3; -3.9023762E+00;  0.0000000E+00; -1.1488819E+00;0; -1.3034230E-01;  1.0005974E+04;  0.0000000E+00;  1.8897712E-06;  1.0000000E+04;  0.0000000E+00;  1.0000202E+04; -1.2521686E-01;  0.0000000E+00; -5.1254453E-03;  6.9701881E+01;
  1.9979609E-02;  9.9999998E-03; -2.4000457E-01;1063; -9.2474716E-03;  0.0000000E+00; -2.1505801E-03;  1.0003483E+03;  4.0000001E-01;  2.8858438E+02;3; -4.3229370E+00;  0.0000000E+00; -1.0542936E+00;0; -1.4745730E-01;  1.0006993E+04;  0.0000000E+00;  4.1827425E-06;  1.0000000E+04;  0.0000000E+00;  9.9999756E+03; -1.4703828E-01;  0.0000000E+00; -4.1901553E-04;  4.0542225E+01;
  1.9977396E-02;  9.9999998E-03; -2.2000410E-01;1064; -1.0297629E-02;  0.0000000E+00; -1.9662667E-03;  1.0003798E+03;  4.0000001E-01;  3.1465771E+02;3; -4.6744518E+00;  0.0000000E+00; -9.5291805E-01;0; -1.6116975E-01;  1.0007799E+04;  0.0000000E+00;  3.8844032E-06;  1.0000000E+04;  0.0000000E+00;  9.9997988E+03; -1.6447577E-01;  0.0000000E+00;  3.3060126E-03;  1.2600004E+02;
  1.9975791E-02;  9.9999998E-03; -2.0000353E-01;1065; -1.1072980E-02;  0.0000000E+00; -1.7417155E-03;  1.0004039E+03;  4.0000001E-01;  3.3460776E+02;3; -4.9735241E+00;  0.0000000E+00; -8.5708940E-01;0; -1.7188393E-01;  1.0008390E+04;  0.0000000E+00;  2.5354204E-06;  1.0000000E+04;  0.0000000E+00;  9.9996914E+03; -1.7758101E-01;  0.0000000E+00;  5.6970920E-03;  1.7850787E+02;
  3.9986372E-02;  9.9999998E-03; -3.0000564E-01;1091; -6.0097771E-03;  0.0000000E+00; -2.5588793E-03;  1.0002380E+03;  4.0000001E-01;  1.9722896E+02;3; -3.2892160E+00;  0.0000000E+00; -1.4518576E+00;0; -9.8465234E-02;  1.0004068E+04;  0.0000000E+00; -6.0144566E-06;  1.0000000E+04;  0.0000000E+00;  1.0000692E+04; -8.3452448E-02;  0.0000000E+00; -1.5012789E-02;  3.0614108E+02;
  3.9980739E-02;  9.9999998E-03; -2.8000540E-01;1092; -8.5693784E-03;  0.0000000E+00; -2.4246895E-03;  1.0002992E+03;  4.0000001E-01;  2.4789418E+02;3; -4.1803560E+00;  0.0000000E+00; -1.2147512E+00;0; -1.2395754E-01;  1.0005486E+04;  0.0000000E+00; -1.6157651E-06;  1.0000000E+04;  0.0000000E+00;  1.0000497E+04; -1.1273266E-01;  0.0000000E+00; -1.1224872E-02;  2.0970490E+02;
  3.9975870E-02;  9.9999998E-03; -2.6000533E-01;1093; -1.0799523E-02;  0.0000000E+00; -2.4171064E-03;  1.0003521E+03;  4.0000001E-01;  2.9174478E+02;3; -4.7652493E+00;  0.0000000E+00; -1.1030250E+00;0; -1.4615187E-01;  1.0006819E+04;  0.0000000E+00;  3.1494094E-06;  1.0000000E+04;  0.0000000E+00;  1.0000224E+04; -1.4037272E-01;  0.0000000E+00; -5.7791518E-03;  7.6953354E+01;
  3.9971884E-02;  9.9999998E-03; -2.4000503E-01;1094; -1.2644358E-02;  0.0000000E+00; -2.3324073E-03;  1.0003950E+03;  4.0000001E-01;  3.2720056E+02;3; -5.2005882E+00;  0.0000000E+00; -1.0111694E+00;0; -1.6432180E-01;  1.0007939E+04;  0.0000000E+00;  5.5941778E-06;  1.0000000E+04;  0.0000000E+00;  9.9999619E+03; -1.6389319E-01;  0.0000000E+00; -4.2859558E-04;  5.1161171E+01;
  3.9968882E-02;  9.9999998E-03; -2.2000459E-01;1095; -1.4056477E-02;  0.0000000E+00; -2.1808557E-03;  1.0004278E+03;  4.0000001E-01;  3.5445905E+02;3; -5.5668106E+00;  0.0000000E+00; -9.3352246E-01;0; -1.7856930E-01;  1.0008804E+04;  0.0000000E+00;  5.3839185E-06;  1.0000000E+04;  0.0000000E+00;  9.9997588E+03; -1.8233910E-01;  0.0000000E+00;  3.7698012E-03;  1.4921603E+02;
  3.9966740E-02;  9.9999998E-03; -2.0000401E-01;1096; -1.5087211E-02;  0.0000000E+00; -1.9583509E-03;  1.0004528E+03;  4.0000001E-01;  3.7519922E+02;3; -5.8956985E+00;  0.0000000E+00; -8.5483980E-01;0; -1.8945844E-01;  1.0009421E+04;  0.0000000E+00;  3.9200240E-06;  1.0000000E+04;  0.0000000E+00;  9.9996377E+03; -1.9592784E-01;  0.0000000E+00;  6.4694006E-03;  2.0890700E+02;
  5.9981737E-02;  9.9999998E-03; -3.0000585E-01;1122; -7.9896282E-03;  0.0000000E+00; -2.5758105E-03;  1.0002687E+03;  4.0000001E-01;  2.2261096E+02;3; -4.1616707E+00;  0.0000000E+00; -1.3780031E+00;0; -1.0885274E-01;  1.0004607E+04;  0.0000000E+00; -5.0936760E-05;  1.0000000E+04;  0.0000000E+00;  1.0000766E+04; -9.2553049E-02;  0.0000000E+00; -1.6299697E-02;  3.3852420E+02;
  5.9974354E-02;  9.9999998E-03; -2.8000548E-01;1123; -1.1308520E-02;  0.0000000E+00; -2.3987212E-03;  1.0003364E+03;  4.0000001E-01;  2.7870813E+02;3; -5.1521196E+00;  0.0000000E+00; -1.1063309E+00;0; -1.3640830E-01;  1.0006191E+04;  0.0000000E+00; -2.0317832E-05;  1.0000000E+04;  0.0000000E+00;  1.0000534E+04; -1.2445017E-01;  0.0000000E+00; -1.1958128E-02;  2.2545172E+02;
  5.9968084E-02;  9.9999998E-03; -2.6000547E-01;1124; -1.4145787E-02;  0.0000000E+00; -2.4181849E-03;  1.0003940E+03;  4.0000001E-01;  3.2641046E+02;3; -5.7311697E+00;  0.0000000E+00; -1.0056095E+00;0; -1.6017728E-01;  1.0007650E+04;  0.0000000E+00; -5.4986081E-06;  1.0000000E+04;  0.0000000E+00;  1.0000234E+04; -1.5411597E-01;  0.0000000E+00; -6.0613067E-03;  7.7226097E+01;
  5.9962995E-02;  9.9999998E-03; -2.4000521E-01;1125; -1.6476853E-02;  0.0000000E+00; -2.3641780E-03;  1.0004398E+03;  4.0000001E-01;  3.6433533E+02;3; -6.1492319E+00;  0.0000000E+00; -9.2848873E-01;0; -1.7927338E-01;  1.0008854E+04;  0.0000000E+00; -8.2089713E-07;  1.0000000E+04;  0.0000000E+00;  9.9999482E+03; -1.7885146E-01;  0.0000000E+00; -4.2192126E-04;  6.2143097E+01;
  5.9959184E-02;  9.9999998E-03; -2.2000480E-01;1126; -1.8251030E-02;  0.0000000E+00; -2.2429836E-03;  1.0004745E+03;  4.0000001E-01;  3.9307526E+02;3; -6.5173149E+00;  0.0000000E+00; -8.7426829E-01;0; -1.9385515E-01;  1.0009761E+04;  0.0000000E+00;  1.8278419E-06;  1.0000000E+04;  0.0000000E+00;  9.9997314E+03; -1.9779107E-01;  0.0000000E+00;  3.9359191E-03;  1.6676276E+02;
  5.9956506E-02;  9.9999998E-03; -2.0000421E-01;1127; -1.9534407E-02;  0.0000000E+00; -2.0360306E-03;  1.0004993E+03;  4.0000001E-01;  4.1361786E+02;3; -6.8744764E+00;  0.0000000E+00; -8.1224382E-01;0; -2.0466271E-01;  1.0010389E+04;  0.0000000E+00;  2.5794393E-06;  1.0000000E+04;  0.0000000E+00;  9.9996025E+03; -2.1138655E-01;  0.0000000E+00;  6.7238356E-03;  2.2928685E+02;
  7.9976343E-02;  9.9999998E-03; -3.0000600E-01;1153; -1.0248398E-02;  0.0000000E+00; -2.5486248E-03;  1.0003034E+03;  4.0000001E-01;  2.5135088E+02;3; -5.1687431E+00;  0.0000000E+00; -1.2980099E+00;0; -1.1988799E-01;  1.0005261E+04;  0.0000000E+00; -4.3486697E-03;  1.0000000E+04;  0.0000000E+00;  1.0000804E+04; -1.0319878E-01;  0.0000000E+00; -1.6689207E-02;  3.5486725E+02;
  7.9967044E-02;  9.9999998E-03; -2.8000543E-01;1154; -1.4369867E-02;  0.0000000E+00; -2.2632298E-03;  1.0003777E+03;  4.0000001E-01;  3.1288000E+02;3; -6.2578869E+00;  0.0000000E+00; -9.7531319E-01;0; -1.4953184E-01;  1.0007007E+04;  0.0000000E+00; -2.4552296E-03;  1.0000000E+04;  0.0000000E+00;  1.0000551E+04; -1.3749713E-01;  0.0000000E+00; -1.2034720E-02;  2.2912177E+02;
  7.9959311E-02;  9.9999998E-03; -2.6000535E-01;1155; -1.7822912E-02;  0.0000000E+00; -2.2903099E-03;  1.0004405E+03;  4.0000001E-01;  3.6492789E+02;3; -6.8259315E+00;  0.0000000E+00; -8.8569260E-01;0; -1.7482729E-01;  1.0008585E+04;  0.0000000E+00; -8.6846267E-04;  1.0000000E+04;  0.0000000E+00;  1.0000226E+04; -1.6882727E-01;  0.0000000E+00; -6.0000340E-03;  7.0924744E+01;
  7.9953127E-02;  9.9999998E-03; -2.4000514E-01;1156; -2.0621791E-02;  0.0000000E+00; -2.2644666E-03;  1.0004896E+03;  4.0000001E-01;  4.0561810E+02;3; -7.2205820E+00;  0.0000000E+00; -8.2894707E-01;0; -1.9484812E-01;  1.0009863E+04;  0.0000000E+00; -1.0814737E-04;  1.0000000E+04;  0.0000000E+00;  9.9999326E+03; -1.9443867E-01;  0.0000000E+00; -4.0945364E-04;  7.3493858E+01;
  7.9948559E-02;  9.9999998E-03; -2.2000477E-01;1157; -2.2724481E-02;  0.0000000E+00; -2.1805963E-03;  1.0005257E+03;  4.0000001E-01;  4.3554318E+02;3; -7.5885911E+00;  0.0000000E+00; -7.9722738E-01;0; -2.0978014E-01;  1.0010798E+04;  0.0000000E+00; -7.8828689E-06;  1.0000000E+04;  0.0000000E+00;  9.9997148E+03; -2.1359420E-01;  0.0000000E+00;  3.8140521E-03;  1.7902667E+02;
  7.9945400E-02;  9.9999998E-03; -2.0000421E-01;1158; -2.4231214E-02;  0.0000000E+00; -2.0036495E-03;  1.0005501E+03;  4.0000001E-01;  4.5578952E+02;3; -7.9720550E+00;  0.0000000E+00; -7.5737250E-01;0; -2.2045574E-01;  1.0011420E+04;  0.0000000E+00; -1.8469271E-06;  1.0000000E+04;  0.0000000E+00;  9.9995918E+03; -2.2694226E-01;  0.0000000E+00;  6.4865164E-03;  2.4041447E+02;
  9.9970080E-02;  9.9999998E-03; -3.0000621E-01;1184; -1.2807546E-02;  0.0000000E+00; -2.5412943E-03;  1.0003520E+03;  4.0000001E-01;  2.9164603E+02;3; -6.3300810E+00;  0.0000000E+00; -1.2459526E+00;0; -1.3569984E-01;  1.0006225E+04;  0.0000000E+00; -3.8061697E-02;  1.0000000E+04;  0.0000000E+00;  1.0000816E+04; -1.1924414E-01;  0.0000000E+00; -1.6455691E-02;  4.1141312E+02;
  9.9958688E-02;  9.9999998E-03; -2.8000522E-01;1185; -1.7778544E-02;  0.0000000E+00; -2.0650921E-03;  1.0004331E+03;  4.0000001E-01;  3.5880463E+02;3; -7.5314693E+00;  0.0000000E+00; -8.3757210E-01;0; -1.6702886E-01;  1.0008112E+04;  0.0000000E+00; -2.4177833E-02;  1.0000000E+04;  0.0000000E+00;  1.0000546E+04; -1.5536784E-01;  0.0000000E+00; -1.1661022E-02;  2.5763037E+02;
  9.9949449E-02;  9.9999998E-03; -2.6000509E-01;1186; -2.1837641E-02;  0.0000000E+00; -2.0634744E-03;  1.0004992E+03;  4.0000001E-01;  4.1361786E+02;3; -8.0814075E+00;  0.0000000E+00; -7.4859333E-01;0; -1.9306764E-01;  1.0009777E+04;  0.0000000E+00; -1.1217144E-02;  1.0000000E+04;  0.0000000E+00;  1.0000211E+04; -1.8736517E-01;  0.0000000E+00; -5.7024583E-03;  8.4128082E+01;
  9.9942200E-02;  9.9999998E-03; -2.4000487E-01;1187; -2.5074076E-02;  0.0000000E+00; -2.0600604E-03;  1.0005499E+03;  4.0000001E-01;  4.5559198E+02;3; -8.4530220E+00;  0.0000000E+00; -7.1260118E-01;0; -2.1336448E-01;  1.0011086E+04;  0.0000000E+00; -3.1326776E-03;  1.0000000E+04;  0.0000000E+00;  9.9999199E+03; -2.1294700E-01;  0.0000000E+00; -4.1748816E-04;  8.6813240E+01;
  9.9936947E-02;  9.9999998E-03; -2.2000454E-01;1188; -2.7473096E-02;  0.0000000E+00; -2.0240038E-03;  1.0005866E+03;  4.0000001E-01;  4.8601086E+02;3; -8.8227921E+00;  0.0000000E+00; -7.0814657E-01;0; -2.2833982E-01;  1.0012021E+04;  0.0000000E+00; -3.6947744E-04;  1.0000000E+04;  0.0000000E+00;  9.9997100E+03; -2.3178478E-01;  0.0000000E+00;  3.4449601E-03;  1.8719540E+02;
  9.9933371E-02;  9.9999998E-03; -2.0000404E-01;1189; -2.9168008E-02;  0.0000000E+00; -1.8943724E-03;  1.0006111E+03;  4.0000001E-01;  5.0625720E+02;3; -9.2307262E+00;  0.0000000E+00; -6.9364542E-01;0; -2.3881622E-01;  1.0012634E+04;  0.0000000E+00; -9.1186967E-06;  1.0000000E+04;  0.0000000E+00;  9.9995928E+03; -2.4467710E-01;  0.0000000E+00;  5.8608805E-03;  2.4473392E+02;
  1.1996271E-01;  9.9999998E-03; -3.0000672E-01;1215; -1.5729463E-02;  0.0000000E+00; -2.6702199E-03;  1.0004310E+03;  4.0000001E-01;  3.5702689E+02;3; -7.6622734E+00;  0.0000000E+00; -1.2840672E+00;0; -1.6213629E-01;  1.0007798E+04;  0.0000000E+00; -1.5851194E-01;  1.0000000E+04;  0.0000000E+00;  1.0000823E+04; -1.4615637E-01;  0.0000000E+00; -1.5979921E-02;  9.1973700E+02;
  1.1994903E-01;  9.9999998E-03; -2.8000507E-01;1216; -2.1609209E-02;  0.0000000E+00; -1.8926418E-03;  1.0005153E+03;  4.0000001E-01;  4.2695084E+02;3; -8.9888678E+00;  0.0000000E+00; -7.2587204E-01;0; -1.9399861E-01;  1.0009771E+04;  0.0000000E+00; -1.0886463E-01;  1.0000000E+04;  0.0000000E+00;  1.0000537E+04; -1.8281370E-01;  0.0000000E+00; -1.1184899E-02;  6.2031384E+02;
  1.1993826E-01;  9.9999998E-03; -2.6000473E-01;1217; -2.6264530E-02;  0.0000000E+00; -1.7997216E-03;  1.0005797E+03;  4.0000001E-01;  4.8028265E+02;3; -9.5154238E+00;  0.0000000E+00; -6.0121536E-01;0; -2.1846302E-01;  1.0011399E+04;  0.0000000E+00; -5.5070557E-02;  1.0000000E+04;  0.0000000E+00;  1.0000192E+04; -2.1312901E-01;  0.0000000E+00; -5.3339992E-03;  2.9781549E+02;
  1.1992998E-01;  9.9999998E-03; -2.4000449E-01;1218; -2.9911496E-02;  0.0000000E+00; -1.8079535E-03;  1.0006269E+03;  4.0000001E-01;  5.1939264E+02;3; -9.8447647E+00;  0.0000000E+00; -5.8904028E-01;0; -2.3704129E-01;  1.0012638E+04;  0.0000000E+00; -1.9344164E-02;  1.0000000E+04;  0.0000000E+00;  9.9999033E+03; -2.3660514E-01;  0.0000000E+00; -4.3615187E-04;  1.4308784E+02;
  1.1992408E-01;  9.9999998E-03; -2.2000425E-01;1219; -3.2587092E-02;  0.0000000E+00; -1.8181066E-03;  1.0006608E+03;  4.0000001E-01;  5.4744122E+02;3; -1.0213480E+01;  0.0000000E+00; -6.0898805E-01;0; -2.5079754E-01;  1.0013515E+04;  0.0000000E+00; -3.9468175E-03;  1.0000000E+04;  0.0000000E+00;  9.9997070E+03; -2.5375181E-01;  0.0000000E+00;  2.9542670E-03;  1.9598175E+02;
  1.1992013E-01;  9.9999998E-03; -2.0000383E-01;1220; -3.4449235E-02;  0.0000000E+00; -1.7514748E-03;  1.0006840E+03;  4.0000001E-01;  5.6669995E+02;3; -1.0644686E+01;  0.0000000E+00; -6.2332356E-01;0; -2.6051489E-01;  1.0014078E+04;  0.0000000E+00; -2.9767113E-04;  1.0000000E+04;  0.0000000E+00;  9.9996025E+03; -2.6555291E-01;  0.0000000E+00;  5.0380183E-03;  2.4686569E+02;
  1.3995390E-01;  9.9999998E-03; -3.0000773E-01;1246; -1.9123519E-02;  0.0000000E+00; -3.0426986E-03;  1.0005595E+03;  4.0000001E-01;  4.6359177E+02;3; -9.1973057E+00;  0.0000000E+00; -1.4640942E+00;0; -2.0612395E-01;  1.0010353E+04;  0.0000000E+00; -4.5661286E-01;  1.0000000E+04;  0.0000000E+00;  1.0000841E+04; -1.9051439E-01;  0.0000000E+00; -1.5609569E-02;  2.4710176E+03;
  1.3993776E-01;  9.9999998E-03; -2.8000522E-01;1247; -2.5955636E-02;  0.0000000E+00; -1.8566243E-03;  1.0006406E+03;  4.0000001E-01;  5.3065155E+02;3; -1.0625217E+01;  0.0000000E+00; -6.9532776E-01;0; -2.3583516E-01;  1.0012271E+04;  0.0000000E+00; -3.2208037E-01;  1.0000000E+04;  0.0000000E+00;  1.0000544E+04; -2.2478454E-01;  0.0000000E+00; -1.1050634E-02;  1.7371838E+03;
  1.3992545E-01;  9.9999998E-03; -2.6000455E-01;1248; -3.1192949E-02;  0.0000000E+00; -1.6105719E-03;  1.0006909E+03;  4.0000001E-01;  5.7232941E+02;3; -1.1100267E+01;  0.0000000E+00; -4.9451351E-01;0; -2.5430015E-01;  1.0013650E+04;  0.0000000E+00; -1.6952020E-01;  1.0000000E+04;  0.0000000E+00;  1.0000174E+04; -2.4920627E-01;  0.0000000E+00; -5.0938828E-03;  9.0794299E+02;
  1.3991611E-01;  9.9999998E-03; -2.4000421E-01;1249; -3.5244171E-02;  0.0000000E+00; -1.5992270E-03;  1.0007255E+03;  4.0000001E-01;  6.0106934E+02;3; -1.1370673E+01;  0.0000000E+00; -4.9134827E-01;0; -2.6744100E-01;  1.0014638E+04;  0.0000000E+00; -6.5123744E-02;  1.0000000E+04;  0.0000000E+00;  9.9998779E+03; -2.6706201E-01;  0.0000000E+00; -3.7899637E-04;  3.6829761E+02;
  1.3990960E-01;  9.9999998E-03; -2.2000405E-01;1250; -3.8182512E-02;  0.0000000E+00; -1.6459776E-03;  1.0007509E+03;  4.0000001E-01;  6.2210577E+02;3; -1.1732893E+01;  0.0000000E+00; -5.1753378E-01;0; -2.7759504E-01;  1.0015325E+04;  0.0000000E+00; -1.6534375E-02;  1.0000000E+04;  0.0000000E+00;  9.9996924E+03; -2.8021842E-01;  0.0000000E+00;  2.6233729E-03;  2.2808713E+02;
  1.3990533E-01;  9.9999998E-03; -2.0000373E-01;1251; -4.0200144E-02;  0.0000000E+00; -1.6436795E-03;  1.0007687E+03;  4.0000001E-01;  6.3682141E+02;3; -1.2182663E+01;  0.0000000E+00; -5.5979252E-01;0; -2.8532332E-01;  1.0015781E+04;  0.0000000E+00; -2.1777097E-03;  1.0000000E+04;  0.0000000E+00;  9.9996006E+03; -2.8970173E-01;  0.0000000E+00;  4.3784096E-03;  2.5622098E+02;
  1.5994298E-01;  9.9999998E-03; -3.0000892E-01;1277; -2.3245800E-02;  0.0000000E+00; -3.4751787E-03;  1.0007563E+03;  4.0000001E-01;  6.2664886E+02;3; -1.1047115E+01;  0.0000000E+00; -1.6697960E+00;0; -2.7381939E-01;  1.0014248E+04;  0.0000000E+00; -1.0283713E+00;  1.0000000E+04;  0.0000000E+00;  1.0000886E+04; -2.5798851E-01;  0.0000000E+00; -1.5830878E-02;  5.5242319E+03;
  1.5992457E-01;  9.9999998E-03; -2.8000569E-01;1278; -3.0882914E-02;  0.0000000E+00; -1.9946904E-03;  1.0008192E+03;  4.0000001E-01;  6.7869678E+02;3; -1.2438997E+01;  0.0000000E+00; -7.4523735E-01;0; -2.9570892E-01;  1.0015806E+04;  0.0000000E+00; -7.1992058E-01;  1.0000000E+04;  0.0000000E+00;  1.0000578E+04; -2.8400949E-01;  0.0000000E+00; -1.1699449E-02;  3.8644136E+03;
  1.5991080E-01;  9.9999998E-03; -2.6000479E-01;1279; -3.6640603E-02;  0.0000000E+00; -1.6356141E-03;  1.0008381E+03;  4.0000001E-01;  6.9440002E+02;3; -1.2792317E+01;  0.0000000E+00; -4.8150063E-01;0; -3.0164772E-01;  1.0016619E+04;  0.0000000E+00; -3.8205820E-01;  1.0000000E+04;  0.0000000E+00;  1.0000149E+04; -2.9656398E-01;  0.0000000E+00; -5.0837398E-03;  2.0471226E+03;
  1.5990037E-01;  9.9999998E-03; -2.4000432E-01;1280; -4.1129328E-02;  0.0000000E+00; -1.5513179E-03;  1.0008470E+03;  4.0000001E-01;  7.0180719E+02;3; -1.3006464E+01;  0.0000000E+00; -4.5117378E-01;0; -3.0454016E-01;  1.0017120E+04;  0.0000000E+00; -1.5227762E-01;  1.0000000E+04;  0.0000000E+00;  9.9998223E+03; -3.0452719E-01;  0.0000000E+00; -1.2975419E-05;  8.3012390E+02;
  1.5989323E-01;  9.9999998E-03; -2.2000420E-01;1281; -4.4329483E-02;  0.0000000E+00; -1.6296246E-03;  1.0008556E+03;  4.0000001E-01;  7.0881934E+02;3; -1.3349168E+01;  0.0000000E+00; -4.8130131E-01;0; -3.0814016E-01;  1.0017484E+04;  0.0000000E+00; -4.2927772E-02;  1.0000000E+04;  0.0000000E+00;  9.9996309E+03; -3.1106660E-01;  0.0000000E+00;  2.9264479E-03;  3.3769745E+02;
  1.5988870E-01;  9.9999998E-03; -2.0000395E-01;1282; -4.6498228E-02;  0.0000000E+00; -1.6647036E-03;  1.0008646E+03;  4.0000001E-01;  7.1632532E+02;3; -1.3817140E+01;  0.0000000E+00; -5.2283740E-01;0; -3.1235793E-01;  1.0017742E+04;  0.0000000E+00; -7.2654611E-03;  1.0000000E+04;  0.0000000E+00;  9.9995508E+03; -3.1680393E-01;  0.0000000E+00;  4.4460017E-03;  2.8969238E+02;
  1.7992871E-01;  9.9999998E-03; -3.0000898E-01;1308; -2.8669477E-02;  0.0000000E+00; -3.2557149E-03;  1.0010296E+03;  4.0000001E-01;  8.5301276E+02;3; -1.3513641E+01;  0.0000000E+00; -1.4769669E+00;0; -3.6755991E-01;  1.0019517E+04;  0.0000000E+00; -1.8553550E+00;  1.0000000E+04;  0.0000000E+00;  1.0001081E+04; -3.4817263E-01;  0.0000000E+00; -1.9387279E-02;  9.9646377E+03;
  1.7990901E-01;  9.9999998E-03; -2.8000626E-01;1309; -3.6559954E-02;  0.0000000E+00; -2.1105383E-03;  1.0010457E+03;  4.0000001E-01;  8.6634576E+02;3; -1.4484127E+01;  0.0000000E+00; -7.6744270E-01;0; -3.7066570E-01;  1.0020254E+04;  0.0000000E+00; -1.2749276E+00;  1.0000000E+04;  0.0000000E+00;  1.0000670E+04; -3.5678887E-01;  0.0000000E+00; -1.3876838E-02;  6.8438110E+03;
  1.7989394E-01;  9.9999998E-03; -2.6000538E-01;1310; -4.2721674E-02;  0.0000000E+00; -1.8101111E-03;  1.0010144E+03;  4.0000001E-01;  8.4037115E+02;3; -1.4607117E+01;  0.0000000E+00; -5.3693008E-01;0; -3.5716563E-01;  1.0020189E+04;  0.0000000E+00; -6.7013729E-01;  1.0000000E+04;  0.0000000E+00;  1.0000110E+04; -3.5194939E-01;  0.0000000E+00; -5.2162353E-03;  3.5938379E+03;
  1.7988253E-01;  9.9999998E-03; -2.4000499E-01;1311; -4.7601543E-02;  0.0000000E+00; -1.7425310E-03;  1.0009857E+03;  4.0000001E-01;  8.1666815E+02;3; -1.4739080E+01;  0.0000000E+00; -4.8102665E-01;0; -3.4584674E-01;  1.0020026E+04;  0.0000000E+00; -2.7015460E-01;  1.0000000E+04;  0.0000000E+00;  9.9996963E+03; -3.4702632E-01;  0.0000000E+00;  1.1795796E-03;  1.4651892E+03;
  1.7987478E-01;  9.9999998E-03; -2.2000492E-01;1312; -5.1066365E-02;  0.0000000E+00; -1.8579547E-03;  1.0009719E+03;  4.0000001E-01;  8.0521167E+02;3; -1.5057683E+01;  0.0000000E+00; -5.1293778E-01;0; -3.4077200E-01;  1.0019962E+04;  0.0000000E+00; -8.0175929E-02;  1.0000000E+04;  0.0000000E+00;  9.9994883E+03; -3.4533620E-01;  0.0000000E+00;  4.5642098E-03;  5.4000531E+02;
  1.7987004E-01;  9.9999998E-03; -2.0000476E-01;1313; -5.3357430E-02;  0.0000000E+00; -1.9368859E-03;  1.0009690E+03;  4.0000001E-01;  8.0284137E+02;3; -1.5526822E+01;  0.0000000E+00; -5.6633949E-01;0; -3.4048274E-01;  1.0019970E+04;  0.0000000E+00; -1.5396263E-02;  1.0000000E+04;  0.0000000E+00;  9.9994170E+03; -3.4646499E-01;  0.0000000E+00;  5.9822556E-03;  3.7004251E+02;
  1.9990994E-01;  9.9999998E-03; -3.0000779E-01;1339; -3.5845932E-02;  0.0000000E+00; -2.3307598E-03;  1.0013507E+03;  4.0000001E-01;  1.1190793E+03;3; -1.6820625E+01;  0.0000000E+00; -8.6879730E-01;0; -4.7736296E-01;  1.0025375E+04;  0.0000000E+00; -2.6286190E+00;  1.0000000E+04;  0.0000000E+00;  1.0001651E+04; -4.4553277E-01;  0.0000000E+00; -3.1830188E-02;  1.4141066E+04;
  1.9989029E-01;  9.9999998E-03; -2.8000671E-01;1340; -4.3260273E-02;  0.0000000E+00; -2.1197104E-03;  1.0012906E+03;  4.0000001E-01;  1.0692042E+03;3; -1.6873281E+01;  0.0000000E+00; -7.1223450E-01;0; -4.4891050E-01;  1.0024965E+04;  0.0000000E+00; -1.7954584E+00;  1.0000000E+04;  0.0000000E+00;  1.0000868E+04; -4.3000117E-01;  0.0000000E+00; -1.8909328E-02;  9.6475195E+03;
  1.9987443E-01;  9.9999998E-03; -2.6000628E-01;1341; -4.9588464E-02;  0.0000000E+00; -2.0840582E-03;  1.0011984E+03;  4.0000001E-01;  9.9286066E+02;3; -1.6605331E+01;  0.0000000E+00; -6.1158371E-01;0; -4.1250530E-01;  1.0023969E+04;  0.0000000E+00; -9.3260175E-01;  1.0000000E+04;  0.0000000E+00;  1.0000017E+04; -4.0728769E-01;  0.0000000E+00; -5.2176216E-03;  5.0064878E+03;
  1.9986227E-01;  9.9999998E-03; -2.4000630E-01;1342; -5.4725930E-02;  0.0000000E+00; -2.2102287E-03;  1.0011295E+03;  4.0000001E-01;  9.3577588E+02;3; -1.6552341E+01;  0.0000000E+00; -6.0816002E-01;0; -3.8624471E-01;  1.0023159E+04;  0.0000000E+00; -3.7603885E-01;  1.0000000E+04;  0.0000000E+00;  9.9994521E+03; -3.9032671E-01;  0.0000000E+00;  4.0819836E-03;  2.0480771E+03;
  1.9985408E-01;  9.9999998E-03; -2.2000642E-01;1343; -5.8408566E-02;  0.0000000E+00; -2.3932736E-03;  1.0010930E+03;  4.0000001E-01;  9.0545575E+02;3; -1.6829365E+01;  0.0000000E+00; -6.2935472E-01;0; -3.7269443E-01;  1.0022681E+04;  0.0000000E+00; -1.1423794E-01;  1.0000000E+04;  0.0000000E+00;  9.9991924E+03; -3.8113874E-01;  0.0000000E+00;  8.4443223E-03;  7.7633801E+02;
  1.9984922E-01;  9.9999998E-03; -2.0000634E-01;1344; -6.0782444E-02;  0.0000000E+00; -2.5253394E-03;  1.0010790E+03;  4.0000001E-01;  8.9399927E+02;3; -1.7296688E+01;  0.0000000E+00; -6.9554341E-01;0; -3.6818081E-01;  1.0022447E+04;  0.0000000E+00; -2.3326419E-02;  1.0000000E+04;  0.0000000E+00;  9.9991455E+03; -3.7800273E-01;  0.0000000E+00;  9.8219300E-03;  5.1602954E+02;
  2.1988909E-01;  9.9999998E-03; -3.0001172E-01;1370; -4.3486640E-02;  0.0000000E+00; -3.5118158E-03;  1.0015956E+03;  4.0000001E-01;  1.3219377E+03;3; -2.0204681E+01;  0.0000000E+00; -1.3279610E+00;0; -5.5457413E-01;  1.0030007E+04;  0.0000000E+00; -2.9605289E+00;  1.0000000E+04;  0.0000000E+00;  1.0001927E+04; -5.1451916E-01;  0.0000000E+00; -4.0054947E-02;  1.5956097E+04;
  2.1986826E-01;  9.9999998E-03; -2.8000930E-01;1371; -5.0957989E-02;  0.0000000E+00; -3.0077395E-03;  1.0014982E+03;  4.0000001E-01;  1.2412487E+03;3; -1.9550600E+01;  0.0000000E+00; -1.0408173E+00;0; -5.0936949E-01;  1.0029013E+04;  0.0000000E+00; -2.0068381E+00;  1.0000000E+04;  0.0000000E+00;  1.0000971E+04; -4.8615694E-01;  0.0000000E+00; -2.3212522E-02;  1.0796788E+04;
  2.1985199E-01;  9.9999998E-03; -2.6000857E-01;1372; -5.7295620E-02;  0.0000000E+00; -2.8673427E-03;  1.0013618E+03;  4.0000001E-01;  1.1281654E+03;3; -1.8799297E+01;  0.0000000E+00; -8.2753372E-01;0; -4.5690095E-01;  1.0027478E+04;  0.0000000E+00; -1.0341091E+00;  1.0000000E+04;  0.0000000E+00;  9.9997705E+03; -4.5350388E-01;  0.0000000E+00; -3.3970778E-03;  5.5605669E+03;
  2.1983932E-01;  9.9999998E-03; -2.4000868E-01;1373; -6.2578328E-02;  0.0000000E+00; -3.0613695E-03;  1.0012637E+03;  4.0000001E-01;  1.0469825E+03;3; -1.8525652E+01;  0.0000000E+00; -7.8927994E-01;0; -4.2000249E-01;  1.0026298E+04;  0.0000000E+00; -4.1484651E-01;  1.0000000E+04;  0.0000000E+00;  9.9989961E+03; -4.2989731E-01;  0.0000000E+00;  9.8948283E-03;  2.3026379E+03;
  2.1983087E-01;  9.9999998E-03; -2.2000891E-01;1374; -6.6365667E-02;  0.0000000E+00; -3.3352429E-03;  1.0012122E+03;  4.0000001E-01;  1.0043171E+03;3; -1.8660448E+01;  0.0000000E+00; -8.6113906E-01;0; -4.0088561E-01;  1.0025558E+04;  0.0000000E+00; -1.2657611E-01;  1.0000000E+04;  0.0000000E+00;  9.9987021E+03; -4.1635418E-01;  0.0000000E+00;  1.5468570E-02;  9.9226410E+02;
  2.1982607E-01;  9.9999998E-03; -2.0000891E-01;1375; -6.8763778E-02;  0.0000000E+00; -3.5326744E-03;  1.0011914E+03;  4.0000001E-01;  9.8703369E+02;3; -1.9103491E+01;  0.0000000E+00; -9.2684007E-01;0; -3.9388850E-01;  1.0025151E+04;  0.0000000E+00; -2.6228899E-02;  1.0000000E+04;  0.0000000E+00;  9.9986953E+03; -4.1053388E-01;  0.0000000E+00;  1.6645379E-02;  7.4049695E+02;
  2.3986486E-01;  9.9999998E-03; -3.0003008E-01;1401; -5.1574260E-02;  0.0000000E+00; -1.0249116E-02;  1.0016021E+03;  4.0000001E-01;  1.3272709E+03;3; -2.3469288E+01;  0.0000000E+00; -4.2875748E+00;0; -5.3695452E-01;  1.0032994E+04;  0.0000000E+00; -2.7466674E+00;  1.0000000E+04;  0.0000000E+00;  9.9990840E+03; -5.4559863E-01;  0.0000000E+00;  8.6440928E-03;  1.4819797E+04;
  2.3984286E-01;  9.9999998E-03; -2.8002122E-01;1402; -5.9387516E-02;  0.0000000E+00; -7.6520639E-03;  1.0015810E+03;  4.0000001E-01;  1.3097899E+03;3; -2.2320940E+01;  0.0000000E+00; -2.8427734E+00;0; -5.1793408E-01;  1.0032056E+04;  0.0000000E+00; -1.8091800E+00;  1.0000000E+04;  0.0000000E+00;  9.9995908E+03; -5.1867193E-01;  0.0000000E+00;  7.3781982E-04;  9.7463926E+03;
  2.3982602E-01;  9.9999998E-03; -2.6001570E-01;1403; -6.5937415E-02;  0.0000000E+00; -5.5720098E-03;  1.0014737E+03;  4.0000001E-01;  1.2209036E+03;3; -2.1158100E+01;  0.0000000E+00; -1.7023125E+00;0; -4.7882286E-01;  1.0030559E+04;  0.0000000E+00; -9.1465348E-01;  1.0000000E+04;  0.0000000E+00;  9.9989453E+03; -4.8721004E-01;  0.0000000E+00;  8.3871828E-03;  4.9599150E+03;
  2.3981324E-01;  9.9999998E-03; -2.4001375E-01;1404; -7.1173936E-02;  0.0000000E+00; -5.0284890E-03;  1.0013776E+03;  4.0000001E-01;  1.1413009E+03;3; -2.0527756E+01;  0.0000000E+00; -1.3380303E+00;0; -4.4290507E-01;  1.0029347E+04;  0.0000000E+00; -3.6184573E-01;  1.0000000E+04;  0.0000000E+00;  9.9982246E+03; -4.6373799E-01;  0.0000000E+00;  2.0832930E-02;  2.1716558E+03;
  2.3980492E-01;  9.9999998E-03; -2.2001320E-01;1405; -7.4950621E-02;  0.0000000E+00; -5.0248858E-03;  1.0013252E+03;  4.0000001E-01;  1.0979441E+03;3; -2.0520594E+01;  0.0000000E+00; -1.3191223E+00;0; -4.2366591E-01;  1.0028549E+04;  0.0000000E+00; -1.0866460E-01;  1.0000000E+04;  0.0000000E+00;  9.9979785E+03; -4.4984525E-01;  0.0000000E+00;  2.6179342E-02;  1.2293992E+03;
  2.3980032E-01;  9.9999998E-03; -2.0001285E-01;1406; -7.7343144E-02;  0.0000000E+00; -5.0973040E-03;  1.0013043E+03;  4.0000001E-01;  1.0805619E+03;3; -2.0930359E+01;  0.0000000E+00; -1.3254164E+00;0; -4.1686243E-01;  1.0028065E+04;  0.0000000E+00; -2.1759279E-02;  1.0000000E+04;  0.0000000E+00;  9.9980459E+03; -4.4345492E-01;  0.0000000E+00;  2.6592482E-02;  1.0529429E+03;
  2.5983346E-01;  9.9999998E-03; -3.0004650E-01;1432; -6.1651904E-02;  0.0000000E+00; -1.5678976E-02;  1.0015502E+03;  4.0000001E-01;  1.2843091E+03;3; -2.7350433E+01;  0.0000000E+00; -6.4908943E+00;0; -4.9895674E-01;  1.0035393E+04;  0.0000000E+00; -1.9583131E+00;  1.0000000E+04;  0.0000000E+00;  9.9956533E+03; -5.5998415E-01;  0.0000000E+00;  6.1027404E-02;  1.0805562E+04;
  2.5981218E-01;  9.9999998E-03; -2.8003636E-01;1433; -6.9222569E-02;  0.0000000E+00; -1.3097611E-02;  1.0015776E+03;  4.0000001E-01;  1.3070244E+03;3; -2.5389883E+01;  0.0000000E+00; -4.7757721E+00;0; -4.9351403E-01;  1.0034582E+04;  0.0000000E+00; -1.2786268E+00;  1.0000000E+04;  0.0000000E+00;  9.9970010E+03; -5.3690368E-01;  0.0000000E+00;  4.3389637E-02;  7.0699067E+03;
  2.5979570E-01;  9.9999998E-03; -2.6002723E-01;1434; -7.5624071E-02;  0.0000000E+00; -1.0038036E-02;  1.0015359E+03;  4.0000001E-01;  1.2724575E+03;3; -2.3668987E+01;  0.0000000E+00; -3.1578970E+00;0; -4.7797820E-01;  1.0033385E+04;  0.0000000E+00; -6.3587469E-01;  1.0000000E+04;  0.0000000E+00;  9.9973594E+03; -5.1181394E-01;  0.0000000E+00;  3.3835750E-02;  3.6970542E+03;
  2.5978354E-01;  9.9999998E-03; -2.4002223E-01;1435; -8.0660939E-02;  0.0000000E+00; -8.3963498E-03;  1.0014724E+03;  4.0000001E-01;  1.2198170E+03;3; -2.2614347E+01;  0.0000000E+00; -2.3888001E+00;0; -4.5520672E-01;  1.0032381E+04;  0.0000000E+00; -2.4516578E-01;  1.0000000E+04;  0.0000000E+00;  9.9970938E+03; -4.9300206E-01;  0.0000000E+00;  3.7795324E-02;  2.0107269E+03;
  2.5977588E-01;  9.9999998E-03; -2.2001991E-01;1436; -8.4229790E-02;  0.0000000E+00; -7.6731700E-03;  1.0014341E+03;  4.0000001E-01;  1.1881143E+03;3; -2.2418760E+01;  0.0000000E+00; -2.0349128E+00;0; -4.4178659E-01;  1.0031673E+04;  0.0000000E+00; -7.0370734E-02;  1.0000000E+04;  0.0000000E+00;  9.9970410E+03; -4.8177996E-01;  0.0000000E+00;  3.9993361E-02;  1.5859971E+03;
  2.5977165E-01;  9.9999998E-03; -2.0001833E-01;1437; -8.6554371E-02;  0.0000000E+00; -7.3015876E-03;  1.0014201E+03;  4.0000001E-01;  1.1765591E+03;3; -2.2760666E+01;  0.0000000E+00; -1.9222534E+00;0; -4.3766689E-01;  1.0031191E+04;  0.0000000E+00; -1.2670877E-02;  1.0000000E+04;  0.0000000E+00;  9.9972344E+03; -4.7659802E-01;  0.0000000E+00;  3.8931139E-02;  1.4457213E+03;
  2.7979603E-01;  9.9999998E-03; -3.0005807E-01;1463; -7.3305242E-02;  0.0000000E+00; -1.9178355E-02;  1.0015576E+03;  4.0000001E-01;  1.2904324E+03;3; -3.1718824E+01;  0.0000000E+00; -7.8082895E+00;0; -4.7845969E-01;  1.0037740E+04;  0.0000000E+00; -1.0648289E+00;  1.0000000E+04;  0.0000000E+00;  9.9934561E+03; -5.6773400E-01;  0.0000000E+00;  8.9274324E-02;  6.6269771E+03;
  2.7977628E-01;  9.9999998E-03; -2.8004882E-01;1464; -8.0419295E-02;  0.0000000E+00; -1.7081749E-02;  1.0015900E+03;  4.0000001E-01;  1.3172958E+03;3; -2.8799564E+01;  0.0000000E+00; -6.0128241E+00;0; -4.7487622E-01;  1.0037095E+04;  0.0000000E+00; -6.9049227E-01;  1.0000000E+04;  0.0000000E+00;  9.9947500E+03; -5.4976010E-01;  0.0000000E+00;  7.4883886E-02;  4.5744580E+03;
  2.7976120E-01;  9.9999998E-03; -2.6003936E-01;1465; -8.6296141E-02;  0.0000000E+00; -1.4433176E-02;  1.0015907E+03;  4.0000001E-01;  1.3178883E+03;3; -2.6299471E+01;  0.0000000E+00; -4.4726524E+00;0; -4.7177929E-01;  1.0036254E+04;  0.0000000E+00; -3.3737713E-01;  1.0000000E+04;  0.0000000E+00;  9.9955967E+03; -5.3249061E-01;  0.0000000E+00;  6.0711339E-02;  2.8904478E+03;
  2.7975032E-01;  9.9999998E-03; -2.4003264E-01;1466; -9.0882994E-02;  0.0000000E+00; -1.2337910E-02;  1.0015651E+03;  4.0000001E-01;  1.2966544E+03;3; -2.4768518E+01;  0.0000000E+00; -3.4798684E+00;0; -4.6350786E-01;  1.0035531E+04;  0.0000000E+00; -1.2407003E-01;  1.0000000E+04;  0.0000000E+00;  9.9958066E+03; -5.2009052E-01;  0.0000000E+00;  5.6582656E-02;  2.2471929E+03;
  2.7974349E-01;  9.9999998E-03; -2.2002845E-01;1467; -9.4187148E-02;  0.0000000E+00; -1.1004100E-02;  1.0015477E+03;  4.0000001E-01;  1.2822351E+03;3; -2.4311518E+01;  0.0000000E+00; -2.9428153E+00;0; -4.5817387E-01;  1.0034977E+04;  0.0000000E+00; -3.2171559E-02;  1.0000000E+04;  0.0000000E+00;  9.9960078E+03; -5.1298600E-01;  0.0000000E+00;  5.4812133E-02;  2.0540703E+03;
  2.7973977E-01;  9.9999998E-03; -2.0002528E-01;1468; -9.6444272E-02;  0.0000000E+00; -1.0054616E-02;  1.0015429E+03;  4.0000001E-01;  1.2782845E+03;3; -2.4602301E+01;  0.0000000E+00; -2.6367145E+00;0; -4.5785213E-01;  1.0034552E+04;  0.0000000E+00; -4.5050327E-03;  1.0000000E+04;  0.0000000E+00;  9.9963359E+03; -5.1005512E-01;  0.0000000E+00;  5.2202992E-02;  1.8872382E+03;
  2.9975536E-01;  9.9999998E-03; -3.0006763E-01;1494; -8.5550442E-02;  0.0000000E+00; -2.1830093E-02;  1.0016294E+03;  4.0000001E-01;  1.3498872E+03;3; -3.6206406E+01;  0.0000000E+00; -8.7571239E+00;0; -4.7580135E-01;  1.0040291E+04;  0.0000000E+00; -4.3795034E-01;  1.0000000E+04;  0.0000000E+00;  9.9923447E+03; -5.7370442E-01;  0.0000000E+00;  9.7903073E-02;  4.4994106E+03;
  2.9973748E-01;  9.9999998E-03; -2.8005928E-01;1495; -9.1966860E-02;  0.0000000E+00; -2.0143418E-02;  1.0016553E+03;  4.0000001E-01;  1.3713187E+03;3; -3.2174644E+01;  0.0000000E+00; -6.8258905E+00;0; -4.7193837E-01;  1.0039863E+04;  0.0000000E+00; -2.7830398E-01;  1.0000000E+04;  0.0000000E+00;  9.9932871E+03; -5.6238383E-01;  0.0000000E+00;  9.0445459E-02;  3.6867136E+03;
  2.9972368E-01;  9.9999998E-03; -2.6005057E-01;1496; -9.7338937E-02;  0.0000000E+00; -1.8168116E-02;  1.0016733E+03;  4.0000001E-01;  1.3863307E+03;3; -2.8820843E+01;  0.0000000E+00; -5.4632449E+00;0; -4.7337765E-01;  1.0039367E+04;  0.0000000E+00; -1.2930059E-01;  1.0000000E+04;  0.0000000E+00;  9.9941484E+03; -5.5304587E-01;  0.0000000E+00;  7.9668216E-02;  3.0327668E+03;
  2.9971385E-01;  9.9999998E-03; -2.4004322E-01;1497; -1.0161729E-01;  0.0000000E+00; -1.6115397E-02;  1.0016744E+03;  4.0000001E-01;  1.3872195E+03;3; -2.6842361E+01;  0.0000000E+00; -4.4331980E+00;0; -4.7485918E-01;  1.0038909E+04;  0.0000000E+00; -4.2847350E-02;  1.0000000E+04;  0.0000000E+00;  9.9946250E+03; -5.4704672E-01;  0.0000000E+00;  7.2187543E-02;  2.7350933E+03;
  2.9970768E-01;  9.9999998E-03; -2.2003765E-01;1498; -1.0477349E-01;  0.0000000E+00; -1.4462014E-02;  1.0016740E+03;  4.0000001E-01;  1.3868245E+03;3; -2.6176027E+01;  0.0000000E+00; -3.8036613E+00;0; -4.7615597E-01;  1.0038517E+04;  0.0000000E+00; -8.7699741E-03;  1.0000000E+04;  0.0000000E+00;  9.9950088E+03; -5.4426205E-01;  0.0000000E+00;  6.8106093E-02;  2.5415488E+03;
  2.9970437E-01;  9.9999998E-03; -2.0003308E-01;1499; -1.0702145E-01;  0.0000000E+00; -1.3050712E-02;  1.0016773E+03;  4.0000001E-01;  1.3895898E+03;3; -2.6431761E+01;  0.0000000E+00; -3.3986323E+00;0; -4.7913435E-01;  1.0038166E+04;  0.0000000E+00; -5.9498800E-04;  1.0000000E+04;  0.0000000E+00;  9.9954180E+03; -5.4397267E-01;  0.0000000E+00;  6.4838327E-02;  2.3391833E+03;
  3.1971371E-01;  9.9999998E-03; -3.0007696E-01;1525; -9.7366557E-02;  0.0000000E+00; -2.4324056E-02;  1.0017501E+03;  4.0000001E-01;  1.4499337E+03;3; -4.0344448E+01;  0.0000000E+00; -9.5744076E+00;0; -4.8426941E-01;  1.0043252E+04;  0.0000000E+00; -1.2716773E-01;  1.0000000E+04;  0.0000000E+00;  9.9918047E+03; -5.8255863E-01;  0.0000000E+00;  9.8289229E-02;  4.1600947E+03;
  3.1969681E-01;  9.9999998E-03; -2.8006890E-01;1526; -1.0338703E-01;  0.0000000E+00; -2.2895452E-02;  1.0017723E+03;  4.0000001E-01;  1.4683036E+03;3; -3.5258259E+01;  0.0000000E+00; -7.5775814E+00;0; -4.8182514E-01;  1.0043056E+04;  0.0000000E+00; -7.4866131E-02;  1.0000000E+04;  0.0000000E+00;  9.9924385E+03; -5.7830316E-01;  0.0000000E+00;  9.6478008E-02;  3.8124595E+03;
  3.1968361E-01;  9.9999998E-03; -2.6006070E-01;1527; -1.0855921E-01;  0.0000000E+00; -2.1313073E-02;  1.0017959E+03;  4.0000001E-01;  1.4878586E+03;3; -3.1198690E+01;  0.0000000E+00; -6.2159986E+00;0; -4.8597100E-01;  1.0042827E+04;  0.0000000E+00; -3.0504068E-02;  1.0000000E+04;  0.0000000E+00;  9.9931445E+03; -5.7572210E-01;  0.0000000E+00;  8.9751102E-02;  3.4533977E+03;
  3.1967413E-01;  9.9999998E-03; -2.4005321E-01;1528; -1.1277862E-01;  0.0000000E+00; -1.9443169E-02;  1.0018094E+03;  4.0000001E-01;  1.4990188E+03;3; -2.8824520E+01;  0.0000000E+00; -5.1810737E+00;0; -4.9230209E-01;  1.0042583E+04;  0.0000000E+00; -7.5934031E-03;  1.0000000E+04;  0.0000000E+00;  9.9936582E+03; -5.7504404E-01;  0.0000000E+00;  8.2741939E-02;  3.2043909E+03;
  3.1966823E-01;  9.9999998E-03; -2.2004682E-01;1529; -1.1596908E-01;  0.0000000E+00; -1.7687006E-02;  1.0018189E+03;  4.0000001E-01;  1.5069198E+03;3; -2.7987400E+01;  0.0000000E+00; -4.5275779E+00;0; -4.9750060E-01;  1.0042333E+04;  0.0000000E+00; -6.3969666E-04;  1.0000000E+04;  0.0000000E+00;  9.9940977E+03; -5.7611048E-01;  0.0000000E+00;  7.8609899E-02;  2.9928066E+03;
  3.1966525E-01;  9.9999998E-03; -2.0004123E-01;1530; -1.1829831E-01;  0.0000000E+00; -1.6020915E-02;  1.0018275E+03;  4.0000001E-01;  1.5140306E+03;3; -2.8240576E+01;  0.0000000E+00; -4.0575733E+00;0; -5.0265020E-01;  1.0042063E+04;  0.0000000E+00;  1.1295600E-04;  1.0000000E+04;  0.0000000E+00;  9.9945381E+03; -5.7851875E-01;  0.0000000E+00;  7.5868562E-02;  2.7782424E+03;
  3.3967143E-01;  9.9999998E-03; -3.0008653E-01;1556; -1.0864233E-01;  0.0000000E+00; -2.6742155E-02;  1.0019078E+03;  4.0000001E-01;  1.5805966E+03;3; -4.4064648E+01;  0.0000000E+00; -1.0345578E+01;0; -5.0202245E-01;  1.0046739E+04;  0.0000000E+00; -1.8503346E-02;  1.0000000E+04;  0.0000000E+00;  9.9914814E+03; -5.9784216E-01;  0.0000000E+00;  9.5819704E-02;  4.2801167E+03;
  3.3965409E-01;  9.9999998E-03; -2.8007844E-01;1557; -1.1474369E-01;  0.0000000E+00; -2.5463900E-02;  1.0019286E+03;  4.0000001E-01;  1.5977813E+03;3; -3.8137577E+01;  0.0000000E+00; -8.2257576E+00;0; -5.0145274E-01;  1.0046722E+04;  0.0000000E+00; -8.6458959E-03;  1.0000000E+04;  0.0000000E+00;  9.9919141E+03; -5.9893286E-01;  0.0000000E+00;  9.7480096E-02;  4.0660037E+03;
  3.3964053E-01;  9.9999998E-03; -2.6007023E-01;1558; -1.2005676E-01;  0.0000000E+00; -2.4069207E-02;  1.0019525E+03;  4.0000001E-01;  1.6176326E+03;3; -3.3462116E+01;  0.0000000E+00; -6.8079152E+00;0; -5.0698340E-01;  1.0046677E+04;  0.0000000E+00; -1.9433158E-03;  1.0000000E+04;  0.0000000E+00;  9.9924395E+03; -6.0115135E-01;  0.0000000E+00;  9.4167948E-02;  3.8107744E+03;
  3.3963084E-01;  9.9999998E-03; -2.4006265E-01;1559; -1.2444307E-01;  0.0000000E+00; -2.2351794E-02;  1.0019698E+03;  4.0000001E-01;  1.6319531E+03;3; -3.0737698E+01;  0.0000000E+00; -5.7441754E+00;0; -5.1518023E-01;  1.0046591E+04;  0.0000000E+00;  3.0139045E-04;  1.0000000E+04;  0.0000000E+00;  9.9928711E+03; -6.0450345E-01;  0.0000000E+00;  8.9323193E-02;  3.6054956E+03;
  3.3962488E-01;  9.9999998E-03; -2.2005571E-01;1560; -1.2781543E-01;  0.0000000E+00; -2.0585958E-02;  1.0019836E+03;  4.0000001E-01;  1.6434095E+03;3; -2.9771698E+01;  0.0000000E+00; -5.0674629E+00;0; -5.2233696E-01;  1.0046461E+04;  0.0000000E+00;  2.8502676E-04;  1.0000000E+04;  0.0000000E+00;  9.9932783E+03; -6.0887271E-01;  0.0000000E+00;  8.6535759E-02;  3.4066230E+03;
  3.3962205E-01;  9.9999998E-03; -2.0004936E-01;1561; -1.3029942E-01;  0.0000000E+00; -1.8784206E-02;  1.0019958E+03;  4.0000001E-01;  1.6534834E+03;3; -3.0022635E+01;  0.0000000E+00; -4.6124082E+00;0; -5.2894920E-01;  1.0046275E+04;  0.0000000E+00;  9.9168130E-05;  1.0000000E+04;  0.0000000E+00;  9.9936943E+03; -6.1400038E-01;  0.0000000E+00;  8.5051164E-02;  3.1992310E+03;
  3.5962719E-01;  9.9999998E-03; -3.0009663E-01;1587; -1.1977243E-01;  0.0000000E+00; -2.9105896E-02;  1.0020894E+03;  4.0000001E-01;  1.7310118E+03;3; -4.7545464E+01;  0.0000000E+00; -1.1047371E+01;0; -5.2510679E-01;  1.0050752E+04;  0.0000000E+00;  3.5928068E-04;  1.0000000E+04;  0.0000000E+00;  9.9911084E+03; -6.1916298E-01;  0.0000000E+00;  9.4056159E-02;  4.4824653E+03;
  3.5960826E-01;  9.9999998E-03; -2.8008813E-01;1588; -1.2635061E-01;  0.0000000E+00; -2.7910208E-02;  1.0021110E+03;  4.0000001E-01;  1.7488879E+03;3; -4.0910210E+01;  0.0000000E+00; -8.7987938E+00;0; -5.2594584E-01;  1.0050863E+04;  0.0000000E+00;  1.0634712E-03;  1.0000000E+04;  0.0000000E+00;  9.9914336E+03; -6.2356091E-01;  0.0000000E+00;  9.7615071E-02;  4.3190547E+03;
  3.5959363E-01;  9.9999998E-03; -2.6007959E-01;1589; -1.3204697E-01;  0.0000000E+00; -2.6567837E-02;  1.0021350E+03;  4.0000001E-01;  1.7688379E+03;3; -3.5680248E+01;  0.0000000E+00; -7.2679090E+00;0; -5.3266436E-01;  1.0050951E+04;  0.0000000E+00;  9.6604886E-04;  1.0000000E+04;  0.0000000E+00;  9.9918223E+03; -6.2908167E-01;  0.0000000E+00;  9.6417308E-02;  4.1307637E+03;
  3.5958338E-01;  9.9999998E-03; -2.4007177E-01;1590; -1.3673455E-01;  0.0000000E+00; -2.4939498E-02;  1.0021532E+03;  4.0000001E-01;  1.7838499E+03;3; -3.2613331E+01;  0.0000000E+00; -6.1590009E+00;0; -5.4181385E-01;  1.0050996E+04;  0.0000000E+00;  5.8980752E-04;  1.0000000E+04;  0.0000000E+00;  9.9921416E+03; -6.3561630E-01;  0.0000000E+00;  9.3802460E-02;  3.9776743E+03;
  3.5957718E-01;  9.9999998E-03; -2.2006436E-01;1591; -1.4036119E-01;  0.0000000E+00; -2.3167199E-02;  1.0021697E+03;  4.0000001E-01;  1.7975779E+03;3; -3.1517660E+01;  0.0000000E+00; -5.4702764E+00;0; -5.5033565E-01;  1.0050969E+04;  0.0000000E+00;  2.7129115E-04;  1.0000000E+04;  0.0000000E+00;  9.9925000E+03; -6.4298803E-01;  0.0000000E+00;  9.2652366E-02;  3.8029929E+03;
  3.5957444E-01;  9.9999998E-03; -2.0005731E-01;1592; -1.4304626E-01;  0.0000000E+00; -2.1267455E-02;  1.0021843E+03;  4.0000001E-01;  1.8096268E+03;3; -3.1785559E+01;  0.0000000E+00; -4.9876566E+00;0; -5.5824900E-01;  1.0050867E+04;  0.0000000E+00;  8.9670939E-05;  1.0000000E+04;  0.0000000E+00;  9.9928916E+03; -6.5086800E-01;  0.0000000E+00;  9.2619009E-02;  3.6086353E+03;
  3.7957919E-01;  9.9999998E-03; -3.0010733E-01;1618; -1.3128351E-01;  0.0000000E+00; -3.1356689E-02;  1.0022904E+03;  4.0000001E-01;  1.8975251E+03;3; -5.1012695E+01;  0.0000000E+00; -1.1613533E+01;0; -5.5027020E-01;  1.0055326E+04;  0.0000000E+00;  7.6361763E-04;  1.0000000E+04;  0.0000000E+00;  9.9905703E+03; -6.4453191E-01;  0.0000000E+00;  9.4261721E-02;  4.7695317E+03;
  3.7955821E-01;  9.9999998E-03; -2.8009820E-01;1619; -1.3848858E-01;  0.0000000E+00; -3.0206714E-02;  1.0023155E+03;  4.0000001E-01;  1.9183640E+03;3; -4.3670879E+01;  0.0000000E+00; -9.2652674E+00;0; -5.5260617E-01;  1.0055541E+04;  0.0000000E+00;  1.2542513E-03;  1.0000000E+04;  0.0000000E+00;  9.9908584E+03; -6.5130568E-01;  0.0000000E+00;  9.8699488E-02;  4.6223516E+03;
  3.7954220E-01;  9.9999998E-03; -2.6008907E-01;1620; -1.4466779E-01;  0.0000000E+00; -2.8872490E-02;  1.0023406E+03;  4.0000001E-01;  1.9392030E+03;3; -3.7883060E+01;  0.0000000E+00; -7.6002631E+00;0; -5.6086653E-01;  1.0055735E+04;  0.0000000E+00;  1.0451743E-03;  1.0000000E+04;  0.0000000E+00;  9.9911680E+03; -6.5946376E-01;  0.0000000E+00;  9.8597221E-02;  4.4725308E+03;
  3.7953120E-01;  9.9999998E-03; -2.4008082E-01;1621; -1.4972270E-01;  0.0000000E+00; -2.7270639E-02;  1.0023594E+03;  4.0000001E-01;  1.9547086E+03;3; -3.4457542E+01;  0.0000000E+00; -6.4607139E+00;0; -5.7128930E-01;  1.0055872E+04;  0.0000000E+00;  6.1893958E-04;  1.0000000E+04;  0.0000000E+00;  9.9914033E+03; -6.6878897E-01;  0.0000000E+00;  9.7499676E-02;  4.3583315E+03;
  3.7952474E-01;  9.9999998E-03; -2.2007285E-01;1622; -1.5364401E-01;  0.0000000E+00; -2.5465576E-02;  1.0023781E+03;  4.0000001E-01;  1.9702144E+03;3; -3.3212860E+01;  0.0000000E+00; -5.7575583E+00;0; -5.8122957E-01;  1.0055928E+04;  0.0000000E+00;  2.7323281E-04;  1.0000000E+04;  0.0000000E+00;  9.9917236E+03; -6.7894983E-01;  0.0000000E+00;  9.7720295E-02;  4.2026123E+03;
  3.7952206E-01;  9.9999998E-03; -2.0006511E-01;1623; -1.5656158E-01;  0.0000000E+00; -2.3488104E-02;  1.0023945E+03;  4.0000001E-01;  1.9837449E+03;3; -3.3511730E+01;  0.0000000E+00; -5.2312121E+00;0; -5.9041315E-01;  1.0055887E+04;  0.0000000E+00;  8.3579718E-05;  1.0000000E+04;  0.0000000E+00;  9.9920898E+03; -6.8944371E-01;  0.0000000E+00;  9.9030569E-02;  4.0182356E+03;
  3.9952651E-01;  9.9999998E-03; -3.0011860E-01;1649; -1.4334063E-01;  0.0000000E+00; -3.3444658E-02;  1.0025156E+03;  4.0000001E-01;  2.0840874E+03;3; -5.4485920E+01;  0.0000000E+00; -1.2057518E+01;0; -5.7737988E-01;  1.0060569E+04;  0.0000000E+00;  8.9654676E-04;  1.0000000E+04;  0.0000000E+00;  9.9898438E+03; -6.7347461E-01;  0.0000000E+00;  9.6094728E-02;  5.1451436E+03;
  3.9950329E-01;  9.9999998E-03; -2.8010869E-01;1650; -1.5122248E-01;  0.0000000E+00; -3.2326002E-02;  1.0025437E+03;  4.0000001E-01;  2.1073953E+03;3; -4.6425030E+01;  0.0000000E+00; -9.5893021E+00;0; -5.8107340E-01;  1.0060840E+04;  0.0000000E+00;  1.4363017E-03;  1.0000000E+04;  0.0000000E+00;  9.9901357E+03; -6.8220204E-01;  0.0000000E+00;  1.0112863E-01;  4.9986880E+03;
  3.9948580E-01;  9.9999998E-03; -2.6009884E-01;1651; -1.5794522E-01;  0.0000000E+00; -3.0999772E-02;  1.0025700E+03;  4.0000001E-01;  2.1292219E+03;3; -4.0045567E+01;  0.0000000E+00; -7.8500390E+00;0; -5.9108019E-01;  1.0061097E+04;  0.0000000E+00;  1.1696863E-03;  1.0000000E+04;  0.0000000E+00;  9.9904121E+03; -6.9258702E-01;  0.0000000E+00;  1.0150681E-01;  4.8648335E+03;
  3.9947394E-01;  9.9999998E-03; -2.4009000E-01;1652; -1.6342522E-01;  0.0000000E+00; -2.9387053E-02;  1.0025894E+03;  4.0000001E-01;  2.1453201E+03;3; -3.6260857E+01;  0.0000000E+00; -6.6488252E+00;0; -6.0313547E-01;  1.0061289E+04;  0.0000000E+00;  6.7406963E-04;  1.0000000E+04;  0.0000000E+00;  9.9906084E+03; -7.0432991E-01;  0.0000000E+00;  1.0119442E-01;  4.7707427E+03;
  3.9946714E-01;  9.9999998E-03; -2.2008134E-01;1653; -1.6768794E-01;  0.0000000E+00; -2.7522976E-02;  1.0026097E+03;  4.0000001E-01;  2.1621096E+03;3; -3.4876690E+01;  0.0000000E+00; -5.9111710E+00;0; -6.1461675E-01;  1.0061390E+04;  0.0000000E+00;  2.8436614E-04;  1.0000000E+04;  0.0000000E+00;  9.9909102E+03; -7.1695960E-01;  0.0000000E+00;  1.0234281E-01;  4.6214043E+03;
  3.9946452E-01;  9.9999998E-03; -2.0007282E-01;1654; -1.7086986E-01;  0.0000000E+00; -2.5465375E-02;  1.0026270E+03;  4.0000001E-01;  2.1764304E+03;3; -3.5195580E+01;  0.0000000E+00; -5.3549433E+00;0; -6.2512004E-01;  1.0061373E+04;  0.0000000E+00;  7.8284604E-05;  1.0000000E+04;  0.0000000E+00;  9.9912783E+03; -7.2981447E-01;  0.0000000E+00;  1.0469443E-01;  4.4380869E+03;
  4.1946870E-01;  9.9999998E-03; -3.0013055E-01;1680; -1.5592591E-01;  0.0000000E+00; -3.5301112E-02;  1.0027697E+03;  4.0000001E-01;  2.2946482E+03;3; -5.7941807E+01;  0.0000000E+00; -1.2318030E+01;0; -6.0711223E-01;  1.0066563E+04;  0.0000000E+00;  1.0100600E-03;  1.0000000E+04;  0.0000000E+00;  9.9889600E+03; -7.0606053E-01;  0.0000000E+00;  9.8948307E-02;  5.6074849E+03;
  4.1944307E-01;  9.9999998E-03; -2.8011975E-01;1681; -1.6454226E-01;  0.0000000E+00; -3.4236766E-02;  1.0027984E+03;  4.0000001E-01;  2.3184500E+03;3; -4.9148571E+01;  0.0000000E+00; -9.7484913E+00;0; -6.1140734E-01;  1.0066844E+04;  0.0000000E+00;  1.6468118E-03;  1.0000000E+04;  0.0000000E+00;  9.9892588E+03; -7.1631461E-01;  0.0000000E+00;  1.0490729E-01;  5.4552148E+03;
  4.1942391E-01;  9.9999998E-03; -2.6010901E-01;1682; -1.7187919E-01;  0.0000000E+00; -3.2931041E-02;  1.0028251E+03;  4.0000001E-01;  2.3405728E+03;3; -4.2154667E+01;  0.0000000E+00; -7.9752121E+00;0; -6.2309277E-01;  1.0067098E+04;  0.0000000E+00;  1.3243406E-03;  1.0000000E+04;  0.0000000E+00;  9.9895381E+03; -7.2849882E-01;  0.0000000E+00;  1.0540602E-01;  5.3197095E+03;
  4.1941112E-01;  9.9999998E-03; -2.4009939E-01;1683; -1.7784697E-01;  0.0000000E+00; -3.1299591E-02;  1.0028445E+03;  4.0000001E-01;  2.3566711E+03;3; -3.8005501E+01;  0.0000000E+00; -6.7235341E+00;0; -6.3700032E-01;  1.0067293E+04;  0.0000000E+00;  7.4592960E-04;  1.0000000E+04;  0.0000000E+00;  9.9897344E+03; -7.4224311E-01;  0.0000000E+00;  1.0524278E-01;  5.2239795E+03;
  4.1940397E-01;  9.9999998E-03; -2.2008991E-01;1684; -1.8250503E-01;  0.0000000E+00; -2.9349782E-02;  1.0028651E+03;  4.0000001E-01;  2.3736582E+03;3; -3.6492424E+01;  0.0000000E+00; -5.9377093E+00;0; -6.5018237E-01;  1.0067377E+04;  0.0000000E+00;  3.0138006E-04;  1.0000000E+04;  0.0000000E+00;  9.9900566E+03; -7.5696647E-01;  0.0000000E+00;  1.0678413E-01;  5.0650405E+03;
  4.1940135E-01;  9.9999998E-03; -2.0008051E-01;1685; -1.8599221E-01;  0.0000000E+00; -2.7194111E-02;  1.0028826E+03;  4.0000001E-01;  2.3881763E+03;3; -3.6830818E+01;  0.0000000E+00; -5.3498383E+00;0; -6.6208255E-01;  1.0067345E+04;  0.0000000E+00;  7.4124961E-05;  1.0000000E+04;  0.0000000E+00;  9.9904414E+03; -7.7187675E-01;  0.0000000E+00;  1.0979421E-01;  4.8714688E+03;
  4.3940520E-01;  9.9999998E-03; -3.0014336E-01;1711; -1.6900983E-01;  0.0000000E+00; -3.6875248E-02;  1.0030554E+03;  4.0000001E-01;  2.5312822E+03;3; -6.1343857E+01;  0.0000000E+00; -1.2361434E+01;0; -6.3967341E-01;  1.0073363E+04;  0.0000000E+00;  1.0616027E-03;  1.0000000E+04;  0.0000000E+00;  9.9878965E+03; -7.4229538E-01;  0.0000000E+00;  1.0262198E-01;  6.1563159E+03;
  4.3937695E-01;  9.9999998E-03; -2.8013146E-01;1712; -1.7843930E-01;  0.0000000E+00; -3.5892237E-02;  1.0030827E+03;  4.0000001E-01;  2.5539976E+03;3; -5.1793129E+01;  0.0000000E+00; -9.7427292E+00;0; -6.4375919E-01;  1.0073588E+04;  0.0000000E+00;  1.8715097E-03;  1.0000000E+04;  0.0000000E+00;  9.9882227E+03; -7.5359243E-01;  0.0000000E+00;  1.0983326E-01;  5.9899023E+03;
  4.3935603E-01;  9.9999998E-03; -2.6011968E-01;1713; -1.8646994E-01;  0.0000000E+00; -3.4625810E-02;  1.0031083E+03;  4.0000001E-01;  2.5751328E+03;3; -4.4184483E+01;  0.0000000E+00; -7.9535952E+00;0; -6.5684408E-01;  1.0073772E+04;  0.0000000E+00;  1.5055231E-03;  1.0000000E+04;  0.0000000E+00;  9.9885479E+03; -7.6708055E-01;  0.0000000E+00;  1.1023647E-01;  5.8302529E+03;
  4.3934223E-01;  9.9999998E-03; -2.4010901E-01;1714; -1.9299713E-01;  0.0000000E+00; -3.2962047E-02;  1.0031263E+03;  4.0000001E-01;  2.5900459E+03;3; -3.9670414E+01;  0.0000000E+00; -6.6678238E+00;0; -6.7278743E-01;  1.0073888E+04;  0.0000000E+00;  8.3650678E-04;  1.0000000E+04;  0.0000000E+00;  9.9887998E+03; -7.8233492E-01;  0.0000000E+00;  1.0954750E-01;  5.7101309E+03;
  4.3933469E-01;  9.9999998E-03; -2.2009856E-01;1715; -1.9811338E-01;  0.0000000E+00; -3.0900165E-02;  1.0031454E+03;  4.0000001E-01;  2.6058479E+03;3; -3.8042847E+01;  0.0000000E+00; -5.8263268E+00;0; -6.8776816E-01;  1.0073898E+04;  0.0000000E+00;  3.2877421E-04;  1.0000000E+04;  0.0000000E+00;  9.9891689E+03; -7.9870534E-01;  0.0000000E+00;  1.1093719E-01;  5.5272236E+03;
  4.3933213E-01;  9.9999998E-03; -2.0008820E-01;1716; -2.0195796E-01;  0.0000000E+00; -2.8624270E-02;  1.0031608E+03;  4.0000001E-01;  2.6186870E+03;3; -3.8405750E+01;  0.0000000E+00; -5.2073669E+00;0; -7.0107877E-01;  1.0073791E+04;  0.0000000E+00;  7.6464232E-05;  1.0000000E+04;  0.0000000E+00;  9.9895928E+03; -8.1530029E-01;  0.0000000E+00;  1.1422149E-01;  5.3136187E+03;
  4.5933527E-01;  9.9999998E-03; -3.0015719E-01;1742; -1.8259563E-01;  0.0000000E+00; -3.8118515E-02;  1.0033758E+03;  4.0000090E-01;  2.7967542E+03;3; -6.4658539E+01;  0.0000000E+00; -1.2147524E+01;0; -6.7497098E-01;  1.0080985E+04;  0.0000000E+00;  1.0123496E-03;  1.0000000E+04;  0.0000000E+00;  9.9866689E+03; -7.8206110E-01;  0.0000000E+00;  1.0709012E-01;  6.7920405E+03;
  4.5930418E-01;  9.9999998E-03; -2.8014401E-01;1743; -1.9293496E-01;  0.0000000E+00; -3.7226364E-02;  1.0033985E+03;  4.0000105E-01;  2.8156177E+03;3; -5.4339775E+01;  0.0000000E+00; -9.5263548E+00;0; -6.7811131E-01;  1.0081051E+04;  0.0000000E+00;  2.1155053E-03;  1.0000000E+04;  0.0000000E+00;  9.9870645E+03; -7.9375505E-01;  0.0000000E+00;  1.1564372E-01;  6.5868179E+03;
  4.5928144E-01;  9.9999998E-03; -2.6013073E-01;1744; -2.0174183E-01;  0.0000000E+00; -3.6003087E-02;  1.0034219E+03;  4.0000102E-01;  2.8349751E+03;3; -4.6116600E+01;  0.0000000E+00; -7.7459202E+00;0; -6.9231552E-01;  1.0081079E+04;  0.0000000E+00;  1.7299084E-03;  1.0000000E+04;  0.0000000E+00;  9.9875117E+03; -8.0788201E-01;  0.0000000E+00;  1.1556649E-01;  6.3684043E+03;
  4.5926660E-01;  9.9999998E-03; -2.4011874E-01;1745; -2.0890871E-01;  0.0000000E+00; -3.4268804E-02;  1.0034363E+03;  4.0000090E-01;  2.8469253E+03;3; -4.1235573E+01;  0.0000000E+00; -6.4524670E+00;0; -7.1039850E-01;  1.0081026E+04;  0.0000000E+00;  9.6305978E-04;  1.0000000E+04;  0.0000000E+00;  9.9878496E+03; -8.2399774E-01;  0.0000000E+00;  1.1359923E-01;  6.2063809E+03;
  4.5925868E-01;  9.9999998E-03; -2.2010726E-01;1746; -2.1455006E-01;  0.0000000E+00; -3.2076415E-02;  1.0034503E+03;  4.0000099E-01;  2.8584805E+03;3; -3.9503967E+01;  0.0000000E+00; -5.5499964E+00;0; -7.2705209E-01;  1.0080879E+04;  0.0000000E+00;  3.8113989E-04;  1.0000000E+04;  0.0000000E+00;  9.9882793E+03; -8.4142160E-01;  0.0000000E+00;  1.1436951E-01;  5.9928013E+03;
  4.5925623E-01;  9.9999998E-03; -2.0009600E-01;1747; -2.1880005E-01;  0.0000000E+00; -2.9689347E-02;  1.0034614E+03;  4.0000108E-01;  2.8676655E+03;3; -3.9907700E+01;  0.0000000E+00; -4.9016967E+00;0; -7.4160278E-01;  1.0080627E+04;  0.0000000E+00;  9.5857496E-05;  1.0000000E+04;  0.0000000E+00;  9.9887549E+03; -8.5921216E-01;  0.0000000E+00;  1.1760937E-01;  5.7547808E+03;
  4.7925761E-01;  9.9999998E-03; -3.0017245E-01;1773; -1.9677010E-01;  0.0000000E+00; -3.8980845E-02;  1.0037241E+03;  4.0000269E-01;  3.0853359E+03;3; -6.7884621E+01;  0.0000000E+00; -1.1630282E+01;0; -7.1207052E-01;  1.0089267E+04;  0.0000000E+00;  8.4383006E-04;  1.0000000E+04;  0.0000000E+00;  9.9853086E+03; -8.2432985E-01;  0.0000000E+00;  1.1225931E-01;  7.4946836E+03;
  4.7922373E-01;  9.9999998E-03; -2.8015745E-01;1774; -2.0810674E-01;  0.0000000E+00; -3.8166229E-02;  1.0037419E+03;  4.0000263E-01;  3.1001504E+03;3; -5.6784554E+01;  0.0000000E+00; -9.0518112E+00;0; -7.1366656E-01;  1.0089066E+04;  0.0000000E+00;  2.4147520E-03;  1.0000000E+04;  0.0000000E+00;  9.9858721E+03; -8.3554673E-01;  0.0000000E+00;  1.2188017E-01;  7.2049009E+03;
  4.7919920E-01;  9.9999998E-03; -2.6014212E-01;1775; -2.1776421E-01;  0.0000000E+00; -3.6938805E-02;  1.0037619E+03;  4.0000287E-01;  3.1166436E+03;3; -4.7944092E+01;  0.0000000E+00; -7.3092809E+00;0; -7.2890717E-01;  1.0088814E+04;  0.0000000E+00;  2.0432067E-03;  1.0000000E+04;  0.0000000E+00;  9.9865244E+03; -8.4941459E-01;  0.0000000E+00;  1.2050741E-01;  6.8845942E+03;
  4.7918341E-01;  9.9999998E-03; -2.4012850E-01;1776; -2.2565642E-01;  0.0000000E+00; -3.5053227E-02;  1.0037667E+03;  4.0000260E-01;  3.1205942E+03;3; -4.2698879E+01;  0.0000000E+00; -6.0132308E+00;0; -7.4897242E-01;  1.0088489E+04;  0.0000000E+00;  1.1618552E-03;  1.0000000E+04;  0.0000000E+00;  9.9869443E+03; -8.6552101E-01;  0.0000000E+00;  1.1654861E-01;  6.6822241E+03;
  4.7917524E-01;  9.9999998E-03; -2.2011612E-01;1777; -2.3187450E-01;  0.0000000E+00; -3.2758940E-02;  1.0037705E+03;  4.0000272E-01;  3.1237546E+03;3; -4.0882343E+01;  0.0000000E+00; -5.0354981E+00;0; -7.6672977E-01;  1.0088091E+04;  0.0000000E+00;  4.8258452E-04;  1.0000000E+04;  0.0000000E+00;  9.9874209E+03; -8.8321435E-01;  0.0000000E+00;  1.1648460E-01;  6.4467603E+03;
  4.7917306E-01;  9.9999998E-03; -2.0010419E-01;1778; -2.3657210E-01;  0.0000000E+00; -3.0311184E-02;  1.0037736E+03;  4.0000269E-01;  3.1263223E+03;3; -4.1323200E+01;  0.0000000E+00; -4.4118943E+00;0; -7.8210050E-01;  1.0087631E+04;  0.0000000E+00;  1.4723132E-04;  1.0000000E+04;  0.0000000E+00;  9.9879316E+03; -9.0155268E-01;  0.0000000E+00;  1.1945218E-01;  6.1882876E+03;
  4.9917039E-01;  9.9999998E-03; -3.0018952E-01;1804; -2.1176414E-01;  0.0000000E+00; -3.9427865E-02;  1.0040851E+03;  4.0000668E-01;  3.3843848E+03;3; -7.1072044E+01;  0.0000000E+00; -1.0763319E+01;0; -7.4794346E-01;  1.0097724E+04;  0.0000000E+00;  5.7073263E-04;  1.0000000E+04;  0.0000000E+00;  9.9839131E+03; -8.6584908E-01;  0.0000000E+00;  1.1790560E-01;  8.2158311E+03;
  4.9913421E-01;  9.9999998E-03; -2.8017208E-01;1805; -2.2411865E-01;  0.0000000E+00; -3.8634021E-02;  1.0040987E+03;  4.0000677E-01;  3.3956438E+03;3; -5.9154175E+01;  0.0000000E+00; -8.2731714E+00;0; -7.4781740E-01;  1.0097139E+04;  0.0000000E+00;  2.8503456E-03;  1.0000000E+04;  0.0000000E+00;  9.9847754E+03; -8.7556529E-01;  0.0000000E+00;  1.2774789E-01;  7.7745566E+03;
  4.9910828E-01;  9.9999998E-03; -2.6015377E-01;1806; -2.3466347E-01;  0.0000000E+00; -3.7276637E-02;  1.0041129E+03;  4.0000677E-01;  3.4073965E+03;3; -4.9680820E+01;  0.0000000E+00; -6.5865450E+00;0; -7.6432353E-01;  1.0096495E+04;  0.0000000E+00;  2.5325119E-03;  1.0000000E+04;  0.0000000E+00;  9.9857051E+03; -8.8810533E-01;  0.0000000E+00;  1.2378181E-01;  7.3201733E+03;
  4.9909183E-01;  9.9999998E-03; -2.4013841E-01;1807; -2.4334124E-01;  0.0000000E+00; -3.5148900E-02;  1.0040993E+03;  4.0000680E-01;  3.3961375E+03;3; -4.4089420E+01;  0.0000000E+00; -5.2402120E+00;0; -7.8562951E-01;  1.0095800E+04;  0.0000000E+00;  1.4932116E-03;  1.0000000E+04;  0.0000000E+00;  9.9861230E+03; -9.0317070E-01;  0.0000000E+00;  1.1754119E-01;  7.1200396E+03;
  4.9908376E-01;  9.9999998E-03; -2.2012560E-01;1808; -2.5015754E-01;  0.0000000E+00; -3.2852646E-02;  1.0040862E+03;  4.0000671E-01;  3.3852737E+03;3; -4.2178844E+01;  0.0000000E+00; -4.2270517E+00;0; -8.0343544E-01;  1.0095067E+04;  0.0000000E+00;  6.6565367E-04;  1.0000000E+04;  0.0000000E+00;  9.9865801E+03; -9.2020404E-01;  0.0000000E+00;  1.1676862E-01;  6.8918682E+03;
  4.9908206E-01;  9.9999998E-03; -2.0011345E-01;1809; -2.5532687E-01;  0.0000000E+00; -3.0443469E-02;  1.0040765E+03;  4.0000686E-01;  3.3772739E+03;3; -4.2658180E+01;  0.0000000E+00; -3.6829994E+00;0; -8.1897449E-01;  1.0094344E+04;  0.0000000E+00;  2.4614081E-04;  1.0000000E+04;  0.0000000E+00;  9.9871133E+03; -9.3831390E-01;  0.0000000E+00;  1.1933939E-01;  6.6246167E+03;
  5.1907098E-01;  9.9999998E-03; -3.0020908E-01;1835; -2.2797015E-01;  0.0000000E+00; -3.9440844E-02;  1.0044329E+03;  4.0001830E-01;  3.6725681E+03;3; -7.4330261E+01;  0.0000000E+00; -9.5022974E+00;0; -7.7654690E-01;  1.0105410E+04;  0.0000000E+00;  2.5888934E-04;  1.0000000E+04;  0.0000000E+00;  9.9826270E+03; -8.9981925E-01;  0.0000000E+00;  1.2327234E-01;  8.8787822E+03;
  5.1903403E-01;  9.9999998E-03; -2.8018823E-01;1836; -2.4120948E-01;  0.0000000E+00; -3.8552970E-02;  1.0044457E+03;  4.0001833E-01;  3.6831357E+03;3; -6.1504242E+01;  0.0000000E+00; -7.1256275E+00;0; -7.7515554E-01;  1.0104365E+04;  0.0000000E+00;  3.5637668E-03;  1.0000000E+04;  0.0000000E+00;  9.9839209E+03; -9.0712035E-01;  0.0000000E+00;  1.3196479E-01;  8.2213174E+03;
  5.1900780E-01;  9.9999998E-03; -2.6016605E-01;1837; -2.5259313E-01;  0.0000000E+00; -3.6874224E-02;  1.0044491E+03;  4.0001816E-01;  3.6859998E+03;3; -5.1357540E+01;  0.0000000E+00; -5.4867806E+00;0; -7.9319972E-01;  1.0103250E+04;  0.0000000E+00;  3.3539296E-03;  1.0000000E+04;  0.0000000E+00;  9.9851006E+03; -9.1734290E-01;  0.0000000E+00;  1.2414317E-01;  7.6458989E+03;
  5.1899141E-01;  9.9999998E-03; -2.4014924E-01;1838; -2.6204377E-01;  0.0000000E+00; -3.4468386E-02;  1.0044034E+03;  4.0001827E-01;  3.6480752E+03;3; -4.5419800E+01;  0.0000000E+00; -4.0607691E+00;0; -8.1421149E-01;  1.0102124E+04;  0.0000000E+00;  2.0617971E-03;  1.0000000E+04;  0.0000000E+00;  9.9853193E+03; -9.3040317E-01;  0.0000000E+00;  1.1619172E-01;  7.5477788E+03;
  5.1898384E-01;  9.9999998E-03; -2.2013679E-01;1839; -2.6943517E-01;  0.0000000E+00; -3.2348383E-02;  1.0043663E+03;  4.0001824E-01;  3.6173601E+03;3; -4.3389420E+01;  0.0000000E+00; -3.1056461E+00;0; -8.3068633E-01;  1.0101022E+04;  0.0000000E+00;  9.7325962E-04;  1.0000000E+04;  0.0000000E+00;  9.9856719E+03; -9.4589639E-01;  0.0000000E+00;  1.1521003E-01;  7.3741455E+03;
  5.1898295E-01;  9.9999998E-03; -2.0012498E-01;1840; -2.7508664E-01;  0.0000000E+00; -3.0085748E-02;  1.0043421E+03;  4.0001827E-01;  3.5973113E+03;3; -4.3916405E+01;  0.0000000E+00; -2.6461957E+00;0; -8.4571487E-01;  1.0100009E+04;  0.0000000E+00;  3.9907810E-04;  1.0000000E+04;  0.0000000E+00;  9.9861826E+03; -9.6301955E-01;  0.0000000E+00;  1.1730469E-01;  7.1115142E+03;
  5.3895688E-01;  9.9999998E-03; -3.0023211E-01;1866; -2.4580240E-01;  0.0000000E+00; -3.9034456E-02;  1.0047330E+03;  4.0004918E-01;  3.9212444E+03;3; -7.7774094E+01;  0.0000000E+00; -7.8331575E+00;0; -7.8783572E-01;  1.0110815E+04;  0.0000000E+00;  1.3268515E-05;  1.0000000E+04;  0.0000000E+00;  9.9816436E+03; -9.1490674E-01;  0.0000000E+00;  1.2707102E-01;  9.3853662E+03;
  5.3892231E-01;  9.9999998E-03; -2.8020686E-01;1867; -2.5955138E-01;  0.0000000E+00; -3.7882935E-02;  1.0047473E+03;  4.0004918E-01;  3.9329973E+03;3; -6.3884293E+01;  0.0000000E+00; -5.5447474E+00;0; -7.8635216E-01;  1.0109326E+04;  0.0000000E+00;  4.7454969E-03;  1.0000000E+04;  0.0000000E+00;  9.9834229E+03; -9.1946322E-01;  0.0000000E+00;  1.3311103E-01;  8.4892803E+03;
  5.3889763E-01;  9.9999998E-03; -2.6018003E-01;1868; -2.7159694E-01;  0.0000000E+00; -3.5642922E-02;  1.0047307E+03;  4.0004918E-01;  3.9192693E+03;3; -5.3010559E+01;  0.0000000E+00; -3.9069772E+00;0; -8.0621886E-01;  1.0107770E+04;  0.0000000E+00;  4.7570546E-03;  1.0000000E+04;  0.0000000E+00;  9.9846387E+03; -9.2697257E-01;  0.0000000E+00;  1.2075368E-01;  7.8989756E+03;
  5.3888249E-01;  9.9999998E-03; -2.4016267E-01;1869; -2.8169656E-01;  0.0000000E+00; -3.3106618E-02;  1.0046379E+03;  4.0004912E-01;  3.8424326E+03;3; -4.6699268E+01;  0.0000000E+00; -2.4433131E+00;0; -8.2437986E-01;  1.0106239E+04;  0.0000000E+00;  3.0481571E-03;  1.0000000E+04;  0.0000000E+00;  9.9843232E+03; -9.3760210E-01;  0.0000000E+00;  1.1322226E-01;  8.0645137E+03;
  5.3887606E-01;  9.9999998E-03; -2.2015147E-01;1870; -2.8961617E-01;  0.0000000E+00; -3.1331208E-02;  1.0045729E+03;  4.0004924E-01;  3.7885085E+03;3; -4.4530605E+01;  0.0000000E+00; -1.6042933E+00;0; -8.3841580E-01;  1.0104812E+04;  0.0000000E+00;  1.4783003E-03;  1.0000000E+04;  0.0000000E+00;  9.9844404E+03; -9.5110399E-01;  0.0000000E+00;  1.1268817E-01;  8.0039663E+03;
  5.3887624E-01;  9.9999998E-03; -2.0014054E-01;1871; -2.9572234E-01;  0.0000000E+00; -2.9368037E-02;  1.0045352E+03;  4.0004921E-01;  3.7572998E+03;3; -4.5117752E+01;  0.0000000E+00; -1.1973237E+00;0; -8.5252649E-01;  1.0103548E+04;  0.0000000E+00;  5.9998571E-04;  1.0000000E+04;  0.0000000E+00;  9.9849355E+03; -9.6678317E-01;  0.0000000E+00;  1.1425670E-01;  7.7531211E+03;
  5.5882818E-01;  9.9999998E-03; -3.0026013E-01;1897; -2.6528364E-01;  0.0000000E+00; -3.8272392E-02;  1.0049676E+03;  4.0013221E-01;  4.1154990E+03;3; -8.1449799E+01;  0.0000000E+00; -5.7135997E+00;0; -7.6594210E-01;  1.0111844E+04;  0.0000000E+00; -1.9103063E-05;  1.0000000E+04;  0.0000000E+00;  9.9810732E+03; -8.9382422E-01;  0.0000000E+00;  1.2788209E-01;  9.6729121E+03;
  5.5880046E-01;  9.9999998E-03; -2.8022972E-01;1898; -2.7893990E-01;  0.0000000E+00; -3.6672309E-02;  1.0049855E+03;  4.0013218E-01;  4.1304121E+03;3; -6.6293724E+01;  0.0000000E+00; -3.4763057E+00;0; -7.6662779E-01;  1.0110087E+04;  0.0000000E+00;  6.5940707E-03;  1.0000000E+04;  0.0000000E+00;  9.9831924E+03; -8.9673042E-01;  0.0000000E+00;  1.3010263E-01;  8.6112773E+03;
  5.5878001E-01;  9.9999998E-03; -2.6019809E-01;1899; -2.9132858E-01;  0.0000000E+00; -3.3691548E-02;  1.0049369E+03;  4.0013218E-01;  4.0901174E+03;3; -5.4622307E+01;  0.0000000E+00; -1.7874929E+00;0; -7.8842366E-01;  1.0108281E+04;  0.0000000E+00;  7.0560686E-03;  1.0000000E+04;  0.0000000E+00;  9.9840264E+03; -9.0265858E-01;  0.0000000E+00;  1.1423493E-01;  8.2146484E+03;
  5.5876762E-01;  9.9999998E-03; -2.4018128E-01;1900; -3.0184832E-01;  0.0000000E+00; -3.1263120E-02;  1.0047878E+03;  4.0013221E-01;  3.9665664E+03;3; -4.7894741E+01;  0.0000000E+00; -3.5383227E-01;0; -8.0162561E-01;  1.0106557E+04;  0.0000000E+00;  4.6991385E-03;  1.0000000E+04;  0.0000000E+00;  9.9827793E+03; -9.1187185E-01;  0.0000000E+00;  1.1024627E-01;  8.8386084E+03;
  5.5876303E-01;  9.9999998E-03; -2.2017218E-01;1901; -3.1024116E-01;  0.0000000E+00; -3.0044364E-02;  1.0046978E+03;  4.0013242E-01;  3.8920015E+03;3; -4.5576645E+01;  0.0000000E+00;  3.3710238E-01;0; -8.1291473E-01;  1.0104979E+04;  0.0000000E+00;  2.2939229E-03;  1.0000000E+04;  0.0000000E+00;  9.9825430E+03; -9.2409289E-01;  0.0000000E+00;  1.1117813E-01;  8.9519854E+03;
  5.5876440E-01;  9.9999998E-03; -2.0016201E-01;1902; -3.1675753E-01;  0.0000000E+00; -2.8507425E-02;  1.0046546E+03;  4.0013233E-01;  3.8562495E+03;3; -4.6220150E+01;  0.0000000E+00;  6.5733051E-01;0; -8.2655478E-01;  1.0103622E+04;  0.0000000E+00;  8.4282481E-04;  1.0000000E+04;  0.0000000E+00;  9.9830244E+03; -9.3867797E-01;  0.0000000E+00;  1.1212318E-01;  8.7082539E+03;
  5.7869005E-01;  9.9999998E-03; -3.0029574E-01;1928; -2.8560176E-01;  0.0000000E+00; -3.7296005E-02;  1.0051964E+03;  4.0035227E-01;  4.3051079E+03;3; -8.5196182E+01;  0.0000000E+00; -3.0894680E+00;0; -6.8589056E-01;  1.0105626E+04;  0.0000000E+00;  5.4135226E-04;  1.0000000E+04;  0.0000000E+00;  9.9807402E+03; -8.1041265E-01;  0.0000000E+00;  1.2452206E-01;  9.8135703E+03;
  5.7867402E-01;  9.9999998E-03; -2.8026021E-01;1929; -2.9848048E-01;  0.0000000E+00; -3.5132069E-02;  1.0052200E+03;  4.0035248E-01;  4.3246626E+03;3; -6.8616478E+01;  0.0000000E+00; -8.9648432E-01;0; -6.9209224E-01;  1.0104018E+04;  0.0000000E+00;  9.4684558E-03;  1.0000000E+04;  0.0000000E+00;  9.9828262E+03; -8.1495553E-01;  0.0000000E+00;  1.2286332E-01;  8.7752988E+03;
  5.7866037E-01;  9.9999998E-03; -2.6022419E-01;1930; -3.1081313E-01;  0.0000000E+00; -3.1426728E-02;  1.0051368E+03;  4.0035251E-01;  4.2557271E+03;3; -5.6100586E+01;  0.0000000E+00;  9.0932387E-01;0; -7.1604276E-01;  1.0102427E+04;  0.0000000E+00;  1.0667288E-02;  1.0000000E+04;  0.0000000E+00;  9.9827656E+03; -8.2292724E-01;  0.0000000E+00;  1.0688445E-01;  8.8270117E+03;
  5.7865208E-01;  9.9999998E-03; -2.4020815E-01;1931; -3.2148647E-01;  0.0000000E+00; -2.9294696E-02;  1.0049392E+03;  4.0035248E-01;  4.0919810E+03;3; -4.8919846E+01;  0.0000000E+00;  2.2499595E+00;0; -7.2485703E-01;  1.0100965E+04;  0.0000000E+00;  7.2697066E-03;  1.0000000E+04;  0.0000000E+00;  9.9802930E+03; -8.3433276E-01;  0.0000000E+00;  1.0947572E-01;  1.0051080E+04;
  5.7865012E-01;  9.9999998E-03; -2.2020106E-01;1932; -3.3009350E-01;  0.0000000E+00; -2.8879333E-02;  1.0048398E+03;  4.0035266E-01;  4.0096138E+03;3; -4.6464897E+01;  0.0000000E+00;  2.8033414E+00;0; -7.3542738E-01;  1.0099656E+04;  0.0000000E+00;  3.4941845E-03;  1.0000000E+04;  0.0000000E+00;  9.9796123E+03; -8.4842336E-01;  0.0000000E+00;  1.1299599E-01;  1.0385206E+04;
  5.7865244E-01;  9.9999998E-03; -2.0019078E-01;1933; -3.3712825E-01;  0.0000000E+00; -2.7716730E-02;  1.0048075E+03;  4.0035281E-01;  3.9828496E+03;3; -4.7138268E+01;  0.0000000E+00;  2.9296615E+00;0; -7.5089240E-01;  1.0098528E+04;  0.0000000E+00;  1.1001315E-03;  1.0000000E+04;  0.0000000E+00;  9.9800859E+03; -8.6422688E-01;  0.0000000E+00;  1.1333450E-01;  1.0147787E+04;
  5.9855413E-01;  9.9999998E-03; -3.0034333E-01;1959; -3.0502459E-01;  0.0000000E+00; -3.6462680E-02;  1.0056996E+03;  4.0091130E-01;  4.7219595E+03;3; -8.8633369E+01;  0.0000000E+00;  7.1945317E-02;0; -5.1004720E-01;  1.0088558E+04;  0.0000000E+00;  2.2381360E-03;  1.0000000E+04;  0.0000000E+00;  9.9798291E+03; -6.2859172E-01;  0.0000000E+00;  1.1854450E-01;  1.0202439E+04;
  5.9855247E-01;  9.9999998E-03; -2.8030407E-01;1960; -3.1669024E-01;  0.0000000E+00; -3.3776581E-02;  1.0057358E+03;  4.0091172E-01;  4.7519829E+03;3; -7.0708618E+01;  0.0000000E+00;  2.2602148E+00;0; -5.2585822E-01;  1.0087733E+04;  0.0000000E+00;  1.4139834E-02;  1.0000000E+04;  0.0000000E+00;  9.9813721E+03; -6.4023137E-01;  0.0000000E+00;  1.1437313E-01;  9.4433984E+03;
  5.9854740E-01;  9.9999998E-03; -2.6026464E-01;1961; -3.2853556E-01;  0.0000000E+00; -2.9572884E-02;  1.0056408E+03;  4.0091211E-01;  4.6732705E+03;3; -5.7346214E+01;  0.0000000E+00;  4.1915741E+00;0; -5.5441225E-01;  1.0087031E+04;  0.0000000E+00;  1.6361399E-02;  1.0000000E+04;  0.0000000E+00;  9.9801924E+03; -6.5596527E-01;  0.0000000E+00;  1.0155300E-01;  1.0052354E+04;
  5.9854323E-01;  9.9999998E-03; -2.4024585E-01;1962; -3.3927271E-01;  0.0000000E+00; -2.7572401E-02;  1.0054396E+03;  4.0091243E-01;  4.5064629E+03;3; -4.9676807E+01;  0.0000000E+00;  5.3966560E+00;0; -5.6374371E-01;  1.0086508E+04;  0.0000000E+00;  1.1225950E-02;  1.0000000E+04;  0.0000000E+00;  9.9767266E+03; -6.7537957E-01;  0.0000000E+00;  1.1163584E-01;  1.1763815E+04;
  5.9854293E-01;  9.9999998E-03; -2.2023715E-01;1963; -3.4818867E-01;  0.0000000E+00; -2.7526177E-02;  1.0053596E+03;  4.0091285E-01;  4.4402930E+03;3; -4.7045952E+01;  0.0000000E+00;  5.6711569E+00;0; -5.7825541E-01;  1.0086104E+04;  0.0000000E+00;  5.2153808E-03;  1.0000000E+04;  0.0000000E+00;  9.9755293E+03; -6.9692504E-01;  0.0000000E+00;  1.1866964E-01;  1.2353552E+04;
  5.9854621E-01;  9.9999998E-03; -2.0022532E-01;1964; -3.5550779E-01;  0.0000000E+00; -2.6897086E-02;  1.0053616E+03;  4.0091294E-01;  4.4419722E+03;3; -4.7683693E+01;  0.0000000E+00;  5.5046792E+00;0; -5.9935075E-01;  1.0085749E+04;  0.0000000E+00;  1.3212734E-03;  1.0000000E+04;  0.0000000E+00;  9.9759102E+03; -7.1878821E-01;  0.0000000E+00;  1.1943746E-01;  1.2165638E+04;
  6.1843574E-01;  9.9999998E-03; -3.0040967E-01;1990; -3.2149091E-01;  0.0000000E+00; -3.6636423E-02;  1.0071567E+03;  4.0219674E-01;  5.9290801E+03;3; -9.1527115E+01;  0.0000000E+00;  3.5868034E+00;0; -1.8948206E-01;  1.0056959E+04;  0.0000000E+00;  5.2306107E-03;  1.0000000E+04;  0.0000000E+00;  9.9763760E+03; -3.0910993E-01;  0.0000000E+00;  1.1962787E-01;  1.1784635E+04;
  6.1844599E-01;  9.9999998E-03; -2.8036988E-01;1991; -3.3223209E-01;  0.0000000E+00; -3.3369709E-02;  1.0072271E+03;  4.0219784E-01;  5.9873486E+03;3; -7.2385849E+01;  0.0000000E+00;  5.9186478E+00;0; -2.2469559E-01;  1.0057608E+04;  0.0000000E+00;  2.1119086E-02;  1.0000000E+04;  0.0000000E+00;  9.9770752E+03; -3.3383924E-01;  0.0000000E+00;  1.0914364E-01;  1.1460977E+04;
  6.1844510E-01;  9.9999998E-03; -2.6032436E-01;1992; -3.4401149E-01;  0.0000000E+00; -2.8949268E-02;  1.0072149E+03;  4.0219876E-01;  5.9772749E+03;3; -5.8355797E+01;  0.0000000E+00;  7.9474468E+00;0; -2.6214796E-01;  1.0058482E+04;  0.0000000E+00;  2.4659097E-02;  1.0000000E+04;  0.0000000E+00;  9.9759746E+03; -3.6315715E-01;  0.0000000E+00;  1.0100918E-01;  1.2033576E+04;
  6.1844414E-01;  9.9999998E-03; -2.4029569E-01;1993; -3.5469806E-01;  0.0000000E+00; -2.6314331E-02;  1.0070840E+03;  4.0219945E-01;  5.8688359E+03;3; -5.0149155E+01;  0.0000000E+00;  8.9238768E+00;0; -2.8116697E-01;  1.0059576E+04;  0.0000000E+00;  1.7210023E-02;  1.0000000E+04;  0.0000000E+00;  9.9722871E+03; -3.9621875E-01;  0.0000000E+00;  1.1505178E-01;  1.3859926E+04;
  6.1844647E-01;  9.9999998E-03; -2.2028045E-01;1994; -3.6366519E-01;  0.0000000E+00; -2.5918737E-02;  1.0070518E+03;  4.0220025E-01;  5.8421709E+03;3; -4.7272129E+01;  0.0000000E+00;  8.9084644E+00;0; -3.0399719E-01;  1.0060737E+04;  0.0000000E+00;  7.9135066E-03;  1.0000000E+04;  0.0000000E+00;  9.9704834E+03; -4.3073714E-01;  0.0000000E+00;  1.2673995E-01;  1.4750979E+04;
  6.1845076E-01;  9.9999998E-03; -2.0026344E-01;1995; -3.7127993E-01;  0.0000000E+00; -2.5199261E-02;  1.0071086E+03;  4.0220070E-01;  5.8892793E+03;3; -4.7841873E+01;  0.0000000E+00;  8.4755669E+00;0; -3.3403751E-01;  1.0061752E+04;  0.0000000E+00;  1.7005777E-03;  1.0000000E+04;  0.0000000E+00;  9.9705723E+03; -4.6394774E-01;  0.0000000E+00;  1.2991023E-01;  1.4711844E+04;
  6.3834900E-01;  9.9999998E-03; -3.0049959E-01;2021; -3.3331978E-01;  0.0000000E+00; -3.8405258E-02;  1.0102661E+03;  4.0457711E-01;  8.5049795E+03;3; -9.3621567E+01;  0.0000000E+00;  7.3918142E+00;0;  3.1045300E-01;  1.0008652E+04;  0.0000000E+00;  7.9888878E-03;  1.0000000E+04;  0.0000000E+00;  9.9684277E+03;  1.7259774E-01;  0.0000000E+00;  1.3785525E-01;  1.5505986E+04;
  6.3836128E-01;  9.9999998E-03; -2.8046316E-01;2022; -3.4435174E-01;  0.0000000E+00; -3.4962535E-02;  1.0104135E+03;  4.0457916E-01;  8.6270469E+03;3; -7.3743759E+01;  0.0000000E+00;  9.7250071E+00;0;  2.4917153E-01;  1.0011277E+04;  0.0000000E+00;  2.8401516E-02;  1.0000000E+04;  0.0000000E+00;  9.9686309E+03;  1.3094741E-01;  0.0000000E+00;  1.1822411E-01;  1.5453978E+04;
  6.3836175E-01;  9.9999998E-03; -2.6041687E-01;2023; -3.5628983E-01;  0.0000000E+00; -3.0932378E-02;  1.0105580E+03;  4.0458032E-01;  8.7468418E+03;3; -5.8850327E+01;  0.0000000E+00;  1.2258549E+01;0;  1.9708145E-01;  1.0014181E+04;  0.0000000E+00;  3.4511443E-02;  1.0000000E+04;  0.0000000E+00;  9.9685830E+03;  8.5052371E-02;  0.0000000E+00;  1.1202908E-01;  1.5512067E+04;
  6.3836104E-01;  9.9999998E-03; -2.4036852E-01;2024; -3.6714277E-01;  0.0000000E+00; -2.6746331E-02;  1.0106266E+03;  4.0458128E-01;  8.8037275E+03;3; -5.0352051E+01;  0.0000000E+00;  1.2968051E+01;0;  1.5599303E-01;  1.0017289E+04;  0.0000000E+00;  2.5219748E-02;  1.0000000E+04;  0.0000000E+00;  9.9668379E+03;  3.6098566E-02;  0.0000000E+00;  1.1989447E-01;  1.6391266E+04;
  6.3836432E-01;  9.9999998E-03; -2.2033286E-01;2025; -3.7609950E-01;  0.0000000E+00; -2.4369301E-02;  1.0106902E+03;  4.0458232E-01;  8.8563662E+03;3; -4.7266506E+01;  0.0000000E+00;  1.2868928E+01;0;  1.2084128E-01;  1.0020376E+04;  0.0000000E+00;  1.2208772E-02;  1.0000000E+04;  0.0000000E+00;  9.9649834E+03; -1.3266505E-02;  0.0000000E+00;  1.3410778E-01;  1.7313316E+04;
  6.3837135E-01;  9.9999998E-03; -2.0030618E-01;2026; -3.8352329E-01;  0.0000000E+00; -2.2884144E-02;  1.0108066E+03;  4.0458322E-01;  8.9527559E+03;3; -4.7746464E+01;  0.0000000E+00;  1.2077431E+01;0;  8.2615331E-02;  1.0023145E+04;  0.0000000E+00;  2.9302442E-03;  1.0000000E+04;  0.0000000E+00;  9.9644814E+03; -5.9763175E-02;  0.0000000E+00;  1.4237851E-01;  1.7568482E+04;
  6.5830725E-01;  9.9999998E-03; -3.0060557E-01;2052; -3.3693177E-01;  0.0000000E+00; -4.1661084E-02;  1.0141115E+03;  4.0762308E-01;  1.1690544E+04;3; -9.3578194E+01;  0.0000000E+00;  1.1371328E+01;0;  9.6913266E-01;  9.9451455E+03;  0.0000000E+00;  6.1913161E-03;  1.0000000E+04;  0.0000000E+00;  9.9580566E+03;  8.0041766E-01;  0.0000000E+00;  1.6871497E-01;  2.0359836E+04;
  6.5831429E-01;  9.9999998E-03; -2.8057694E-01;2053; -3.5011786E-01;  0.0000000E+00; -3.8508162E-02;  1.0143318E+03;  4.0762490E-01;  1.1873148E+04;3; -7.3944984E+01;  0.0000000E+00;  1.3985298E+01;0;  8.8427198E-01;  9.9497578E+03;  0.0000000E+00;  3.1135298E-02;  1.0000000E+04;  0.0000000E+00;  9.9576973E+03;  7.4424261E-01;  0.0000000E+00;  1.4002940E-01;  2.0608248E+04;
  6.5831512E-01;  9.9999998E-03; -2.6054293E-01;2054; -3.6245278E-01;  0.0000000E+00; -3.6613427E-02;  1.0146115E+03;  4.0762535E-01;  1.2104836E+04;3; -5.9200802E+01;  0.0000000E+00;  1.6618559E+01;0;  8.2309651E-01;  9.9546357E+03;  0.0000000E+00;  4.2198788E-02;  1.0000000E+04;  0.0000000E+00;  9.9583203E+03;  6.8488425E-01;  0.0000000E+00;  1.3821226E-01;  2.0337684E+04;
  6.5831339E-01;  9.9999998E-03; -2.4048391E-01;2055; -3.7347460E-01;  0.0000000E+00; -3.2112744E-02;  1.0149353E+03;  4.0762529E-01;  1.2373064E+04;3; -5.0483917E+01;  0.0000000E+00;  1.7762991E+01;0;  7.5754809E-01;  9.9596182E+03;  0.0000000E+00;  3.3462942E-02;  1.0000000E+04;  0.0000000E+00;  9.9597246E+03;  6.2448102E-01;  0.0000000E+00;  1.3306706E-01;  1.9672063E+04;
  6.5831256E-01;  9.9999998E-03; -2.2041447E-01;2056; -3.8316053E-01;  0.0000000E+00; -2.5682319E-02;  1.0151597E+03;  4.0762556E-01;  1.2559026E+04;3; -4.7011314E+01;  0.0000000E+00;  1.7448233E+01;0;  7.0489800E-01;  9.9644629E+03;  0.0000000E+00;  1.7987303E-02;  1.0000000E+04;  0.0000000E+00;  9.9593066E+03;  5.6537193E-01;  0.0000000E+00;  1.3952605E-01;  1.9900039E+04;
  6.5831763E-01;  9.9999998E-03; -2.0036371E-01;2057; -3.9112297E-01;  0.0000000E+00; -2.1294104E-02;  1.0153325E+03;  4.0762615E-01;  1.2702128E+04;3; -4.7333694E+01;  0.0000000E+00;  1.6224928E+01;0;  6.6337305E-01;  9.9688232E+03;  0.0000000E+00;  5.8200601E-03;  1.0000000E+04;  0.0000000E+00;  9.9583174E+03;  5.1046604E-01;  0.0000000E+00;  1.5290701E-01;  2.0398959E+04;
  6.7834371E-01;  9.9999998E-03; -3.0070323E-01;2083; -3.2212138E-01;  0.0000000E+00; -4.5219470E-02;  1.0162838E+03;  4.1010416E-01;  1.3490025E+04;3; -8.6185905E+01;  0.0000000E+00;  1.6243301E+01;0;  1.7007897E+00;  9.8735313E+03;  0.0000000E+00;  1.9343526E-05;  1.0000000E+04;  0.0000000E+00;  9.9514854E+03;  1.4952314E+00;  0.0000000E+00;  2.0555830E-01;  2.3278730E+04;
  6.7832065E-01;  9.9999998E-03; -2.8068265E-01;2084; -3.4495720E-01;  0.0000000E+00; -4.1476034E-02;  1.0165310E+03;  4.1010424E-01;  1.3694850E+04;3; -7.1795601E+01;  0.0000000E+00;  1.8602196E+01;0;  1.5846020E+00;  9.8793066E+03;  0.0000000E+00;  2.4020938E-02;  1.0000000E+04;  0.0000000E+00;  9.9505488E+03;  1.4370462E+00;  0.0000000E+00;  1.4755580E-01;  2.3859699E+04;
  6.7831552E-01;  9.9999998E-03; -2.6066712E-01;2085; -3.5933959E-01;  0.0000000E+00; -4.1669533E-02;  1.0168284E+03;  4.1010353E-01;  1.3941248E+04;3; -5.8022346E+01;  0.0000000E+00;  2.1655113E+01;0;  1.5268073E+00;  9.8853750E+03;  0.0000000E+00;  4.1729826E-02;  1.0000000E+04;  0.0000000E+00;  9.9503203E+03;  1.3766905E+00;  0.0000000E+00;  1.5011680E-01;  2.4012385E+04;
  6.7831230E-01;  9.9999998E-03; -2.4062319E-01;2086; -3.7097481E-01;  0.0000000E+00; -4.0732075E-02;  1.0172558E+03;  4.1010201E-01;  1.4295293E+04;3; -4.9493065E+01;  0.0000000E+00;  2.2843203E+01;0;  1.4652941E+00;  9.8913770E+03;  0.0000000E+00;  3.7587386E-02;  1.0000000E+04;  0.0000000E+00;  9.9527383E+03;  1.3184150E+00;  0.0000000E+00;  1.4687902E-01;  2.2847230E+04;
  6.7830312E-01;  9.9999998E-03; -2.2053257E-01;2087; -3.8255101E-01;  0.0000000E+00; -3.2637361E-02;  1.0176129E+03;  4.1010064E-01;  1.4591070E+04;3; -4.6378857E+01;  0.0000000E+00;  2.2690214E+01;0;  1.4065201E+00;  9.8970850E+03;  0.0000000E+00;  2.3034263E-02;  1.0000000E+04;  0.0000000E+00;  9.9540508E+03;  1.2636000E+00;  0.0000000E+00;  1.4292015E-01;  2.2228768E+04;
  6.7830223E-01;  9.9999998E-03; -2.0045339E-01;2088; -3.9195782E-01;  0.0000000E+00; -2.4280632E-02;  1.0178136E+03;  4.1010019E-01;  1.4757377E+04;3; -4.6810604E+01;  0.0000000E+00;  2.1289671E+01;0;  1.3720335E+00;  9.9022363E+03;  0.0000000E+00;  9.8727681E-03;  1.0000000E+04;  0.0000000E+00;  9.9528271E+03;  1.2137611E+00;  0.0000000E+00;  1.5827240E-01;  2.2847896E+04;
  6.9861716E-01;  9.9999998E-03; -3.0077928E-01;2114; -2.4988413E-01;  0.0000000E+00; -4.5157306E-02;  1.0162182E+03;  4.1148669E-01;  1.3435443E+04;3; -5.7728645E+01;  0.0000000E+00;  2.1245638E+01;0;  2.3013551E+00;  9.8066426E+03;  0.0000000E+00;  1.9714091E-02;  1.0000000E+04;  0.0000000E+00;  9.9505527E+03;  2.1154172E+00;  0.0000000E+00;  1.8593782E-01;  2.3476164E+04;
  6.9845259E-01;  9.9999998E-03; -2.8076336E-01;2115; -3.0641294E-01;  0.0000000E+00; -4.1125655E-02;  1.0163909E+03;  4.1148481E-01;  1.3578542E+04;3; -5.6607136E+01;  0.0000000E+00;  2.4299826E+01;0;  2.2018838E+00;  9.8117412E+03;  0.0000000E+00;  1.7093237E-02;  1.0000000E+04;  0.0000000E+00;  9.9489941E+03;  2.0792360E+00;  0.0000000E+00;  1.2264772E-01;  2.4366973E+04;
  6.9839579E-01;  9.9999998E-03; -2.6076689E-01;2116; -3.3899716E-01;  0.0000000E+00; -4.3993939E-02;  1.0165460E+03;  4.1148341E-01;  1.3707024E+04;3; -5.1779812E+01;  0.0000000E+00;  2.7446964E+01;0;  2.1844993E+00;  9.8172705E+03;  0.0000000E+00;  3.1932283E-02;  1.0000000E+04;  0.0000000E+00;  9.9465420E+03;  2.0412605E+00;  0.0000000E+00;  1.4323869E-01;  2.5606508E+04;
  6.9838959E-01;  9.9999998E-03; -2.4075651E-01;2117; -3.5279959E-01;  0.0000000E+00; -4.8971869E-02;  1.0168749E+03;  4.1148120E-01;  1.3979490E+04;3; -4.6200264E+01;  0.0000000E+00;  2.8679953E+01;0;  2.1613202E+00;  9.8226563E+03;  0.0000000E+00;  3.4136634E-02;  1.0000000E+04;  0.0000000E+00;  9.9476123E+03;  2.0077868E+00;  0.0000000E+00;  1.5353347E-01;  2.5094553E+04;
  6.9837373E-01;  9.9999998E-03; -2.2068572E-01;2118; -3.6454916E-01;  0.0000000E+00; -4.7928739E-02;  1.0172278E+03;  4.1147891E-01;  1.4271904E+04;3; -4.3474361E+01;  0.0000000E+00;  2.7803459E+01;0;  2.1283004E+00;  9.8277100E+03;  0.0000000E+00;  2.3760274E-02;  1.0000000E+04;  0.0000000E+00;  9.9494873E+03;  1.9790697E+00;  0.0000000E+00;  1.4923061E-01;  2.4195043E+04;
  6.9836098E-01;  9.9999998E-03; -2.0059502E-01;2119; -3.7703416E-01;  0.0000000E+00; -3.9672367E-02;  1.0174102E+03;  4.1147768E-01;  1.4422901E+04;3; -4.4139431E+01;  0.0000000E+00;  2.5581177E+01;0;  2.1138799E+00;  9.8323057E+03;  0.0000000E+00;  1.2420233E-02;  1.0000000E+04;  0.0000000E+00;  9.9484473E+03;  1.9543300E+00;  0.0000000E+00;  1.5954986E-01;  2.4728570E+04;
  7.1908498E-01;  9.9999998E-03; -3.0083469E-01;2145; -1.5131670E-01;  0.0000000E+00; -4.3276019E-02;  1.0153788E+03;  4.1209739E-01;  1.2739763E+04;3; -2.9856058E+01;  0.0000000E+00;  2.6936859E+01;0;  2.6587820E+00;  9.7594805E+03;  0.0000000E+00;  3.3267394E-02;  1.0000000E+04;  0.0000000E+00;  9.9525254E+03;  2.5004702E+00;  0.0000000E+00;  1.5831174E-01;  2.2318627E+04;
  7.1891892E-01;  9.9999998E-03; -2.8081831E-01;2146; -1.9696561E-01;  0.0000000E+00; -3.8808841E-02;  1.0154124E+03;  4.1209683E-01;  1.2767516E+04;3; -2.8814020E+01;  0.0000000E+00;  3.0687527E+01;0;  2.6076760E+00;  9.7615303E+03;  0.0000000E+00;  3.9355263E-02;  1.0000000E+04;  0.0000000E+00;  9.9512158E+03;  2.5164905E+00;  0.0000000E+00;  9.1185622E-02;  2.3076617E+04;
  7.1876496E-01;  9.9999998E-03; -2.6082852E-01;2147; -2.4607363E-01;  0.0000000E+00; -4.0248010E-02;  1.0153202E+03;  4.1209608E-01;  1.2691184E+04;3; -2.8271307E+01;  0.0000000E+00;  3.4658318E+01;0;  2.6371846E+00;  9.7641104E+03;  0.0000000E+00;  3.2206211E-02;  1.0000000E+04;  0.0000000E+00;  9.9469150E+03;  2.5311406E+00;  0.0000000E+00;  1.0604409E-01;  2.5230906E+04;
  7.1865934E-01;  9.9999998E-03; -2.4084422E-01;2148; -2.8461459E-01;  0.0000000E+00; -4.8909377E-02;  1.0153880E+03;  4.1209379E-01;  1.2747375E+04;3; -2.8316225E+01;  0.0000000E+00;  3.6129761E+01;0;  2.6877112E+00;  9.7668047E+03;  0.0000000E+00;  2.6227714E-02;  1.0000000E+04;  0.0000000E+00;  9.9456260E+03;  2.5477140E+00;  0.0000000E+00;  1.3999726E-01;  2.5850768E+04;
  7.1860784E-01;  9.9999998E-03; -2.2081555E-01;2149; -3.0734184E-01;  0.0000000E+00; -5.4754373E-02;  1.0155687E+03;  4.1209173E-01;  1.2897085E+04;3; -2.9239325E+01;  0.0000000E+00;  3.6593544E+01;0;  2.7123330E+00;  9.7694053E+03;  0.0000000E+00;  1.8695962E-02;  1.0000000E+04;  0.0000000E+00;  9.9465840E+03;  2.5676277E+00;  0.0000000E+00;  1.4470538E-01;  2.5387719E+04;
  7.1858817E-01;  9.9999998E-03; -2.0076160E-01;2150; -3.2138854E-01;  0.0000000E+00; -5.7643097E-02;  1.0156359E+03;  4.1209060E-01;  1.2952781E+04;3; -3.1280369E+01;  0.0000000E+00;  3.5323318E+01;0;  2.7455809E+00;  9.7719580E+03;  0.0000000E+00;  1.0865605E-02;  1.0000000E+04;  0.0000000E+00;  9.9453457E+03;  2.5883465E+00;  0.0000000E+00;  1.5723439E-01;  2.6010670E+04;
  7.3945552E-01;  9.9999998E-03; -3.0087575E-01;2176; -8.6121932E-02;  0.0000000E+00; -4.4582527E-02;  1.0149905E+03;  4.1233721E-01;  1.2417572E+04;3; -1.5894446E+01;  0.0000000E+00;  3.0862759E+01;0;  2.8046241E+00;  9.7396797E+03;  0.0000000E+00;  1.6701269E-03;  1.0000000E+04;  0.0000000E+00;  9.9537168E+03;  2.5953002E+00;  0.0000000E+00;  2.0932376E-01;  2.1554396E+04;
  7.3935223E-01;  9.9999998E-03; -2.8085238E-01;2177; -1.1236172E-01;  0.0000000E+00; -3.5886295E-02;  1.0149218E+03;  4.1233748E-01;  1.2360695E+04;3; -1.4262860E+01;  0.0000000E+00;  3.4470573E+01;0;  2.7385857E+00;  9.7379854E+03;  0.0000000E+00;  2.6065595E-02;  1.0000000E+04;  0.0000000E+00;  9.9541426E+03;  2.6642637E+00;  0.0000000E+00;  7.4321948E-02;  2.1522756E+04;
  7.3925394E-01;  9.9999998E-03; -2.6084563E-01;2178; -1.4145151E-01;  0.0000000E+00; -3.4893472E-02;  1.0146809E+03;  4.1233778E-01;  1.2161127E+04;3; -1.3154245E+01;  0.0000000E+00;  4.0454842E+01;0;  2.8215809E+00;  9.7362979E+03;  0.0000000E+00;  2.5082953E-02;  1.0000000E+04;  0.0000000E+00;  9.9511943E+03;  2.7418237E+00;  0.0000000E+00;  7.9757117E-02;  2.2994857E+04;
  7.3917544E-01;  9.9999998E-03; -2.4084951E-01;2179; -1.6697839E-01;  0.0000000E+00; -4.0084440E-02;  1.0144559E+03;  4.1233692E-01;  1.1974789E+04;3; -1.2869720E+01;  0.0000000E+00;  4.2413731E+01;0;  2.9337745E+00;  9.7348389E+03;  0.0000000E+00;  1.7876893E-02;  1.0000000E+04;  0.0000000E+00;  9.9483428E+03;  2.8228652E+00;  0.0000000E+00;  1.1090911E-01;  2.4379252E+04;
  7.3912323E-01;  9.9999998E-03; -2.2082396E-01;2180; -1.8618122E-01;  0.0000000E+00; -4.5269944E-02;  1.0143306E+03;  4.1233590E-01;  1.1871007E+04;3; -1.3357780E+01;  0.0000000E+00;  4.2862083E+01;0;  3.0302339E+00;  9.7338037E+03;  0.0000000E+00;  1.1211616E-02;  1.0000000E+04;  0.0000000E+00;  9.9470020E+03;  2.9030364E+00;  0.0000000E+00;  1.2719749E-01;  2.5033129E+04;
  7.3909628E-01;  9.9999998E-03; -2.0077673E-01;2181; -1.9962721E-01;  0.0000000E+00; -4.8586361E-02;  1.0141705E+03;  4.1233528E-01;  1.1738387E+04;3; -1.4770647E+01;  0.0000000E+00;  4.2411770E+01;0;  3.1252813E+00;  9.7334111E+03;  0.0000000E+00;  6.2996610E-03;  1.0000000E+04;  0.0000000E+00;  9.9442910E+03;  2.9775839E+00;  0.0000000E+00;  1.4769737E-01;  2.6365322E+04;
  7.5969732E-01;  9.9999998E-03; -3.0090731E-01;2207; -5.3602826E-02;  0.0000000E+00; -4.6900965E-02;  1.0152830E+03;  4.1242519E-01;  1.2659277E+04;3; -1.2515032E+01;  0.0000000E+00;  3.4932667E+01;0;  2.7950432E+00;  9.7426289E+03;  0.0000000E+00; -1.9359075E-02;  1.0000000E+04;  0.0000000E+00;  9.9522822E+03;  2.4939053E+00;  0.0000000E+00;  3.0113786E-01;  2.2134105E+04;
  7.5964159E-01;  9.9999998E-03; -2.8087425E-01;2208; -6.7073636E-02;  0.0000000E+00; -3.2651465E-02;  1.0151736E+03;  4.1242614E-01;  1.2568730E+04;3; -1.0667778E+01;  0.0000000E+00;  3.6143703E+01;0;  2.6718431E+00;  9.7378730E+03;  0.0000000E+00;  2.9402212E-03;  1.0000000E+04;  0.0000000E+00;  9.9550039E+03;  2.5996451E+00;  0.0000000E+00;  7.2197944E-02;  2.1069098E+04;
  7.5959003E-01;  9.9999998E-03; -2.6084951E-01;2209; -8.1550002E-02;  0.0000000E+00; -2.9222280E-02;  1.0148427E+03;  4.1242683E-01;  1.2294620E+04;3; -9.1511240E+00;  0.0000000E+00;  4.5349030E+01;0;  2.7935288E+00;  9.7326367E+03;  0.0000000E+00;  8.1213629E-03;  1.0000000E+04;  0.0000000E+00;  9.9538867E+03;  2.7213886E+00;  0.0000000E+00;  7.2140299E-02;  2.1625527E+04;
  7.5954515E-01;  9.9999998E-03; -2.4083626E-01;2210; -9.5027156E-02;  0.0000000E+00; -2.9353252E-02;  1.0143966E+03;  4.1242695E-01;  1.1925021E+04;3; -8.3167810E+00;  0.0000000E+00;  4.8638405E+01;0;  2.9439056E+00;  9.7275820E+03;  0.0000000E+00;  6.3254884E-03;  1.0000000E+04;  0.0000000E+00;  9.9503408E+03;  2.8496222E+00;  0.0000000E+00;  9.4283395E-02;  2.3350553E+04;
  7.5951219E-01;  9.9999998E-03; -2.2080603E-01;2211; -1.0602811E-01;  0.0000000E+00; -3.3035930E-02;  1.0140181E+03;  4.1242701E-01;  1.1611511E+04;3; -8.2734089E+00;  0.0000000E+00;  4.8963165E+01;0;  3.0962253E+00;  9.7232832E+03;  0.0000000E+00;  3.7419244E-03;  1.0000000E+04;  0.0000000E+00;  9.9473574E+03;  2.9758227E+00;  0.0000000E+00;  1.2040254E-01;  2.4794316E+04;
  7.5949132E-01;  9.9999998E-03; -2.0075476E-01;2212; -1.1464170E-01;  0.0000000E+00; -3.5309162E-02;  1.0136669E+03;  4.1242683E-01;  1.1320710E+04;3; -8.9669161E+00;  0.0000000E+00;  4.6905499E+01;0;  3.2374766E+00;  9.7201523E+03;  0.0000000E+00;  1.9463720E-03;  1.0000000E+04;  0.0000000E+00;  9.9437021E+03;  3.0924809E+00;  0.0000000E+00;  1.4499559E-01;  2.6578604E+04;
  7.7985132E-01;  9.9999998E-03; -3.0092821E-01;2238; -3.7526045E-02;  0.0000000E+00; -4.7180500E-02;  1.0159761E+03;  4.1245520E-01;  1.3232493E+04;3; -1.2337178E+01;  0.0000000E+00;  3.8574192E+01;0;  2.7024531E+00;  9.7569980E+03;  0.0000000E+00; -1.1335950E-02;  1.0000000E+04;  0.0000000E+00;  9.9497188E+03;  2.3444929E+00;  0.0000000E+00;  3.5796013E-01;  2.3366908E+04;
  7.7983022E-01;  9.9999998E-03; -2.8088900E-01;2239; -4.3159742E-02;  0.0000000E+00; -3.0503290E-02;  1.0158271E+03;  4.1245645E-01;  1.3109173E+04;3; -1.0804780E+01;  0.0000000E+00;  3.7213650E+01;0;  2.5592799E+00;  9.7502969E+03;  0.0000000E+00; -3.1522247E-03;  1.0000000E+04;  0.0000000E+00;  9.9536279E+03;  2.4693608E+00;  0.0000000E+00;  8.9919120E-02;  2.1752369E+04;
  7.7981234E-01;  9.9999998E-03; -2.6085716E-01;2240; -4.8443627E-02;  0.0000000E+00; -2.6544586E-02;  1.0154203E+03;  4.1245717E-01;  1.2772183E+04;3; -9.4669113E+00;  0.0000000E+00;  4.8910088E+01;0;  2.7061069E+00;  9.7429160E+03;  0.0000000E+00;  2.4165072E-05;  1.0000000E+04;  0.0000000E+00;  9.9531924E+03;  2.6122897E+00;  0.0000000E+00;  9.3817346E-02;  2.1957916E+04;
  7.7979481E-01;  9.9999998E-03; -2.4082533E-01;2241; -5.3366181E-02;  0.0000000E+00; -2.1060487E-02;  1.0149042E+03;  4.1245776E-01;  1.2344748E+04;3; -8.5592890E+00;  0.0000000E+00;  5.3883835E+01;0;  2.8570778E+00;  9.7357012E+03;  0.0000000E+00;  4.6863206E-04;  1.0000000E+04;  0.0000000E+00;  9.9504688E+03;  2.7628767E+00;  0.0000000E+00;  9.4201006E-02;  2.3289705E+04;
  7.7977973E-01;  9.9999998E-03; -2.2078601E-01;2242; -5.7663638E-02;  0.0000000E+00; -2.3170210E-02;  1.0143953E+03;  4.1245821E-01;  1.1923239E+04;3; -8.1719332E+00;  0.0000000E+00;  5.3424828E+01;0;  3.0353308E+00;  9.7293887E+03;  0.0000000E+00;  2.0352271E-04;  1.0000000E+04;  0.0000000E+00;  9.9469658E+03;  2.9108021E+00;  0.0000000E+00;  1.2452861E-01;  2.4976486E+04;
  7.7976799E-01;  9.9999998E-03; -2.0072787E-01;2243; -6.1440323E-02;  0.0000000E+00; -2.2411950E-02;  1.0139420E+03;  4.1245851E-01;  1.1547740E+04;3; -8.2536697E+00;  0.0000000E+00;  4.9426521E+01;0;  3.1955204E+00;  9.7245498E+03;  0.0000000E+00; -1.5690763E-05;  1.0000000E+04;  0.0000000E+00;  9.9430508E+03;  3.0471497E+00;  0.0000000E+00;  1.4837079E-01;  2.6883090E+04;
  7.9997993E-01;  9.9999998E-03; -3.0093849E-01;2269; -2.0086741E-02;  0.0000000E+00; -4.6697747E-02;  1.0166570E+03;  4.1246307E-01;  1.3795242E+04;3; -9.0022125E+00;  0.0000000E+00;  4.0757786E+01;0;  2.6456461E+00;  9.7719385E+03;  0.0000000E+00;  9.9650191E-05;  1.0000000E+04;  0.0000000E+00;  9.9473535E+03;  2.2595513E+00;  0.0000000E+00;  3.8609490E-01;  2.4529518E+04;
  7.9998600E-01;  9.9999998E-03; -2.8089616E-01;2270; -1.9985743E-02;  0.0000000E+00; -2.8818978E-02;  1.0164850E+03;  4.1246450E-01;  1.3652776E+04;3; -8.2617168E+00;  0.0000000E+00;  3.8732643E+01;0;  2.4937208E+00;  9.7644326E+03;  0.0000000E+00; -1.7873780E-04;  1.0000000E+04;  0.0000000E+00;  9.9516094E+03;  2.3894818E+00;  0.0000000E+00;  1.0423894E-01;  2.2756588E+04;
  7.9999304E-01;  9.9999998E-03; -2.6086324E-01;2271; -1.8910164E-02;  0.0000000E+00; -2.4619158E-02;  1.0160377E+03;  4.1246510E-01;  1.3282347E+04;3; -7.6497116E+00;  0.0000000E+00;  5.1226860E+01;0;  2.6466227E+00;  9.7563027E+03;  0.0000000E+00; -1.8933062E-04;  1.0000000E+04;  0.0000000E+00;  9.9511191E+03;  2.5355933E+00;  0.0000000E+00;  1.1102933E-01;  2.2983578E+04;
  7.9999727E-01;  9.9999998E-03; -2.4082506E-01;2272; -1.7690759E-02;  0.0000000E+00; -1.8956132E-02;  1.0155189E+03;  4.1246572E-01;  1.2852680E+04;3; -7.2265253E+00;  0.0000000E+00;  5.6090149E+01;0;  2.7978024E+00;  9.7483916E+03;  0.0000000E+00; -1.5252411E-04;  1.0000000E+04;  0.0000000E+00;  9.9490430E+03;  2.6880531E+00;  0.0000000E+00;  1.0974931E-01;  2.3993232E+04;
  7.9999709E-01;  9.9999998E-03; -2.2077730E-01;2273; -1.7083017E-02;  0.0000000E+00; -1.9289779E-02;  1.0149993E+03;  4.1246644E-01;  1.2422321E+04;3; -7.0006609E+00;  0.0000000E+00;  5.4597832E+01;0;  2.9705305E+00;  9.7414746E+03;  0.0000000E+00; -1.4997016E-04;  1.0000000E+04;  0.0000000E+00;  9.9459248E+03;  2.8361821E+00;  0.0000000E+00;  1.3434838E-01;  2.5489684E+04;
  7.9999387E-01;  9.9999998E-03; -2.0071197E-01;2274; -1.7184587E-02;  0.0000000E+00; -1.6490277E-02;  1.0145362E+03;  4.1246679E-01;  1.2038763E+04;3; -6.9342504E+00;  0.0000000E+00;  5.1024757E+01;0;  3.1256025E+00;  9.7361797E+03;  0.0000000E+00; -1.6008325E-04;  1.0000000E+04;  0.0000000E+00;  9.9422744E+03;  2.9706392E+00;  0.0000000E+00;  1.5496327E-01;  2.7263734E+04;
  8.2013059E-01;  9.9999998E-03; -3.0093923E-01;2300;  9.0680728E-03;  0.0000000E+00; -4.6132535E-02;  1.0170635E+03;  4.1244543E-01;  1.4130188E+04;3;  2.9657811E-02;  0.0000000E+00;  4.1559391E+01;0;  2.6606252E+00;  9.7818594E+03;  0.0000000E+00; -3.4849311E-04;  1.0000000E+04;  0.0000000E+00;  9.9459414E+03;  2.2721200E+00;  0.0000000E+00;  3.8850516E-01;  2.5214701E+04;
  8.2016242E-01;  9.9999998E-03; -2.8089580E-01;2301;  1.5415479E-02;  0.0000000E+00; -2.7742535E-02;  1.0168959E+03;  4.1244689E-01;  1.3991390E+04;3; -2.7518344E-01;  0.0000000E+00;  3.9596184E+01;0;  2.5005229E+00;  9.7745029E+03;  0.0000000E+00;  8.5304363E-04;  1.0000000E+04;  0.0000000E+00;  9.9501270E+03;  2.3977685E+00;  0.0000000E+00;  1.0275435E-01;  2.3486041E+04;
  8.2019037E-01;  9.9999998E-03; -2.6086512E-01;2302;  2.2515453E-02;  0.0000000E+00; -2.2845857E-02;  1.0164442E+03;  4.1244769E-01;  1.3617349E+04;3; -6.9828928E-01;  0.0000000E+00;  5.2546486E+01;0;  2.6442242E+00;  9.7667070E+03;  0.0000000E+00;  1.0252685E-03;  1.0000000E+04;  0.0000000E+00;  9.9492041E+03;  2.5363729E+00;  0.0000000E+00;  1.0785124E-01;  2.3929365E+04;
  8.2021242E-01;  9.9999998E-03; -2.4083295E-01;2303;  2.8824156E-02;  0.0000000E+00; -2.1040687E-02;  1.0159459E+03;  4.1244817E-01;  1.3204713E+04;3; -1.1613386E+00;  0.0000000E+00;  5.5960148E+01;0;  2.8029289E+00;  9.7592373E+03;  0.0000000E+00;  7.8615081E-04;  1.0000000E+04;  0.0000000E+00;  9.9470625E+03;  2.6784713E+00;  0.0000000E+00;  1.2445759E-01;  2.4947529E+04;
  8.2022363E-01;  9.9999998E-03; -2.2078243E-01;2304;  3.2873262E-02;  0.0000000E+00; -2.2746084E-02;  1.0154933E+03;  4.1244847E-01;  1.2829982E+04;3; -1.5776310E+00;  0.0000000E+00;  5.4099701E+01;0;  2.9580889E+00;  9.7528535E+03;  0.0000000E+00;  4.9131562E-04;  1.0000000E+04;  0.0000000E+00;  9.9447021E+03;  2.8132906E+00;  0.0000000E+00;  1.4479825E-01;  2.6071189E+04;
  8.2022536E-01;  9.9999998E-03; -2.0070739E-01;2305;  3.4753881E-02;  0.0000000E+00; -1.8272275E-02;  1.0150923E+03;  4.1244861E-01;  1.2497900E+04;3; -1.8918614E+00;  0.0000000E+00;  4.9956150E+01;0;  3.0916440E+00;  9.7481816E+03;  0.0000000E+00;  2.1870370E-04;  1.0000000E+04;  0.0000000E+00;  9.9416357E+03;  2.9314401E+00;  0.0000000E+00;  1.6020383E-01;  2.7564730E+04;
  8.4031695E-01;  9.9999998E-03; -3.0092937E-01;2331;  5.0069243E-02;  0.0000000E+00; -4.5907117E-02;  1.0168794E+03;  4.1224316E-01;  1.3975464E+04;3;  1.3281794E+01;  0.0000000E+00;  4.0984280E+01;0;  2.7107618E+00;  9.7874209E+03;  0.0000000E+00; -4.6530878E-03;  1.0000000E+04;  0.0000000E+00;  9.9464053E+03;  2.3410213E+00;  0.0000000E+00;  3.6974058E-01;  2.4958018E+04;
  8.4037596E-01;  9.9999998E-03; -2.8088620E-01;2332;  6.4284347E-02;  0.0000000E+00; -2.7866589E-02;  1.0167355E+03;  4.1224444E-01;  1.3856227E+04;3;  1.1963259E+01;  0.0000000E+00;  3.9703690E+01;0;  2.5483375E+00;  9.7809023E+03;  0.0000000E+00;  1.2068785E-03;  1.0000000E+04;  0.0000000E+00;  9.9502100E+03;  2.4571152E+00;  0.0000000E+00;  9.1222234E-02;  2.3416775E+04;
  8.4042454E-01;  9.9999998E-03; -2.6085758E-01;2333;  7.8438386E-02;  0.0000000E+00; -2.2772174E-02;  1.0163101E+03;  4.1224492E-01;  1.3504057E+04;3;  1.0501366E+01;  0.0000000E+00;  5.1650776E+01;0;  2.6772783E+00;  9.7741523E+03;  0.0000000E+00;  2.5731642E-03;  1.0000000E+04;  0.0000000E+00;  9.9487461E+03;  2.5832393E+00;  0.0000000E+00;  9.4038941E-02;  2.4132143E+04;
  8.4046203E-01;  9.9999998E-03; -2.4083330E-01;2334;  8.9791954E-02;  0.0000000E+00; -2.3693712E-02;  1.0158480E+03;  4.1224512E-01;  1.3121394E+04;3;  9.0450945E+00;  0.0000000E+00;  5.4558418E+01;0;  2.8334861E+00;  9.7678613E+03;  0.0000000E+00;  2.0950048E-03;  1.0000000E+04;  0.0000000E+00;  9.9461162E+03;  2.7096510E+00;  0.0000000E+00;  1.2383504E-01;  2.5376783E+04;
  8.4048194E-01;  9.9999998E-03; -2.2078560E-01;2335;  9.6519247E-02;  0.0000000E+00; -2.7398273E-02;  1.0154812E+03;  4.1224509E-01;  1.2817789E+04;3;  7.7377305E+00;  0.0000000E+00;  5.3290646E+01;0;  2.9706800E+00;  9.7627627E+03;  0.0000000E+00;  1.2612651E-03;  1.0000000E+04;  0.0000000E+00;  9.9441396E+03;  2.8253014E+00;  0.0000000E+00;  1.4537862E-01;  2.6315113E+04;
  8.4048414E-01;  9.9999998E-03; -2.0070715E-01;2336;  9.8771960E-02;  0.0000000E+00; -2.4488490E-02;  1.0151710E+03;  4.1224504E-01;  1.2560971E+04;3;  6.6882043E+00;  0.0000000E+00;  4.7227997E+01;0;  3.0816429E+00;  9.7594297E+03;  0.0000000E+00;  5.6521199E-04;  1.0000000E+04;  0.0000000E+00;  9.9414688E+03;  2.9208686E+00;  0.0000000E+00;  1.6077414E-01;  2.7612984E+04;
  8.6052531E-01;  9.9999998E-03; -3.0091053E-01;2362;  9.6659318E-02;  0.0000000E+00; -4.6202436E-02;  1.0162910E+03;  4.1184497E-01;  1.3485268E+04;3;  2.7454979E+01;  0.0000000E+00;  3.8812328E+01;0;  2.7261961E+00;  9.7932246E+03;  0.0000000E+00; -3.2616006E-03;  1.0000000E+04;  0.0000000E+00;  9.9482676E+03;  2.3910463E+00;  0.0000000E+00;  3.3514968E-01;  2.4010174E+04;
  8.6061281E-01;  9.9999998E-03; -2.8086874E-01;2363;  1.2000784E-01;  0.0000000E+00; -2.9427834E-02;  1.0161845E+03;  4.1184559E-01;  1.3397133E+04;3;  2.5376728E+01;  0.0000000E+00;  3.8249481E+01;0;  2.5696769E+00;  9.7879990E+03;  0.0000000E+00;  4.8498930E-03;  1.0000000E+04;  0.0000000E+00;  9.9515176E+03;  2.4942098E+00;  0.0000000E+00;  7.5467110E-02;  2.2727904E+04;
  8.6068243E-01;  9.9999998E-03; -2.6084197E-01;2364;  1.4223863E-01;  0.0000000E+00; -2.4972700E-02;  1.0158091E+03;  4.1184571E-01;  1.3086283E+04;3;  2.3119730E+01;  0.0000000E+00;  4.8790417E+01;0;  2.6840730E+00;  9.7827441E+03;  0.0000000E+00;  5.8889408E-03;  1.0000000E+04;  0.0000000E+00;  9.9495293E+03;  2.6048703E+00;  0.0000000E+00;  7.9202600E-02;  2.3703205E+04;
  8.6073482E-01;  9.9999998E-03; -2.4082303E-01;2365;  1.5918303E-01;  0.0000000E+00; -2.6982561E-02;  1.0154088E+03;  4.1184568E-01;  1.2754915E+04;3;  2.0838083E+01;  0.0000000E+00;  5.1519238E+01;0;  2.8261056E+00;  9.7781074E+03;  0.0000000E+00;  4.3254681E-03;  1.0000000E+04;  0.0000000E+00;  9.9464404E+03;  2.7129550E+00;  0.0000000E+00;  1.1315057E-01;  2.5171869E+04;
  8.6076117E-01;  9.9999998E-03; -2.2077949E-01;2366;  1.6823690E-01;  0.0000000E+00; -3.1748354E-02;  1.0151357E+03;  4.1184527E-01;  1.2528938E+04;3;  1.8690861E+01;  0.0000000E+00;  5.1151226E+01;0;  2.9448090E+00;  9.7747549E+03;  0.0000000E+00;  2.3565318E-03;  1.0000000E+04;  0.0000000E+00;  9.9445234E+03;  2.8074517E+00;  0.0000000E+00;  1.3735719E-01;  2.6083332E+04;
  8.6076051E-01;  9.9999998E-03; -2.0070408E-01;2367;  1.7006746E-01;  0.0000000E+00; -3.1617440E-02;  1.0149238E+03;  4.1184521E-01;  1.2353489E+04;3;  1.6856873E+01;  0.0000000E+00;  4.5107330E+01;0;  3.0362654E+00;  9.7731748E+03;  0.0000000E+00;  9.1587042E-04;  1.0000000E+04;  0.0000000E+00;  9.9419746E+03;  2.8794057E+00;  0.0000000E+00;  1.5685965E-01;  2.7315885E+04;
  8.8073289E-01;  9.9999998E-03; -3.0088487E-01;2393;  1.4222752E-01;  0.0000000E+00; -4.7041912E-02;  1.0155579E+03;  4.1127306E-01;  1.2874505E+04;3;  4.0062252E+01;  0.0000000E+00;  3.5378654E+01;0;  2.6537733E+00;  9.8040234E+03;  0.0000000E+00;  4.6951706E-03;  1.0000000E+04;  0.0000000E+00;  9.9506826E+03;  2.3620203E+00;  0.0000000E+00;  2.9175299E-01;  2.2799008E+04;
  8.8084745E-01;  9.9999998E-03; -2.8084525E-01;2394;  1.7486279E-01;  0.0000000E+00; -3.2439150E-02;  1.0155004E+03;  4.1127294E-01;  1.2826832E+04;3;  3.7559704E+01;  0.0000000E+00;  3.5463024E+01;0;  2.5120723E+00;  9.8004189E+03;  0.0000000E+00;  1.1952436E-02;  1.0000000E+04;  0.0000000E+00;  9.9532783E+03;  2.4479353E+00;  0.0000000E+00;  6.4136870E-02;  2.1807525E+04;
  8.8093728E-01;  9.9999998E-03; -2.6081946E-01;2395;  2.0547403E-01;  0.0000000E+00; -2.8865898E-02;  1.0152086E+03;  4.1127262E-01;  1.2585420E+04;3;  3.4857616E+01;  0.0000000E+00;  4.4818401E+01;0;  2.6072850E+00;  9.7970527E+03;  0.0000000E+00;  1.1124291E-02;  1.0000000E+04;  0.0000000E+00;  9.9510537E+03;  2.5384779E+00;  0.0000000E+00;  6.8807222E-02;  2.2901836E+04;
  8.8100445E-01;  9.9999998E-03; -2.4080306E-01;2396;  2.2834975E-01;  0.0000000E+00; -3.1341743E-02;  1.0149032E+03;  4.1127217E-01;  1.2332669E+04;3;  3.2068596E+01;  0.0000000E+00;  4.7464985E+01;0;  2.7262452E+00;  9.7944678E+03;  0.0000000E+00;  7.6650404E-03;  1.0000000E+04;  0.0000000E+00;  9.9477383E+03;  2.6240306E+00;  0.0000000E+00;  1.0221452E-01;  2.4485672E+04;
  8.8103634E-01;  9.9999998E-03; -2.2076263E-01;2397;  2.3976035E-01;  0.0000000E+00; -3.5993200E-02;  1.0147356E+03;  4.1127130E-01;  1.2193964E+04;3;  2.9253975E+01;  0.0000000E+00;  4.7190514E+01;0;  2.8216598E+00;  9.7932324E+03;  0.0000000E+00;  3.9335769E-03;  1.0000000E+04;  0.0000000E+00;  9.9457441E+03;  2.6946721E+00;  0.0000000E+00;  1.2698768E-01;  2.5435494E+04;
  8.8103217E-01;  9.9999998E-03; -2.0069288E-01;2398;  2.4147063E-01;  0.0000000E+00; -3.7642773E-02;  1.0146262E+03;  4.1127101E-01;  1.2103505E+04;3;  2.6897478E+01;  0.0000000E+00;  4.2612152E+01;0;  2.8941104E+00;  9.7936592E+03;  0.0000000E+00;  1.3408194E-03;  1.0000000E+04;  0.0000000E+00;  9.9431797E+03;  2.7425594E+00;  0.0000000E+00;  1.5155107E-01;  2.6678113E+04;
  9.0092182E-01;  9.9999998E-03; -3.0085409E-01;2424;  1.8332490E-01;  0.0000000E+00; -4.8452392E-02;  1.0148225E+03;  4.1055855E-01;  1.2260935E+04;3;  5.0501709E+01;  0.0000000E+00;  3.1468958E+01;0;  2.4867384E+00;  9.8216934E+03;  0.0000000E+00;  1.5139844E-02;  1.0000000E+04;  0.0000000E+00;  9.9530361E+03;  2.2384562E+00;  0.0000000E+00;  2.4828219E-01;  2.1623480E+04;
  9.0105802E-01;  9.9999998E-03; -2.8081739E-01;2425;  2.2439241E-01;  0.0000000E+00; -3.6724497E-02;  1.0148278E+03;  4.1055772E-01;  1.2265234E+04;3;  4.8009850E+01;  0.0000000E+00;  3.1972752E+01;0;  2.3645568E+00;  9.8200947E+03;  0.0000000E+00;  2.0250976E-02;  1.0000000E+04;  0.0000000E+00;  9.9548877E+03;  2.3001671E+00;  0.0000000E+00;  6.4389646E-02;  2.0952273E+04;
  9.0116560E-01;  9.9999998E-03; -2.6079109E-01;2426;  2.6253164E-01;  0.0000000E+00; -3.3864420E-02;  1.0146675E+03;  4.1055694E-01;  1.2132676E+04;3;  4.5034439E+01;  0.0000000E+00;  3.9975563E+01;0;  2.4282765E+00;  9.8190293E+03;  0.0000000E+00;  1.6816067E-02;  1.0000000E+04;  0.0000000E+00;  9.9529238E+03;  2.3627586E+00;  0.0000000E+00;  6.5517910E-02;  2.1927668E+04;
  9.0124333E-01;  9.9999998E-03; -2.4077219E-01;2427;  2.8989431E-01;  0.0000000E+00; -3.5699818E-02;  1.0145002E+03;  4.1055581E-01;  1.1994209E+04;3;  4.1779850E+01;  0.0000000E+00;  4.2249912E+01;0;  2.5110996E+00;  9.8189502E+03;  0.0000000E+00;  1.1206689E-02;  1.0000000E+04;  0.0000000E+00;  9.9498018E+03;  2.4182320E+00;  0.0000000E+00;  9.2867568E-02;  2.3426115E+04;
  9.0128326E-01;  9.9999998E-03; -2.2073334E-01;2428;  3.0510488E-01;  0.0000000E+00; -3.9650481E-02;  1.0144521E+03;  4.1055471E-01;  1.1954458E+04;3;  3.8648937E+01;  0.0000000E+00;  4.2802559E+01;0;  2.5784369E+00;  9.8202051E+03;  0.0000000E+00;  5.4663043E-03;  1.0000000E+04;  0.0000000E+00;  9.9476484E+03;  2.4588647E+00;  0.0000000E+00;  1.1957208E-01;  2.4460596E+04;
  9.0127861E-01;  9.9999998E-03; -2.0067105E-01;2429;  3.0792066E-01;  0.0000000E+00; -4.2024143E-02;  1.0144517E+03;  4.1055423E-01;  1.1954065E+04;3;  3.6325630E+01;  0.0000000E+00;  3.9391212E+01;0;  2.6279650E+00;  9.8228613E+03;  0.0000000E+00;  1.6386637E-03;  1.0000000E+04;  0.0000000E+00;  9.9449551E+03;  2.4792857E+00;  0.0000000E+00;  1.4867921E-01;  2.5760934E+04;
  9.2108226E-01;  9.9999998E-03; -3.0081922E-01;2455;  2.1970779E-01;  0.0000000E+00; -5.0770693E-02;  1.0140802E+03;  4.0973914E-01;  1.1640486E+04;3;  5.9743931E+01;  0.0000000E+00;  2.7055950E+01;0;  2.2635658E+00;  9.8445889E+03;  0.0000000E+00;  2.3179999E-02;  1.0000000E+04;  0.0000000E+00;  9.9551250E+03;  2.0452046E+00;  0.0000000E+00;  2.1836114E-01;  2.0551150E+04;
  9.2123115E-01;  9.9999998E-03; -2.8078616E-01;2456;  2.6724228E-01;  0.0000000E+00; -4.2235799E-02;  1.0141697E+03;  4.0973783E-01;  1.1714445E+04;3;  5.7495159E+01;  0.0000000E+00;  2.7744381E+01;0;  2.1534693E+00;  9.8453721E+03;  0.0000000E+00;  2.6957959E-02;  1.0000000E+04;  0.0000000E+00;  9.9562539E+03;  2.0746088E+00;  0.0000000E+00;  7.8860573E-02;  2.0191475E+04;
  9.2135024E-01;  9.9999998E-03; -2.6075676E-01;2457;  3.0963528E-01;  0.0000000E+00; -3.8672496E-02;  1.0141917E+03;  4.0973619E-01;  1.1732634E+04;3;  5.3537304E+01;  0.0000000E+00;  3.5237061E+01;0;  2.1642599E+00;  9.8470391E+03;  0.0000000E+00;  2.0981519E-02;  1.0000000E+04;  0.0000000E+00;  9.9551416E+03;  2.1000965E+00;  0.0000000E+00;  6.4163543E-02;  2.0781348E+04;
  9.2143667E-01;  9.9999998E-03; -2.4073204E-01;2458;  3.4148335E-01;  0.0000000E+00; -3.8783561E-02;  1.0141934E+03;  4.0973476E-01;  1.1733980E+04;3;  4.9785126E+01;  0.0000000E+00;  3.8019077E+01;0;  2.2020488E+00;  9.8498896E+03;  0.0000000E+00;  1.3238864E-02;  1.0000000E+04;  0.0000000E+00;  9.9524072E+03;  2.1161811E+00;  0.0000000E+00;  8.5867688E-02;  2.2098740E+04;
  9.2148489E-01;  9.9999998E-03; -2.2069138E-01;2459;  3.6076558E-01;  0.0000000E+00; -4.1882437E-02;  1.0142804E+03;  4.0973336E-01;  1.1805906E+04;3;  4.7273479E+01;  0.0000000E+00;  3.8117138E+01;0;  2.2347934E+00;  9.8539541E+03;  0.0000000E+00;  5.9848018E-03;  1.0000000E+04;  0.0000000E+00;  9.9500762E+03;  2.1185005E+00;  0.0000000E+00;  1.1629295E-01;  2.3219674E+04;
  9.2147911E-01;  9.9999998E-03; -2.0063871E-01;2460;  3.6590269E-01;  0.0000000E+00; -4.4377055E-02;  1.0143876E+03;  4.0973258E-01;  1.1894507E+04;3;  4.5606129E+01;  0.0000000E+00;  3.5651112E+01;0;  2.2563028E+00;  9.8589609E+03;  0.0000000E+00;  1.5039225E-03;  1.0000000E+04;  0.0000000E+00;  9.9471514E+03;  2.1059065E+00;  0.0000000E+00;  1.5039623E-01;  2.4628000E+04;
  9.4121057E-01;  9.9999998E-03; -3.0078098E-01;2486;  2.5261387E-01;  0.0000000E+00; -5.3673979E-02;  1.0132499E+03;  4.0885463E-01;  1.0945926E+04;3;  6.9401596E+01;  0.0000000E+00;  2.1492008E+01;0;  2.0171535E+00;  9.8690615E+03;  0.0000000E+00;  2.5628213E-02;  1.0000000E+04;  0.0000000E+00;  9.9571455E+03;  1.8224306E+00;  0.0000000E+00;  1.9472286E-01;  1.9471664E+04;
  9.4136286E-01;  9.9999998E-03; -2.8075159E-01;2487;  3.0232322E-01;  0.0000000E+00; -4.7691707E-02;  1.0134414E+03;  4.0885279E-01;  1.1104111E+04;3;  6.6114464E+01;  0.0000000E+00;  2.3550159E+01;0;  1.9056504E+00;  9.8724863E+03;  0.0000000E+00;  3.0502770E-02;  1.0000000E+04;  0.0000000E+00;  9.9576494E+03;  1.8133075E+00;  0.0000000E+00;  9.2342891E-02;  1.9389238E+04;
  9.4148910E-01;  9.9999998E-03; -2.6071933E-01;2488;  3.4743908E-01;  0.0000000E+00; -4.4774011E-02;  1.0136594E+03;  4.0885094E-01;  1.1284170E+04;3;  6.1266548E+01;  0.0000000E+00;  2.9852987E+01;0;  1.8705760E+00;  9.8771396E+03;  0.0000000E+00;  2.1935703E-02;  1.0000000E+04;  0.0000000E+00;  9.9574150E+03;  1.7946198E+00;  0.0000000E+00;  7.5956248E-02;  1.9568043E+04;
  9.4158155E-01;  9.9999998E-03; -2.4068546E-01;2489;  3.8426280E-01;  0.0000000E+00; -4.2217299E-02;  1.0138567E+03;  4.0884903E-01;  1.1447010E+04;3;  5.8071495E+01;  0.0000000E+00;  3.2829807E+01;0;  1.8486688E+00;  9.8830703E+03;  0.0000000E+00;  1.2559263E-02;  1.0000000E+04;  0.0000000E+00;  9.9554492E+03;  1.7641819E+00;  0.0000000E+00;  8.4487014E-02;  2.0539584E+04;
  9.4161111E-01;  9.9999998E-03; -2.2064963E-01;2490;  4.0388545E-01;  0.0000000E+00; -4.4364270E-02;  1.0140619E+03;  4.0884817E-01;  1.1616577E+04;3;  5.6234169E+01;  0.0000000E+00;  3.3437962E+01;0;  1.8422229E+00;  9.8899336E+03;  0.0000000E+00;  5.1638638E-03;  1.0000000E+04;  0.0000000E+00;  9.9526348E+03;  1.7229265E+00;  0.0000000E+00;  1.1929637E-01;  2.1889453E+04;
  9.4157904E-01;  9.9999998E-03; -2.0060371E-01;2491;  4.0641895E-01;  0.0000000E+00; -4.7048509E-02;  1.0142736E+03;  4.0884757E-01;  1.1791393E+04;3;  5.5770382E+01;  0.0000000E+00;  3.1301435E+01;0;  1.8322479E+00;  9.8970635E+03;  0.0000000E+00;  9.9717616E-04;  1.0000000E+04;  0.0000000E+00;  9.9496025E+03;  1.6746398E+00;  0.0000000E+00;  1.5760802E-01;  2.3339852E+04;
  9.6131676E-01;  9.9999998E-03; -3.0073935E-01;2517;  2.8441712E-01;  0.0000000E+00; -5.6505769E-02;  1.0122609E+03;  4.0794441E-01;  1.0118801E+04;3;  8.0560364E+01;  0.0000000E+00;  1.5597517E+01;0;  1.7739384E+00;  9.8915400E+03;  0.0000000E+00;  2.1753123E-02;  1.0000000E+04;  0.0000000E+00;  9.9594492E+03;  1.6024684E+00;  0.0000000E+00;  1.7147003E-01;  1.8207215E+04;
  9.6146756E-01;  9.9999998E-03; -2.8071335E-01;2518;  3.3447853E-01;  0.0000000E+00; -5.2094486E-02;  1.0125555E+03;  4.0794227E-01;  1.0361813E+04;3;  7.5510033E+01;  0.0000000E+00;  1.9852203E+01;0;  1.6513784E+00;  9.8975879E+03;  0.0000000E+00;  4.2815506E-02;  1.0000000E+04;  0.0000000E+00;  9.9593662E+03;  1.5533684E+00;  0.0000000E+00;  9.8009989E-02;  1.8388219E+04;
  9.6159470E-01;  9.9999998E-03; -2.6067883E-01;2519;  3.8037732E-01;  0.0000000E+00; -5.0771970E-02;  1.0129631E+03;  4.0794015E-01;  1.0698198E+04;3;  6.9308662E+01;  0.0000000E+00;  2.4221985E+01;0;  1.5781322E+00;  9.9051436E+03;  0.0000000E+00;  2.9836131E-02;  1.0000000E+04;  0.0000000E+00;  9.9599785E+03;  1.4886296E+00;  0.0000000E+00;  8.9502618E-02;  1.8172262E+04;
  9.6166956E-01;  9.9999998E-03; -2.4064556E-01;2520;  4.1751769E-01;  0.0000000E+00; -4.7163393E-02;  1.0133082E+03;  4.0793851E-01;  1.0982962E+04;3;  6.6772392E+01;  0.0000000E+00;  2.7651615E+01;0;  1.5024418E+00;  9.9139063E+03;  0.0000000E+00;  1.3971846E-02;  1.0000000E+04;  0.0000000E+00;  9.9580791E+03;  1.4108142E+00;  0.0000000E+00;  9.1627628E-02;  1.9125842E+04;
  9.6166217E-01;  9.9999998E-03; -2.2061768E-01;2521;  4.3187606E-01;  0.0000000E+00; -4.9553964E-02;  1.0136245E+03;  4.0793791E-01;  1.1243870E+04;3;  6.6007294E+01;  0.0000000E+00;  2.9036007E+01;0;  1.4565846E+00;  9.9231162E+03;  0.0000000E+00;  4.0125772E-03;  1.0000000E+04;  0.0000000E+00;  9.9550723E+03;  1.3270878E+00;  0.0000000E+00;  1.2949678E-01;  2.0559424E+04;
  9.6161640E-01;  9.9999998E-03; -2.0056985E-01;2522;  4.3147215E-01;  0.0000000E+00; -5.1271934E-02;  1.0139289E+03;  4.0793756E-01;  1.1495165E+04;3;  6.6375015E+01;  0.0000000E+00;  2.6320539E+01;0;  1.4139339E+00;  9.9318828E+03;  0.0000000E+00;  4.6936184E-04;  1.0000000E+04;  0.0000000E+00;  9.9522510E+03;  1.2451673E+00;  0.0000000E+00;  1.6876662E-01;  2.1902717E+04;
  9.8141605E-01;  9.9999998E-03; -3.0069458E-01;2548;  3.1673032E-01;  0.0000000E+00; -5.9221163E-02;  1.0111216E+03;  4.0704322E-01;  9.1662031E+03;3;  9.2975052E+01;  0.0000000E+00;  1.0480303E+01;0;  1.5524540E+00;  9.9102441E+03;  0.0000000E+00;  1.3085844E-02;  1.0000000E+04;  0.0000000E+00;  9.9622715E+03;  1.3969526E+00;  0.0000000E+00;  1.5550140E-01;  1.6635078E+04;
  9.8156035E-01;  9.9999998E-03; -2.8067082E-01;2549;  3.6603415E-01;  0.0000000E+00; -5.5957042E-02;  1.0115114E+03;  4.0704095E-01;  9.4873721E+03;3;  8.6229675E+01;  0.0000000E+00;  1.5316950E+01;0;  1.4133511E+00;  9.9184639E+03;  0.0000000E+00;  8.9333020E-02;  1.0000000E+04;  0.0000000E+00;  9.9619053E+03;  1.3136076E+00;  0.0000000E+00;  9.9743493E-02;  1.6945826E+04;
  9.8167479E-01;  9.9999998E-03; -2.6063609E-01;2550;  4.1046610E-01;  0.0000000E+00; -5.5404842E-02;  1.0120556E+03;  4.0703905E-01;  9.9357891E+03;3;  7.8489517E+01;  0.0000000E+00;  1.8865326E+01;0;  1.3047963E+00;  9.9283936E+03;  0.0000000E+00;  6.7381836E-02;  1.0000000E+04;  0.0000000E+00;  9.9628447E+03;  1.2088811E+00;  0.0000000E+00;  9.5915206E-02;  1.6593484E+04;
  9.8171061E-01;  9.9999998E-03; -2.4061330E-01;2551;  4.4080365E-01;  0.0000000E+00; -5.4026168E-02;  1.0124760E+03;  4.0703803E-01;  1.0282182E+04;3;  7.5432159E+01;  0.0000000E+00;  2.2458139E+01;0;  1.1981857E+00;  9.9393281E+03;  0.0000000E+00;  3.3559158E-02;  1.0000000E+04;  0.0000000E+00;  9.9602324E+03;  1.0909350E+00;  0.0000000E+00;  1.0725074E-01;  1.7863576E+04;
  9.8167920E-01;  9.9999998E-03; -2.2058704E-01;2552;  4.4707882E-01;  0.0000000E+00; -5.7460122E-02;  1.0128959E+03;  4.0703759E-01;  1.0628333E+04;3;  7.3574883E+01;  0.0000000E+00;  2.3381128E+01;0;  1.1164896E+00;  9.9501611E+03;  0.0000000E+00;  8.6800158E-03;  1.0000000E+04;  0.0000000E+00;  9.9576494E+03;  9.7243792E-01;  0.0000000E+00;  1.4405167E-01;  1.9090197E+04;
  9.8162442E-01;  9.9999998E-03; -2.0053706E-01;2553;  4.4314718E-01;  0.0000000E+00; -5.6598645E-02;  1.0132639E+03;  4.0703726E-01;  1.0931671E+04;3;  7.3572151E+01;  0.0000000E+00;  2.0055210E+01;0;  1.0453336E+00;  9.9599219E+03;  0.0000000E+00;  4.5197626E-04;  1.0000000E+04;  0.0000000E+00;  9.9550986E+03;  8.6477822E-01;  0.0000000E+00;  1.8055542E-01;  2.0293693E+04;
  1.0015198E+00;  9.9999998E-03; -3.0064705E-01;2579;  3.5008049E-01;  0.0000000E+00; -6.1675057E-02;  1.0099217E+03;  4.0618035E-01;  8.1624077E+03;3;  1.0674368E+02;  0.0000000E+00;  5.5288544E+00;0;  1.3501097E+00;  9.9253613E+03;  0.0000000E+00; -1.5198475E-02;  1.0000000E+04;  0.0000000E+00;  9.9657490E+03;  1.2010063E+00;  0.0000000E+00;  1.4910342E-01;  1.4701225E+04;
  1.0016466E+00;  9.9999998E-03; -2.8062424E-01;2580;  3.9714238E-01;  0.0000000E+00; -5.9050243E-02;  1.0103736E+03;  4.0617847E-01;  8.5340840E+03;3;  9.7920654E+01;  0.0000000E+00;  1.0451987E+01;0;  1.1983918E+00;  9.9349072E+03;  0.0000000E+00;  1.6417484E-01;  1.0000000E+04;  0.0000000E+00;  9.9652803E+03;  1.0965465E+00;  0.0000000E+00;  1.0184526E-01;  1.5072715E+04;
  1.0017312E+00;  9.9999998E-03; -2.6059276E-01;2581;  4.3766558E-01;  0.0000000E+00; -5.9000719E-02;  1.0109687E+03;  4.0617681E-01;  9.0235723E+03;3;  8.8908905E+01;  0.0000000E+00;  1.4138764E+01;0;  1.0655121E+00;  9.9463730E+03;  0.0000000E+00;  1.2943415E-01;  1.0000000E+04;  0.0000000E+00;  9.9656670E+03;  9.6477312E-01;  0.0000000E+00;  1.0073893E-01;  1.4988192E+04;
  1.0017267E+00;  9.9999998E-03; -2.4057868E-01;2582;  4.5407918E-01;  0.0000000E+00; -6.0763281E-02;  1.0114296E+03;  4.0617618E-01;  9.4027119E+03;3;  8.2404510E+01;  0.0000000E+00;  1.7076914E+01;0;  9.4358891E-01;  9.9586172E+03;  0.0000000E+00;  6.8308964E-02;  1.0000000E+04;  0.0000000E+00;  9.9625176E+03;  8.1902641E-01;  0.0000000E+00;  1.2456251E-01;  1.6464322E+04;
  1.0016804E+00;  9.9999998E-03; -2.2055101E-01;2583;  4.5494556E-01;  0.0000000E+00; -6.3316919E-02;  1.0119125E+03;  4.0617603E-01;  9.8001387E+03;3;  7.8587379E+01;  0.0000000E+00;  1.7442039E+01;0;  8.3441234E-01;  9.9701836E+03;  0.0000000E+00;  1.4639000E-02;  1.0000000E+04;  0.0000000E+00;  9.9604590E+03;  6.7923939E-01;  0.0000000E+00;  1.5517296E-01;  1.7440111E+04;
  1.0016199E+00;  9.9999998E-03; -2.0050457E-01;2584;  4.4860899E-01;  0.0000000E+00; -6.0063429E-02;  1.0123038E+03;  4.0617594E-01;  1.0122068E+04;3;  7.8340866E+01;  0.0000000E+00;  1.4694553E+01;0;  7.4702108E-01;  9.9801895E+03;  0.0000000E+00; -2.1448312E-03;  1.0000000E+04;  0.0000000E+00;  9.9581377E+03;  5.5809474E-01;  0.0000000E+00;  1.8892631E-01;  1.8524014E+04;
  1.0216364E+00;  9.9999998E-03; -3.0059776E-01;2610;  3.8488710E-01;  0.0000000E+00; -6.3521340E-02;  1.0087674E+03;  4.0537849E-01;  7.1952202E+03;3;  1.2234690E+02;  0.0000000E+00;  7.5215942E-01;0;  1.1590612E+00;  9.9379229E+03;  0.0000000E+00; -7.0138007E-02;  1.0000000E+04;  0.0000000E+00;  9.9697998E+03;  1.0066855E+00;  0.0000000E+00;  1.5237567E-01;  1.2486628E+04;
  1.0217321E+00;  9.9999998E-03; -2.8057405E-01;2611;  4.2748374E-01;  0.0000000E+00; -6.0499568E-02;  1.0092472E+03;  4.0537730E-01;  7.5888960E+03;3;  1.1035841E+02;  0.0000000E+00;  5.3895488E+00;0;  9.9751902E-01;  9.9479707E+03;  0.0000000E+00;  1.8484993E-01;  1.0000000E+04;  0.0000000E+00;  9.9693428E+03;  8.9828837E-01;  0.0000000E+00;  9.9230655E-02;  1.2866146E+04;
  1.0217650E+00;  9.9999998E-03; -2.6054952E-01;2612;  4.5652029E-01;  0.0000000E+00; -6.2198132E-02;  1.0098086E+03;  4.0537667E-01;  8.0495479E+03;3;  9.9044289E+01;  0.0000000E+00;  9.6962700E+00;0;  8.6586338E-01;  9.9602842E+03;  0.0000000E+00;  1.5592466E-01;  1.0000000E+04;  0.0000000E+00;  9.9681611E+03;  7.5251794E-01;  0.0000000E+00;  1.1334546E-01;  1.3473534E+04;
  1.0217328E+00;  9.9999998E-03; -2.4053870E-01;2613;  4.6243465E-01;  0.0000000E+00; -6.4672276E-02;  1.0102839E+03;  4.0537640E-01;  8.4396396E+03;3;  8.8422958E+01;  0.0000000E+00;  1.1869329E+01;0;  7.2947919E-01;  9.9728906E+03;  0.0000000E+00;  6.6907041E-02;  1.0000000E+04;  0.0000000E+00;  9.9649307E+03;  5.9349555E-01;  0.0000000E+00;  1.3598363E-01;  1.4945418E+04;
  1.0216746E+00;  9.9999998E-03; -2.2051315E-01;2614;  4.5922583E-01;  0.0000000E+00; -6.5986291E-02;  1.0107731E+03;  4.0537620E-01;  8.8413096E+03;3;  8.2934242E+01;  0.0000000E+00;  1.2122636E+01;0;  6.0923392E-01;  9.9842295E+03;  0.0000000E+00; -1.4331193E-02;  1.0000000E+04;  0.0000000E+00;  9.9632275E+03;  4.4825259E-01;  0.0000000E+00;  1.6098133E-01;  1.5748209E+04;
  1.0216098E+00;  9.9999998E-03; -2.0047346E-01;2615;  4.5059639E-01;  0.0000000E+00; -6.1596576E-02;  1.0111537E+03;  4.0537637E-01;  9.1536738E+03;3;  8.1087494E+01;  0.0000000E+00;  1.1084617E+01;0;  5.1945448E-01;  9.9937256E+03;  0.0000000E+00; -2.7109124E-02;  1.0000000E+04;  0.0000000E+00;  9.9612266E+03;  3.2720852E-01;  0.0000000E+00;  1.9224599E-01;  1.6667398E+04;
  1.0417762E+00;  9.9999998E-03; -3.0054742E-01;2641;  4.2111346E-01;  0.0000000E+00; -6.5002650E-02;  1.0076864E+03;  4.0465412E-01;  6.2874688E+03;3;  1.3993431E+02;  0.0000000E+00; -3.9219308E+00;0;  9.9040532E-01;  9.9476875E+03;  0.0000000E+00; -3.2114327E-02;  1.0000000E+04;  0.0000000E+00;  9.9743789E+03;  8.2051200E-01;  0.0000000E+00;  1.6989332E-01;  1.0038634E+04;
  1.0418168E+00;  9.9999998E-03; -2.8052482E-01;2642;  4.5506531E-01;  0.0000000E+00; -6.0462568E-02;  1.0081785E+03;  4.0465370E-01;  6.6899531E+03;3;  1.2410489E+02;  0.0000000E+00;  1.6914023E+00;0;  8.1219000E-01;  9.9587217E+03;  0.0000000E+00; -7.3180478E-03;  1.0000000E+04;  0.0000000E+00;  9.9731123E+03;  7.1840626E-01;  0.0000000E+00;  9.3783729E-02;  1.0767656E+04;
  1.0417863E+00;  9.9999998E-03; -2.6050636E-01;2643;  4.6722358E-01;  0.0000000E+00; -6.2697083E-02;  1.0086981E+03;  4.0465370E-01;  7.1150513E+03;3;  1.0762076E+02;  0.0000000E+00;  5.7678914E+00;0;  6.8223786E-01;  9.9719121E+03;  0.0000000E+00;  2.8574413E-02;  1.0000000E+04;  0.0000000E+00;  9.9701641E+03;  5.6260884E-01;  0.0000000E+00;  1.1962903E-01;  1.2109705E+04;
  1.0417331E+00;  9.9999998E-03; -2.4049526E-01;2644;  4.6657082E-01;  0.0000000E+00; -6.4559683E-02;  1.0091548E+03;  4.0465391E-01;  7.4886987E+03;3;  9.3437263E+01;  0.0000000E+00;  7.5811496E+00;0;  5.4480225E-01;  9.9839727E+03;  0.0000000E+00; -6.7506760E-02;  1.0000000E+04;  0.0000000E+00;  9.9671143E+03;  4.0507728E-01;  0.0000000E+00;  1.3972498E-01;  1.3478530E+04;
  1.0416665E+00;  9.9999998E-03; -2.2047313E-01;2645;  4.6045125E-01;  0.0000000E+00; -6.5047078E-02;  1.0096017E+03;  4.0465397E-01;  7.8543770E+03;3;  8.5957405E+01;  0.0000000E+00;  8.4112425E+00;0;  4.3104506E-01;  9.9941592E+03;  0.0000000E+00; -1.4555642E-01;  1.0000000E+04;  0.0000000E+00;  9.9657305E+03;  2.6907849E-01;  0.0000000E+00;  1.6196655E-01;  1.4138662E+04;
  1.0415963E+00;  9.9999998E-03; -2.0043865E-01;2646;  4.5070270E-01;  0.0000000E+00; -6.0902022E-02;  1.0099440E+03;  4.0465412E-01;  8.1345483E+03;3;  8.2829742E+01;  0.0000000E+00;  8.4951982E+00;0;  3.5053355E-01;  1.0002426E+04;  0.0000000E+00; -1.1313206E-01;  1.0000000E+04;  0.0000000E+00;  9.9642139E+03;  1.6018321E-01;  0.0000000E+00;  1.9035034E-01;  1.4814785E+04;
  1.0619117E+00;  9.9999998E-03; -3.0050045E-01;2672;  4.5724055E-01;  0.0000000E+00; -6.0946267E-02;  1.0065604E+03;  4.0401730E-01;  5.3429453E+03;3;  1.6083777E+02;  0.0000000E+00; -5.9344168E+00;0;  7.9088140E-01;  9.9529141E+03;  0.0000000E+00;  4.9826247E-01;  1.0000000E+04;  0.0000000E+00;  9.9783555E+03;  6.7868340E-01;  0.0000000E+00;  1.1219797E-01;  8.2760840E+03;
  1.0618722E+00;  9.9999998E-03; -2.8048226E-01;2673;  4.7052234E-01;  0.0000000E+00; -5.8645792E-02;  1.0071656E+03;  4.0401730E-01;  5.8359185E+03;3;  1.3773466E+02;  0.0000000E+00; -1.3843833E-01;0;  6.3336569E-01;  9.9683213E+03;  0.0000000E+00; -4.1668174E-01;  1.0000000E+04;  0.0000000E+00;  9.9748613E+03;  5.4745388E-01;  0.0000000E+00;  8.5911833E-02;  9.7332852E+03;
  1.0618050E+00;  9.9999998E-03; -2.6046365E-01;2674;  4.7230572E-01;  0.0000000E+00; -6.0255215E-02;  1.0077095E+03;  4.0401748E-01;  6.2790405E+03;3;  1.1477949E+02;  0.0000000E+00;  2.6958518E+00;0;  5.0692856E-01;  9.9823076E+03;  0.0000000E+00; -3.9187881E-01;  1.0000000E+04;  0.0000000E+00;  9.9715859E+03;  3.8939112E-01;  0.0000000E+00;  1.1753745E-01;  1.1106613E+04;
  1.0617317E+00;  9.9999998E-03; -2.4045199E-01;2675;  4.6794680E-01;  0.0000000E+00; -6.1557826E-02;  1.0081216E+03;  4.0401787E-01;  6.6148032E+03;3;  9.8242271E+01;  0.0000000E+00;  4.7366009E+00;0;  3.8595855E-01;  9.9932861E+03;  0.0000000E+00; -4.3240744E-01;  1.0000000E+04;  0.0000000E+00;  9.9687324E+03;  2.4576287E-01;  0.0000000E+00;  1.4019568E-01;  1.2345469E+04;
  1.0616580E+00;  9.9999998E-03; -2.2043218E-01;2676;  4.6042997E-01;  0.0000000E+00; -6.2052049E-02;  1.0084961E+03;  4.0401819E-01;  6.9198975E+03;3;  8.8585411E+01;  0.0000000E+00;  5.7584085E+00;0;  2.9122639E-01;  1.0001634E+04;  0.0000000E+00; -4.4937068E-01;  1.0000000E+04;  0.0000000E+00;  9.9677686E+03;  1.2988438E-01;  0.0000000E+00;  1.6134201E-01;  1.2800368E+04;
  1.0615815E+00;  9.9999998E-03; -2.0040235E-01;2677;  4.4992977E-01;  0.0000000E+00; -5.8660042E-02;  1.0087802E+03;  4.0401864E-01;  7.1515059E+03;3;  8.4476692E+01;  0.0000000E+00;  6.2639332E+00;0;  2.2596738E-01;  1.0008118E+04;  0.0000000E+00; -3.0855140E-01;  1.0000000E+04;  0.0000000E+00;  9.9668740E+03;  4.1042026E-02;  0.0000000E+00;  1.8492535E-01;  1.3118109E+04;
  1.0819647E+00;  9.9999998E-03; -3.0045739E-01;2703;  4.7075701E-01;  0.0000000E+00; -5.7182107E-02;  1.0055905E+03;  4.0347126E-01;  4.5267354E+03;3;  1.7844208E+02;  0.0000000E+00; -7.5035381E+00;0;  6.0432613E-01;  9.9580400E+03;  0.0000000E+00;  1.7478938E+00;  1.0000000E+04;  0.0000000E+00;  9.9809717E+03;  5.2258450E-01;  0.0000000E+00;  8.1741601E-02;  9.7086025E+03;
  1.0819017E+00;  9.9999998E-03; -2.8044125E-01;2704;  4.7660044E-01;  0.0000000E+00; -5.6330424E-02;  1.0062984E+03;  4.0347129E-01;  5.1001162E+03;3;  1.5002475E+02;  0.0000000E+00; -3.0719168E+00;0;  4.7458664E-01;  9.9767109E+03;  0.0000000E+00; -8.0637097E-01;  1.0000000E+04;  0.0000000E+00;  9.9762500E+03;  3.8580835E-01;  0.0000000E+00;  8.8778280E-02;  9.0842217E+03;
  1.0818135E+00;  9.9999998E-03; -2.6041988E-01;2705;  4.7282180E-01;  0.0000000E+00; -5.5937443E-02;  1.0069009E+03;  4.0347144E-01;  5.5881382E+03;3;  1.2337675E+02;  0.0000000E+00; -1.2318072E-01;0;  3.4286401E-01;  9.9916748E+03;  0.0000000E+00; -1.0608634E+00;  1.0000000E+04;  0.0000000E+00;  9.9731748E+03;  2.3217033E-01;  0.0000000E+00;  1.1069368E-01;  1.0673743E+04;
  1.0817288E+00;  9.9999998E-03; -2.4040696E-01;2706;  4.6731505E-01;  0.0000000E+00; -5.6551021E-02;  1.0072435E+03;  4.0347201E-01;  5.8657354E+03;3;  1.0422128E+02;  0.0000000E+00;  2.1070626E+00;0;  2.4903300E-01;  1.0001403E+04;  0.0000000E+00; -1.0522833E+00;  1.0000000E+04;  0.0000000E+00;  9.9702002E+03;  1.1142116E-01;  0.0000000E+00;  1.3761184E-01;  1.1762090E+04;
  1.0816498E+00;  9.9999998E-03; -2.2039118E-01;2707;  4.5962462E-01;  0.0000000E+00; -5.7476200E-02;  1.0075138E+03;  4.0347233E-01;  6.0847373E+03;3;  9.2348877E+01;  0.0000000E+00;  3.6254170E+00;0;  1.8137184E-01;  1.0007626E+04;  0.0000000E+00; -9.6518040E-01;  1.0000000E+04;  0.0000000E+00;  9.9693076E+03;  2.1163287E-02;  0.0000000E+00;  1.6020855E-01;  1.2000308E+04;
  1.0815669E+00;  9.9999998E-03; -2.0036390E-01;2708;  4.4856086E-01;  0.0000000E+00; -5.4855812E-02;  1.0077287E+03;  4.0347302E-01;  6.2589653E+03;3;  8.6651901E+01;  0.0000000E+00;  4.2631993E+00;0;  1.3319708E-01;  1.0012056E+04;  0.0000000E+00; -6.5807563E-01;  1.0000000E+04;  0.0000000E+00;  9.9691016E+03; -4.4581022E-02;  0.0000000E+00;  1.7777811E-01;  1.1759941E+04;
  1.1019064E+00;  9.9999998E-03; -2.8040236E-01;2734;  4.7686067E-01;  0.0000000E+00; -5.3454142E-02;  1.0055659E+03;  4.0301368E-01;  4.4726631E+03;3;  1.6393744E+02;  0.0000000E+00; -6.0635715E+00;0;  3.4278196E-01;  9.9832461E+03;  0.0000000E+00; -6.3306290E-01;  1.0000000E+04;  0.0000000E+00;  9.9778223E+03;  2.4388053E-01;  0.0000000E+00;  9.8901428E-02;  7.6526055E+03;
  1.1018112E+00;  9.9999998E-03; -2.6037675E-01;2735;  4.7064373E-01;  0.0000000E+00; -5.1719394E-02;  1.0062509E+03;  4.0301362E-01;  5.0233091E+03;3;  1.3416881E+02;  0.0000000E+00; -2.8412380E+00;0;  2.1104074E-01;  9.9992344E+03;  0.0000000E+00; -1.7048880E+00;  1.0000000E+04;  0.0000000E+00;  9.9753789E+03;  9.9604845E-02;  0.0000000E+00;  1.1143588E-01;  1.0495254E+04;
  1.1017237E+00;  9.9999998E-03; -2.4036035E-01;2736;  4.6485654E-01;  0.0000000E+00; -5.0433483E-02;  1.0065317E+03;  4.0301418E-01;  5.2492114E+03;3;  1.1206184E+02;  0.0000000E+00; -1.5571302E-01;0;  1.3323104E-01;  1.0007977E+04;  0.0000000E+00; -1.8277682E+00;  1.0000000E+04;  0.0000000E+00;  9.9721758E+03;  2.3810407E-03;  0.0000000E+00;  1.3085000E-01;  1.1724166E+04;
  1.1016411E+00;  9.9999998E-03; -2.2034763E-01;2737;  4.5776254E-01;  0.0000000E+00; -5.1459312E-02;  1.0066841E+03;  4.0301472E-01;  5.3719360E+03;3;  9.7809944E+01;  0.0000000E+00;  1.5574131E+00;0;  9.4322637E-02;  1.0012392E+04;  0.0000000E+00; -1.6738752E+00;  1.0000000E+04;  0.0000000E+00;  9.9707637E+03; -6.2692299E-02;  0.0000000E+00;  1.5701494E-01;  1.1833746E+04;
  1.1015539E+00;  9.9999998E-03; -2.0032533E-01;2738;  4.4674110E-01;  0.0000000E+00; -5.0095256E-02;  1.0068171E+03;  4.0301511E-01;  5.4789673E+03;3;  8.9824661E+01;  0.0000000E+00;  2.4983079E+00;0;  6.3906491E-02;  1.0014879E+04;  0.0000000E+00; -1.1922270E+00;  1.0000000E+04;  0.0000000E+00;  9.9708701E+03; -1.0684368E-01;  0.0000000E+00;  1.7075017E-01;  1.0967605E+04;
  1.1218901E+00;  9.9999998E-03; -2.8036758E-01;2763;  4.7263452E-01;  0.0000000E+00; -5.0194159E-02;  1.0049240E+03;  4.0263861E-01;  3.9174885E+03;3;  1.7876805E+02;  0.0000000E+00; -8.7410021E+00;0;  2.3878972E-01;  9.9873271E+03;  0.0000000E+00;  6.0568386E-01;  1.0000000E+04;  0.0000000E+00;  9.9795449E+03;  1.3059372E-01;  0.0000000E+00;  1.0819601E-01;  6.3881680E+03;
  1.1218045E+00;  9.9999998E-03; -2.6034093E-01;2764;  4.6725905E-01;  0.0000000E+00; -4.7762580E-02;  1.0056172E+03;  4.0263873E-01;  4.4691104E+03;3;  1.4752298E+02;  0.0000000E+00; -5.4266539E+00;0;  1.2216266E-01;  1.0003234E+04;  0.0000000E+00; -1.9665750E+00;  1.0000000E+04;  0.0000000E+00;  9.9773828E+03;  5.9158336E-03;  0.0000000E+00;  1.1624683E-01;  9.6337354E+03;
  1.1217158E+00;  9.9999998E-03; -2.4031709E-01;2765;  4.6073902E-01;  0.0000000E+00; -4.4658065E-02;  1.0059425E+03;  4.0263909E-01;  4.7281821E+03;3;  1.2253729E+02;  0.0000000E+00; -2.3835578E+00;0;  4.3904483E-02;  1.0012164E+04;  0.0000000E+00; -2.5445185E+00;  1.0000000E+04;  0.0000000E+00;  9.9748916E+03; -7.8317672E-02;  0.0000000E+00;  1.2222216E-01;  1.1661027E+04;
  1.1216321E+00;  9.9999998E-03; -2.2030450E-01;2766;  4.5443743E-01;  0.0000000E+00; -4.4790275E-02;  1.0060045E+03;  4.0263939E-01;  4.7778262E+03;3;  1.0525468E+02;  0.0000000E+00; -3.3600631E-01;0;  2.4825953E-02;  1.0015716E+04;  0.0000000E+00; -2.4967339E+00;  1.0000000E+04;  0.0000000E+00;  9.9725449E+03; -1.2484837E-01;  0.0000000E+00;  1.4967433E-01;  1.2069926E+04;
  1.1215427E+00;  9.9999998E-03; -2.0028637E-01;2767;  4.4445392E-01;  0.0000000E+00; -4.4563979E-02;  1.0060564E+03;  4.0263987E-01;  4.8193335E+03;3;  9.4529358E+01;  0.0000000E+00;  7.7720881E-01;0;  1.1722788E-02;  1.0016861E+04;  0.0000000E+00; -1.9234823E+00;  1.0000000E+04;  0.0000000E+00;  9.9723984E+03; -1.5230668E-01;  0.0000000E+00;  1.6402946E-01;  1.0843277E+04;
  1.1417935E+00;  9.9999998E-03; -2.6031482E-01;2792;  4.6329385E-01;  0.0000000E+00; -4.4070050E-02;  1.0048850E+03;  4.0233818E-01;  3.8363413E+03;3;  1.6373219E+02;  0.0000000E+00; -7.5227118E+00;0;  8.2090549E-02;  1.0002508E+04;  0.0000000E+00; -1.2490387E+00;  1.0000000E+04;  0.0000000E+00;  9.9784600E+03; -3.9006114E-02;  0.0000000E+00;  1.2109666E-01;  6.9678110E+03;
  1.1417071E+00;  9.9999998E-03; -2.4028528E-01;2793;  4.5633522E-01;  0.0000000E+00; -4.0136021E-02;  1.0053514E+03;  4.0233815E-01;  4.2029424E+03;3;  1.3596194E+02;  0.0000000E+00; -4.4050174E+00;0; -6.8082511E-03;  1.0012903E+04;  0.0000000E+00; -2.8986516E+00;  1.0000000E+04;  0.0000000E+00;  9.9773281E+03; -1.2430388E-01;  0.0000000E+00;  1.1749563E-01;  1.0754752E+04;
  1.1416245E+00;  9.9999998E-03; -2.2026752E-01;2794;  4.4973519E-01;  0.0000000E+00; -3.8016949E-02;  1.0054313E+03;  4.0233859E-01;  4.2659307E+03;3;  1.1496516E+02;  0.0000000E+00; -1.7988777E+00;0; -3.1968862E-02;  1.0017066E+04;  0.0000000E+00; -3.2830756E+00;  1.0000000E+04;  0.0000000E+00;  9.9747314E+03; -1.6679931E-01;  0.0000000E+00;  1.3483045E-01;  1.2137356E+04;
  1.1415347E+00;  9.9999998E-03; -2.0025139E-01;2795;  4.4142675E-01;  0.0000000E+00; -3.8608391E-02;  1.0054350E+03;  4.0233901E-01;  4.2691147E+03;3;  1.0127610E+02;  0.0000000E+00; -5.9718913E-01;0; -2.8597519E-02;  1.0017999E+04;  0.0000000E+00; -2.8212564E+00;  1.0000000E+04;  0.0000000E+00;  9.9738496E+03; -1.8482411E-01;  0.0000000E+00;  1.5622659E-01;  1.1209887E+04;
  1.1617695E+00;  9.9999998E-03; -2.6029381E-01;2819;  4.5677805E-01;  0.0000000E+00; -4.0682882E-02;  1.0041526E+03;  4.0210262E-01;  3.2071089E+03;3;  1.8120818E+02;  0.0000000E+00; -9.4463558E+00;0;  6.7760229E-02;  9.9987344E+03;  0.0000000E+00;  1.1236413E+00;  1.0000000E+04;  0.0000000E+00;  9.9793574E+03; -5.5462830E-02;  0.0000000E+00;  1.2322306E-01;  5.6588174E+03;
  1.1617005E+00;  9.9999998E-03; -2.4026713E-01;2820;  4.5195758E-01;  0.0000000E+00; -3.6560681E-02;  1.0046077E+03;  4.0210259E-01;  3.5588567E+03;3;  1.5260497E+02;  0.0000000E+00; -6.1166759E+00;0; -1.4883086E-02;  1.0008965E+04;  0.0000000E+00; -2.3851242E+00;  1.0000000E+04;  0.0000000E+00;  9.9781865E+03; -1.2975852E-01;  0.0000000E+00;  1.1487544E-01;  8.1503779E+03;
  1.1616182E+00;  9.9999998E-03; -2.2024032E-01;2821;  4.4453326E-01;  0.0000000E+00; -3.2354690E-02;  1.0048801E+03;  4.0210268E-01;  3.7695383E+03;3;  1.2814883E+02;  0.0000000E+00; -3.1953540E+00;0; -7.0249520E-02;  1.0015563E+04;  0.0000000E+00; -3.6963279E+00;  1.0000000E+04;  0.0000000E+00;  9.9770020E+03; -1.8585792E-01;  0.0000000E+00;  1.1560840E-01;  1.1137979E+04;
  1.1615316E+00;  9.9999998E-03; -2.0022364E-01;2822;  4.3735451E-01;  0.0000000E+00; -3.2405663E-02;  1.0049048E+03;  4.0210304E-01;  3.7889998E+03;3;  1.1080721E+02;  0.0000000E+00; -1.5415449E+00;0; -6.0978755E-02;  1.0017718E+04;  0.0000000E+00; -3.7336252E+00;  1.0000000E+04;  0.0000000E+00;  9.9753203E+03; -2.0458975E-01;  0.0000000E+00;  1.4361100E-01;  1.1439235E+04;
  1.1816845E+00;  9.9999998E-03; -2.4025676E-01;2846;  4.4627437E-01;  0.0000000E+00; -3.4249883E-02;  1.0037792E+03;  4.0192166E-01;  2.8578679E+03;3;  1.7144267E+02;  0.0000000E+00; -7.8042989E+00;0;  1.9125432E-02;  1.0001785E+04;  0.0000000E+00; -2.2942634E-02;  1.0000000E+04;  0.0000000E+00;  9.9778545E+03; -1.0435652E-01;  0.0000000E+00;  1.2348195E-01;  4.5523618E+03;
  1.1816131E+00;  9.9999998E-03; -2.2022781E-01;2847;  4.3939602E-01;  0.0000000E+00; -2.9118856E-02;  1.0041881E+03;  4.0192169E-01;  3.1673418E+03;3;  1.4501933E+02;  0.0000000E+00; -4.5458536E+00;0; -6.5041393E-02;  1.0009941E+04;  0.0000000E+00; -3.1079381E+00;  1.0000000E+04;  0.0000000E+00;  9.9778438E+03; -1.7212510E-01;  0.0000000E+00;  1.0708371E-01;  8.2643115E+03;
  1.1815326E+00;  9.9999998E-03; -2.0020655E-01;2848;  4.3256482E-01;  0.0000000E+00; -2.6962893E-02;  1.0043541E+03;  4.0192184E-01;  3.2932415E+03;3;  1.2404932E+02;  0.0000000E+00; -2.2576530E+00;0; -7.9321340E-02;  1.0014594E+04;  0.0000000E+00; -4.2511854E+00;  1.0000000E+04;  0.0000000E+00;  9.9764932E+03; -2.0487376E-01;  0.0000000E+00;  1.2555242E-01;  1.0571151E+04;
  1.2015988E+00;  9.9999998E-03; -2.2022352E-01;2871;  4.3302616E-01;  0.0000000E+00; -2.7736973E-02;  1.0033914E+03;  4.0178573E-01;  2.4983682E+03;3;  1.6456976E+02;  0.0000000E+00; -6.0337062E+00;0; -1.4924854E-02;  1.0001313E+04;  0.0000000E+00; -4.5098189E-01;  1.0000000E+04;  0.0000000E+00;  9.9773652E+03; -1.3094717E-01;  0.0000000E+00;  1.1602232E-01;  4.0342256E+03;
  1.2015340E+00;  9.9999998E-03; -2.0020139E-01;2872;  4.2723975E-01;  0.0000000E+00; -2.4083311E-02;  1.0036306E+03;  4.0178561E-01;  2.6747844E+03;3;  1.4153951E+02;  0.0000000E+00; -3.4272585E+00;0; -5.4202400E-02;  1.0006922E+04;  0.0000000E+00; -3.5466440E+00;  1.0000000E+04;  0.0000000E+00;  9.9765244E+03; -1.7145766E-01;  0.0000000E+00;  1.1725526E-01;  7.6645981E+03;
  1.2215465E+00;  9.9999998E-03; -2.2020949E-01;2894;  4.1937456E-01;  0.0000000E+00; -2.6626319E-02;  1.0031508E+03;  4.0168521E-01;  2.2483901E+03;3;  1.8386398E+02;  0.0000000E+00; -8.4145174E+00;0; -2.7761772E-02;  9.9995986E+03;  0.0000000E+00;  3.9641945E+00;  1.0000000E+04;  0.0000000E+00;  9.9792676E+03; -1.5863752E-01;  0.0000000E+00;  1.3087575E-01;  6.5236577E+03;
  1.2215183E+00;  9.9999998E-03; -2.0020051E-01;2895;  4.1953072E-01;  0.0000000E+00; -2.3284698E-02;  1.0028967E+03;  4.0168551E-01;  2.0672085E+03;3;  1.6207466E+02;  0.0000000E+00; -4.8695693E+00;0;  3.5218969E-03;  9.9979229E+03;  0.0000000E+00; -4.8222426E-01;  1.0000000E+04;  0.0000000E+00;  9.9758857E+03; -1.2382702E-01;  0.0000000E+00;  1.2734891E-01;  3.5330459E+03;
 -1.7932431E-05;  9.9999998E-03; -1.8000221E-01;1036; -8.3120288E-03;  0.0000000E+00; -1.1253619E-03;  1.0003615E+03;  4.0000001E-01;  2.9954703E+02;3; -4.3719997E+00;  0.0000000E+00; -6.5034056E-01;0; -1.5637015E-01;  1.0007505E+04;  0.0000000E+00; -2.0362073E-07;  1.0000000E+04;  0.0000000E+00;  9.9997266E+03; -1.6179533E-01;  0.0000000E+00;  5.4251803E-03;  1.5802615E+02;
 -1.8483523E-05;  9.9999998E-03; -1.6000178E-01;1037; -8.5998140E-03;  0.0000000E+00; -9.4005541E-04;  1.0003742E+03;  4.0000001E-01;  3.1001587E+02;3; -4.5402336E+00;  0.0000000E+00; -5.6054544E-01;0; -1.6224276E-01;  1.0007764E+04;  0.0000000E+00; -1.8134642E-07;  1.0000000E+04;  0.0000000E+00;  9.9997266E+03; -1.6789924E-01;  0.0000000E+00;  5.6564822E-03;  1.5942427E+02;
 -1.8824005E-05;  9.9999998E-03; -1.4000142E-01;1038; -8.7912800E-03;  0.0000000E+00; -7.7329820E-04;  1.0003829E+03;  4.0000001E-01;  3.1722556E+02;3; -4.6627026E+00;  0.0000000E+00; -4.7617090E-01;0; -1.6654997E-01;  1.0007920E+04;  0.0000000E+00; -9.8986533E-08;  1.0000000E+04;  0.0000000E+00;  9.9997422E+03; -1.7207223E-01;  0.0000000E+00;  5.5222618E-03;  1.5181912E+02;
 -1.9011586E-05;  9.9999998E-03; -1.2000110E-01;1039; -8.9101093E-03;  0.0000000E+00; -6.2718091E-04;  1.0003891E+03;  4.0000001E-01;  3.2236121E+02;3; -4.7474155E+00;  0.0000000E+00; -3.9870691E-01;0; -1.6958466E-01;  1.0008016E+04;  0.0000000E+00; -5.3915816E-08;  1.0000000E+04;  0.0000000E+00;  9.9997686E+03; -1.7480686E-01;  0.0000000E+00;  5.2221958E-03;  1.4016556E+02;
 -1.9099401E-05;  9.9999998E-03; -1.0000082E-01;1040; -8.9810528E-03;  0.0000000E+00; -4.9156166E-04;  1.0003928E+03;  4.0000001E-01;  3.2542285E+02;3; -4.8053894E+00;  0.0000000E+00; -3.2367879E-01;0; -1.7164476E-01;  1.0008064E+04;  0.0000000E+00; -3.1599125E-08;  1.0000000E+04;  0.0000000E+00;  9.9997930E+03; -1.7650886E-01;  0.0000000E+00;  4.8641013E-03;  1.2733459E+02;
 -1.9123221E-05;  9.9999998E-03; -8.0000602E-02;1041; -9.0186950E-03;  0.0000000E+00; -3.7229463E-04;  1.0003952E+03;  4.0000001E-01;  3.2739810E+02;3; -4.8438873E+00;  0.0000000E+00; -2.5229245E-01;0; -1.7299393E-01;  1.0008085E+04;  0.0000000E+00; -1.6822799E-08;  1.0000000E+04;  0.0000000E+00;  9.9998223E+03; -1.7750524E-01;  0.0000000E+00;  4.5113061E-03;  1.1511089E+02;
 -1.9113826E-05;  9.9999998E-03; -6.0000412E-02;1042; -9.0358648E-03;  0.0000000E+00; -2.6765582E-04;  1.0003966E+03;  4.0000001E-01;  3.2858325E+02;3; -4.8685246E+00;  0.0000000E+00; -1.8568668E-01;0; -1.7384106E-01;  1.0008091E+04;  0.0000000E+00; -6.8875625E-09;  1.0000000E+04;  0.0000000E+00;  9.9998428E+03; -1.7804599E-01;  0.0000000E+00;  4.2049238E-03;  1.0467141E+02;
 -1.9093095E-05;  9.9999998E-03; -4.0000256E-02;1043; -9.0424456E-03;  0.0000000E+00; -1.7188159E-04;  1.0003971E+03;  4.0000001E-01;  3.2897830E+02;3; -4.8834858E+00;  0.0000000E+00; -1.2195277E-01;0; -1.7434196E-01;  1.0008086E+04;  0.0000000E+00; -2.6690754E-09;  1.0000000E+04;  0.0000000E+00;  9.9998604E+03; -1.7831236E-01;  0.0000000E+00;  3.9703962E-03;  9.6761147E+01;
 -1.9075040E-05;  9.9999998E-03; -2.0000122E-02;1044; -9.0440242E-03;  0.0000000E+00; -8.3830178E-05;  1.0003974E+03;  4.0000001E-01;  3.2927460E+02;3; -4.8915730E+00;  0.0000000E+00; -5.9794083E-02;0; -1.7460206E-01;  1.0008081E+04;  0.0000000E+00; -1.3439340E-09;  1.0000000E+04;  0.0000000E+00;  9.9998682E+03; -1.7842567E-01;  0.0000000E+00;  3.8236121E-03;  9.1843330E+01;
  1.9974684E-02;  9.9999998E-03; -1.8000294E-01;1066; -1.1626136E-02;  0.0000000E+00; -1.4980240E-03;  1.0004219E+03;  4.0000001E-01;  3.4952094E+02;3; -5.2234154E+00;  0.0000000E+00; -7.5990033E-01;0; -1.8012951E-01;  1.0008797E+04;  0.0000000E+00;  1.3792802E-06;  1.0000000E+04;  0.0000000E+00;  9.9996484E+03; -1.8700421E-01;  0.0000000E+00;  6.8746884E-03;  2.0111285E+02;
  1.9973969E-02;  9.9999998E-03; -1.6000240E-01;1067; -1.2002796E-02;  0.0000000E+00; -1.2666507E-03;  1.0004355E+03;  4.0000001E-01;  3.6087863E+02;3; -5.4186668E+00;  0.0000000E+00; -6.6517389E-01;0; -1.8636152E-01;  1.0009070E+04;  0.0000000E+00;  7.1272888E-07;  1.0000000E+04;  0.0000000E+00;  9.9996445E+03; -1.9357517E-01;  0.0000000E+00;  7.2136484E-03;  2.0294525E+02;
  1.9973550E-02;  9.9999998E-03; -1.4000192E-01;1068; -1.2246842E-02;  0.0000000E+00; -1.0559089E-03;  1.0004449E+03;  4.0000001E-01;  3.6858212E+02;3; -5.5615520E+00;  0.0000000E+00; -5.7472777E-01;0; -1.9091444E-01;  1.0009236E+04;  0.0000000E+00;  3.3815036E-07;  1.0000000E+04;  0.0000000E+00;  9.9996650E+03; -1.9802096E-01;  0.0000000E+00;  7.1065282E-03;  1.9360933E+02;
  1.9973326E-02;  9.9999998E-03; -1.2000150E-01;1069; -1.2398634E-02;  0.0000000E+00; -8.5940660E-04;  1.0004513E+03;  4.0000001E-01;  3.7391528E+02;3; -5.6631317E+00;  0.0000000E+00; -4.8671001E-01;0; -1.9410846E-01;  1.0009330E+04;  0.0000000E+00;  1.2482938E-07;  1.0000000E+04;  0.0000000E+00;  9.9996953E+03; -2.0089877E-01;  0.0000000E+00;  6.7903125E-03;  1.7918626E+02;
  1.9973239E-02;  9.9999998E-03; -1.0000114E-01;1070; -1.2485446E-02;  0.0000000E+00; -6.8129401E-04;  1.0004550E+03;  4.0000001E-01;  3.7697693E+02;3; -5.7343998E+00;  0.0000000E+00; -3.9952636E-01;0; -1.9627549E-01;  1.0009374E+04;  0.0000000E+00;  3.3061440E-08;  1.0000000E+04;  0.0000000E+00;  9.9997295E+03; -2.0266220E-01;  0.0000000E+00;  6.3867182E-03;  1.6307103E+02;
  1.9973231E-02;  9.9999998E-03; -8.0000840E-02;1071; -1.2529530E-02;  0.0000000E+00; -5.2225171E-04;  1.0004576E+03;  4.0000001E-01;  3.7905096E+02;3; -5.7833481E+00;  0.0000000E+00; -3.1448746E-01;0; -1.9769777E-01;  1.0009391E+04;  0.0000000E+00;  1.9344515E-09;  1.0000000E+04;  0.0000000E+00;  9.9997627E+03; -2.0367487E-01;  0.0000000E+00;  5.9770937E-03;  1.4758051E+02;
  1.9973263E-02;  9.9999998E-03; -6.0000587E-02;1072; -1.2548267E-02;  0.0000000E+00; -3.7767368E-04;  1.0004587E+03;  4.0000001E-01;  3.8003857E+02;3; -5.8149776E+00;  0.0000000E+00; -2.3501235E-01;0; -1.9859444E-01;  1.0009388E+04;  0.0000000E+00; -4.5703938E-09;  1.0000000E+04;  0.0000000E+00;  9.9997891E+03; -2.0421061E-01;  0.0000000E+00;  5.6161708E-03;  1.3428510E+02;
  1.9973306E-02;  9.9999998E-03; -4.0000368E-02;1073; -1.2553887E-02;  0.0000000E+00; -2.4436705E-04;  1.0004595E+03;  4.0000001E-01;  3.8072992E+02;3; -5.8353367E+00;  0.0000000E+00; -1.5496814E-01;0; -1.9912685E-01;  1.0009381E+04;  0.0000000E+00; -3.3700334E-09;  1.0000000E+04;  0.0000000E+00;  9.9998105E+03; -2.0446485E-01;  0.0000000E+00;  5.3379983E-03;  1.2418695E+02;
  1.9973338E-02;  9.9999998E-03; -2.0000178E-02;1074; -1.2554072E-02;  0.0000000E+00; -1.1994503E-04;  1.0004597E+03;  4.0000001E-01;  3.8082867E+02;3; -5.8465595E+00;  0.0000000E+00; -7.6193638E-02;0; -1.9940455E-01;  1.0009373E+04;  0.0000000E+00; -8.1453977E-10;  1.0000000E+04;  0.0000000E+00;  9.9998252E+03; -2.0456801E-01;  0.0000000E+00;  5.1634558E-03;  1.1790269E+02;
  3.9965305E-02;  9.9999998E-03; -1.8000339E-01;1097; -1.5803656E-02;  0.0000000E+00; -1.7150192E-03;  1.0004710E+03;  4.0000001E-01;  3.9021112E+02;3; -6.1797009E+00;  0.0000000E+00; -7.7426767E-01;0; -1.9767548E-01;  1.0009841E+04;  0.0000000E+00;  2.4600643E-06;  1.0000000E+04;  0.0000000E+00;  9.9995859E+03; -2.0550716E-01;  0.0000000E+00;  7.8316713E-03;  2.3443452E+02;
  3.9964408E-02;  9.9999998E-03; -1.6000280E-01;1098; -1.6283475E-02;  0.0000000E+00; -1.4707881E-03;  1.0004843E+03;  4.0000001E-01;  4.0117377E+02;3; -6.4052334E+00;  0.0000000E+00; -6.9349158E-01;0; -2.0378563E-01;  1.0010108E+04;  0.0000000E+00;  1.4202935E-06;  1.0000000E+04;  0.0000000E+00;  9.9995801E+03; -2.1206997E-01;  0.0000000E+00;  8.2843518E-03;  2.3662019E+02;
  3.9963890E-02;  9.9999998E-03; -1.4000227E-01;1099; -1.6591778E-02;  0.0000000E+00; -1.2394877E-03;  1.0004935E+03;  4.0000001E-01;  4.0887726E+02;3; -6.5742645E+00;  0.0000000E+00; -6.0865688E-01;0; -2.0817973E-01;  1.0010268E+04;  0.0000000E+00;  7.0470713E-07;  1.0000000E+04;  0.0000000E+00;  9.9996045E+03; -2.1643853E-01;  0.0000000E+00;  8.2588019E-03;  2.2646527E+02;
  3.9963637E-02;  9.9999998E-03; -1.2000178E-01;1100; -1.6780889E-02;  0.0000000E+00; -1.0201745E-03;  1.0004993E+03;  4.0000001E-01;  4.1371664E+02;3; -6.6974106E+00;  0.0000000E+00; -5.2326822E-01;0; -2.1121666E-01;  1.0010350E+04;  0.0000000E+00;  2.7460041E-07;  1.0000000E+04;  0.0000000E+00;  9.9996377E+03; -2.1921396E-01;  0.0000000E+00;  7.9973098E-03;  2.1055861E+02;
  3.9963555E-02;  9.9999998E-03; -1.0000137E-01;1101; -1.6886998E-02;  0.0000000E+00; -8.1763044E-04;  1.0005030E+03;  4.0000001E-01;  4.1667950E+02;3; -6.7859383E+00;  0.0000000E+00; -4.3428606E-01;0; -2.1325935E-01;  1.0010383E+04;  0.0000000E+00;  8.3745363E-08;  1.0000000E+04;  0.0000000E+00;  9.9996738E+03; -2.2087646E-01;  0.0000000E+00;  7.6171048E-03;  1.9244070E+02;
  3.9963569E-02;  9.9999998E-03; -8.0001019E-02;1102; -1.6939171E-02;  0.0000000E+00; -6.3311716E-04;  1.0005048E+03;  4.0000001E-01;  4.1825970E+02;3; -6.8479023E+00;  0.0000000E+00; -3.4854561E-01;0; -2.1459259E-01;  1.0010389E+04;  0.0000000E+00;  1.7251979E-08;  1.0000000E+04;  0.0000000E+00;  9.9997119E+03; -2.2180340E-01;  0.0000000E+00;  7.2108018E-03;  1.7481454E+02;
  3.9963633E-02;  9.9999998E-03; -6.0000714E-02;1103; -1.6960207E-02;  0.0000000E+00; -4.6066873E-04;  1.0005059E+03;  4.0000001E-01;  4.1904980E+02;3; -6.8908520E+00;  0.0000000E+00; -2.6078224E-01;0; -2.1542975E-01;  1.0010379E+04;  0.0000000E+00;  9.3033364E-10;  1.0000000E+04;  0.0000000E+00;  9.9997422E+03; -2.2227377E-01;  0.0000000E+00;  6.8440079E-03;  1.5958205E+02;
  3.9963704E-02;  9.9999998E-03; -4.0000454E-02;1104; -1.6964791E-02;  0.0000000E+00; -3.0027566E-04;  1.0005063E+03;  4.0000001E-01;  4.1954364E+02;3; -6.9185486E+00;  0.0000000E+00; -1.7325382E-01;0; -2.1592499E-01;  1.0010361E+04;  0.0000000E+00; -1.8247234E-09;  1.0000000E+04;  0.0000000E+00;  9.9997686E+03; -2.2248317E-01;  0.0000000E+00;  6.5581817E-03;  1.4797276E+02;
  3.9963756E-02;  9.9999998E-03; -2.0000219E-02;1105; -1.6963441E-02;  0.0000000E+00; -1.4820401E-04;  1.0005065E+03;  4.0000001E-01;  4.1964240E+02;3; -6.9340763E+00;  0.0000000E+00; -8.5768014E-02;0; -2.1618235E-01;  1.0010351E+04;  0.0000000E+00; -4.5107598E-10;  1.0000000E+04;  0.0000000E+00;  9.9997832E+03; -2.2256039E-01;  0.0000000E+00;  6.3780383E-03;  1.4073640E+02;
  5.9954755E-02;  9.9999998E-03; -1.8000358E-01;1128; -2.0411858E-02;  0.0000000E+00; -1.8046829E-03;  1.0005170E+03;  4.0000001E-01;  4.2833350E+02;3; -7.1926680E+00;  0.0000000E+00; -7.5135875E-01;0; -2.1256107E-01;  1.0010795E+04;  0.0000000E+00;  2.2839229E-06;  1.0000000E+04;  0.0000000E+00;  9.9995498E+03; -2.2072420E-01;  0.0000000E+00;  8.1631215E-03;  2.5554298E+02;
  5.9953682E-02;  9.9999998E-03; -1.6000299E-01;1129; -2.0992864E-02;  0.0000000E+00; -1.5661021E-03;  1.0005293E+03;  4.0000001E-01;  4.3850604E+02;3; -7.4522257E+00;  0.0000000E+00; -6.8231970E-01;0; -2.1824588E-01;  1.0011048E+04;  0.0000000E+00;  1.5799579E-06;  1.0000000E+04;  0.0000000E+00;  9.9995459E+03; -2.2696850E-01;  0.0000000E+00;  8.7226192E-03;  2.5789621E+02;
  5.9953082E-02;  9.9999998E-03; -1.4000243E-01;1130; -2.1365242E-02;  0.0000000E+00; -1.3300674E-03;  1.0005372E+03;  4.0000001E-01;  4.4512314E+02;3; -7.6491861E+00;  0.0000000E+00; -6.0827988E-01;0; -2.2219162E-01;  1.0011186E+04;  0.0000000E+00;  8.2891921E-07;  1.0000000E+04;  0.0000000E+00;  9.9995654E+03; -2.3102796E-01;  0.0000000E+00;  8.8363448E-03;  2.4807269E+02;
  5.9952807E-02;  9.9999998E-03; -1.2000193E-01;1131; -2.1590482E-02;  0.0000000E+00; -1.1068607E-03;  1.0005421E+03;  4.0000001E-01;  4.4907364E+02;3; -7.7954988E+00;  0.0000000E+00; -5.2968812E-01;0; -2.2482896E-01;  1.0011249E+04;  0.0000000E+00;  3.2997590E-07;  1.0000000E+04;  0.0000000E+00;  9.9995986E+03; -2.3353812E-01;  0.0000000E+00;  8.7091671E-03;  2.3231502E+02;
  5.9952740E-02;  9.9999998E-03; -1.0000149E-01;1132; -2.1715280E-02;  0.0000000E+00; -8.9700922E-04;  1.0005452E+03;  4.0000001E-01;  4.5164148E+02;3; -7.9037075E+00;  0.0000000E+00; -4.4561994E-01;0; -2.2656031E-01;  1.0011262E+04;  0.0000000E+00;  1.0396877E-07;  1.0000000E+04;  0.0000000E+00;  9.9996377E+03; -2.3499334E-01;  0.0000000E+00;  8.4330318E-03;  2.1386986E+02;
  5.9952788E-02;  9.9999998E-03; -8.0001116E-02;1133; -2.1776244E-02;  0.0000000E+00; -6.9867441E-04;  1.0005464E+03;  4.0000001E-01;  4.5262912E+02;3; -7.9818716E+00;  0.0000000E+00; -3.6050704E-01;0; -2.2766721E-01;  1.0011252E+04;  0.0000000E+00;  2.4351531E-08;  1.0000000E+04;  0.0000000E+00;  9.9996738E+03; -2.3576929E-01;  0.0000000E+00;  8.1020696E-03;  1.9561548E+02;
  5.9952889E-02;  9.9999998E-03; -6.0000788E-02;1134; -2.1799199E-02;  0.0000000E+00; -5.1256135E-04;  1.0005469E+03;  4.0000001E-01;  4.5312292E+02;3; -8.0371904E+00;  0.0000000E+00; -2.7204552E-01;0; -2.2834799E-01;  1.0011234E+04;  0.0000000E+00;  3.2319341E-09;  1.0000000E+04;  0.0000000E+00;  9.9997070E+03; -2.3613605E-01;  0.0000000E+00;  7.7880654E-03;  1.7967874E+02;
  5.9952993E-02;  9.9999998E-03; -4.0000502E-02;1135; -2.1802919E-02;  0.0000000E+00; -3.3634261E-04;  1.0005468E+03;  4.0000001E-01;  4.5302417E+02;3; -8.0736790E+00;  0.0000000E+00; -1.8193397E-01;0; -2.2874194E-01;  1.0011214E+04;  0.0000000E+00; -2.5570748E-10;  1.0000000E+04;  0.0000000E+00;  9.9997305E+03; -2.3627979E-01;  0.0000000E+00;  7.5378483E-03;  1.6746422E+02;
  5.9953067E-02;  9.9999998E-03; -2.0000245E-02;1136; -2.1800201E-02;  0.0000000E+00; -1.6678905E-04;  1.0005468E+03;  4.0000001E-01;  4.5302417E+02;3; -8.0941801E+00;  0.0000000E+00; -9.1959305E-02;0; -2.2894265E-01;  1.0011192E+04;  0.0000000E+00;  5.8998683E-12;  1.0000000E+04;  0.0000000E+00;  9.9997451E+03; -2.3632124E-01;  0.0000000E+00;  7.3785963E-03;  1.5982916E+02;
  7.9943374E-02;  9.9999998E-03; -1.8000360E-01;1159; -2.5250137E-02;  0.0000000E+00; -1.7939046E-03;  1.0005671E+03;  4.0000001E-01;  4.6991257E+02;3; -8.3266621E+00;  0.0000000E+00; -7.1238458E-01;0; -2.2792378E-01;  1.0011809E+04;  0.0000000E+00;  7.1149429E-07;  1.0000000E+04;  0.0000000E+00;  9.9995361E+03; -2.3582740E-01;  0.0000000E+00;  7.9036281E-03;  2.6548523E+02;
  7.9942159E-02;  9.9999998E-03; -1.6000301E-01;1160; -2.5919212E-02;  0.0000000E+00; -1.5723540E-03;  1.0005780E+03;  4.0000001E-01;  4.7889996E+02;3; -8.6206570E+00;  0.0000000E+00; -6.5667027E-01;0; -2.3302574E-01;  1.0012031E+04;  0.0000000E+00;  1.1760994E-06;  1.0000000E+04;  0.0000000E+00;  9.9995342E+03; -2.4159016E-01;  0.0000000E+00;  8.5644163E-03;  2.6799051E+02;
  7.9941504E-02;  9.9999998E-03; -1.4000246E-01;1161; -2.6346093E-02;  0.0000000E+00; -1.3464018E-03;  1.0005847E+03;  4.0000001E-01;  4.8433191E+02;3; -8.8470001E+00;  0.0000000E+00; -5.9183687E-01;0; -2.3634587E-01;  1.0012146E+04;  0.0000000E+00;  7.3916772E-07;  1.0000000E+04;  0.0000000E+00;  9.9995479E+03; -2.4521947E-01;  0.0000000E+00;  8.8735912E-03;  2.5975043E+02;
  7.9941235E-02;  9.9999998E-03; -1.2000196E-01;1162; -2.6601523E-02;  0.0000000E+00; -1.1318796E-03;  1.0005878E+03;  4.0000001E-01;  4.8699850E+02;3; -9.0179834E+00;  0.0000000E+00; -5.1976115E-01;0; -2.3842558E-01;  1.0012186E+04;  0.0000000E+00;  3.2219674E-07;  1.0000000E+04;  0.0000000E+00;  9.9995762E+03; -2.4738383E-01;  0.0000000E+00;  8.9582559E-03;  2.4583223E+02;
  7.9941198E-02;  9.9999998E-03; -1.0000153E-01;1163; -2.6742179E-02;  0.0000000E+00; -9.2516572E-04;  1.0005895E+03;  4.0000001E-01;  4.8838116E+02;3; -9.1465263E+00;  0.0000000E+00; -4.4403419E-01;0; -2.3971434E-01;  1.0012183E+04;  0.0000000E+00;  1.0545206E-07;  1.0000000E+04;  0.0000000E+00;  9.9996123E+03; -2.4858144E-01;  0.0000000E+00;  8.8670989E-03;  2.2881606E+02;
  7.9941295E-02;  9.9999998E-03; -8.0001153E-02;1164; -2.6809515E-02;  0.0000000E+00; -7.2689087E-04;  1.0005897E+03;  4.0000001E-01;  4.8857870E+02;3; -9.2421837E+00;  0.0000000E+00; -3.6158425E-01;0; -2.4049215E-01;  1.0012153E+04;  0.0000000E+00;  2.6637268E-08;  1.0000000E+04;  0.0000000E+00;  9.9996494E+03; -2.4917594E-01;  0.0000000E+00;  8.6837830E-03;  2.1150458E+02;
  7.9941444E-02;  9.9999998E-03; -6.0000822E-02;1165; -2.6833685E-02;  0.0000000E+00; -5.3763413E-04;  1.0005897E+03;  4.0000001E-01;  4.8847995E+02;3; -9.3109159E+00;  0.0000000E+00; -2.7506956E-01;0; -2.4094132E-01;  1.0012124E+04;  0.0000000E+00;  4.7741593E-09;  1.0000000E+04;  0.0000000E+00;  9.9996797E+03; -2.4942231E-01;  0.0000000E+00;  8.4809996E-03;  1.9613353E+02;
  7.9941586E-02;  9.9999998E-03; -4.0000524E-02;1166; -2.6836421E-02;  0.0000000E+00; -3.5498652E-04;  1.0005894E+03;  4.0000001E-01;  4.8828241E+02;3; -9.3569174E+00;  0.0000000E+00; -1.8622710E-01;0; -2.4118315E-01;  1.0012091E+04;  0.0000000E+00;  1.4215643E-10;  1.0000000E+04;  0.0000000E+00;  9.9997021E+03; -2.4949183E-01;  0.0000000E+00;  8.3086845E-03;  1.8423448E+02;
  7.9941683E-02;  9.9999998E-03; -2.0000257E-02;1167; -2.6832433E-02;  0.0000000E+00; -1.7633615E-04;  1.0005891E+03;  4.0000001E-01;  4.8808490E+02;3; -9.3834877E+00;  0.0000000E+00; -9.3757391E-02;0; -2.4129751E-01;  1.0012068E+04;  0.0000000E+00; -7.8831993E-12;  1.0000000E+04;  0.0000000E+00;  9.9997188E+03; -2.4949339E-01;  0.0000000E+00;  8.1958799E-03;  1.7675731E+02;
  9.9931128E-02;  9.9999998E-03; -1.8000349E-01;1190; -3.0304594E-02;  0.0000000E+00; -1.7221340E-03;  1.0006266E+03;  4.0000001E-01;  5.1919513E+02;3; -9.6221380E+00;  0.0000000E+00; -6.6537493E-01;0; -2.4578673E-01;  1.0012995E+04;  0.0000000E+00; -1.9966733E-06;  1.0000000E+04;  0.0000000E+00;  9.9995459E+03; -2.5299415E-01;  0.0000000E+00;  7.2074197E-03;  2.6781216E+02;
  9.9929817E-02;  9.9999998E-03; -1.6000293E-01;1191; -3.1046562E-02;  0.0000000E+00; -1.5232948E-03;  1.0006359E+03;  4.0000001E-01;  5.2679987E+02;3; -9.9509592E+00;  0.0000000E+00; -6.2188798E-01;0; -2.5020805E-01;  1.0013184E+04;  0.0000000E+00;  2.9993689E-07;  1.0000000E+04;  0.0000000E+00;  9.9995400E+03; -2.5819772E-01;  0.0000000E+00;  7.9896860E-03;  2.7107629E+02;
  9.9929154E-02;  9.9999998E-03; -1.4000241E-01;1192; -3.1514261E-02;  0.0000000E+00; -1.3203317E-03;  1.0006405E+03;  4.0000001E-01;  5.3065155E+02;3; -1.0206579E+01;  0.0000000E+00; -5.6670326E-01;0; -2.5280237E-01;  1.0013267E+04;  0.0000000E+00;  5.4465841E-07;  1.0000000E+04;  0.0000000E+00;  9.9995498E+03; -2.6135409E-01;  0.0000000E+00;  8.5517149E-03;  2.6577676E+02;
  9.9928908E-02;  9.9999998E-03; -1.2000195E-01;1193; -3.1791613E-02;  0.0000000E+00; -1.1215053E-03;  1.0006420E+03;  4.0000001E-01;  5.3193549E+02;3; -1.0402106E+01;  0.0000000E+00; -5.0495118E-01;0; -2.5423056E-01;  1.0013279E+04;  0.0000000E+00;  3.0060619E-07;  1.0000000E+04;  0.0000000E+00;  9.9995684E+03; -2.6315358E-01;  0.0000000E+00;  8.9230323E-03;  2.5536488E+02;
  9.9928930E-02;  9.9999998E-03; -1.0000153E-01;1194; -3.1942420E-02;  0.0000000E+00; -9.2564989E-04;  1.0006422E+03;  4.0000001E-01;  5.3203424E+02;3; -1.0551966E+01;  0.0000000E+00; -4.3445265E-01;0; -2.5499222E-01;  1.0013251E+04;  0.0000000E+00;  1.1243642E-07;  1.0000000E+04;  0.0000000E+00;  9.9995977E+03; -2.6408523E-01;  0.0000000E+00;  9.0930294E-03;  2.4142882E+02;
  9.9929087E-02;  9.9999998E-03; -8.0001161E-02;1195; -3.2013036E-02;  0.0000000E+00; -7.3507952E-04;  1.0006415E+03;  4.0000001E-01;  5.3144165E+02;3; -1.0665358E+01;  0.0000000E+00; -3.5736245E-01;0; -2.5537252E-01;  1.0013206E+04;  0.0000000E+00;  3.1079459E-08;  1.0000000E+04;  0.0000000E+00;  9.9996250E+03; -2.6449600E-01;  0.0000000E+00;  9.1234827E-03;  2.2647914E+02;
  9.9929295E-02;  9.9999998E-03; -6.0000829E-02;1196; -3.2036994E-02;  0.0000000E+00; -5.4824573E-04;  1.0006403E+03;  4.0000001E-01;  5.3045404E+02;3; -1.0748072E+01;  0.0000000E+00; -2.7502820E-01;0; -2.5553855E-01;  1.0013156E+04;  0.0000000E+00;  6.1398264E-09;  1.0000000E+04;  0.0000000E+00;  9.9996514E+03; -2.6462185E-01;  0.0000000E+00;  9.0832906E-03;  2.1277379E+02;
  9.9929482E-02;  9.9999998E-03; -4.0000536E-02;1197; -3.2038152E-02;  0.0000000E+00; -3.6395033E-04;  1.0006395E+03;  4.0000001E-01;  5.2976270E+02;3; -1.0804478E+01;  0.0000000E+00; -1.8642086E-01;0; -2.5559282E-01;  1.0013119E+04;  0.0000000E+00;  1.2051548E-09;  1.0000000E+04;  0.0000000E+00;  9.9996729E+03; -2.6461741E-01;  0.0000000E+00;  9.0246005E-03;  2.0196031E+02;
  9.9929616E-02;  9.9999998E-03; -2.0000262E-02;1198; -3.2032557E-02;  0.0000000E+00; -1.8156116E-04;  1.0006388E+03;  4.0000001E-01;  5.2926892E+02;3; -1.0837252E+01;  0.0000000E+00; -9.4166480E-02;0; -2.5560054E-01;  1.0013092E+04;  0.0000000E+00;  5.8625854E-11;  1.0000000E+04;  0.0000000E+00;  9.9996875E+03; -2.6457968E-01;  0.0000000E+00;  8.9791417E-03;  1.9509416E+02;
  1.1991773E-01;  9.9999998E-03; -1.8000337E-01;1221; -3.5684150E-02;  0.0000000E+00; -1.6327217E-03;  1.0006978E+03;  4.0000001E-01;  5.7815637E+02;3; -1.1071222E+01;  0.0000000E+00; -6.1648864E-01;0; -2.6681092E-01;  1.0014399E+04;  0.0000000E+00; -5.6008225E-06;  1.0000000E+04;  0.0000000E+00;  9.9995596E+03; -2.7312741E-01;  0.0000000E+00;  6.3164774E-03;  2.6807330E+02;
  1.1991637E-01;  9.9999998E-03; -1.6000287E-01;1222; -3.6482476E-02;  0.0000000E+00; -1.4700736E-03;  1.0007047E+03;  4.0000001E-01;  5.8388464E+02;3; -1.1434373E+01;  0.0000000E+00; -5.8706319E-01;0; -2.7044234E-01;  1.0014552E+04;  0.0000000E+00; -7.9742847E-07;  1.0000000E+04;  0.0000000E+00;  9.9995449E+03; -2.7771527E-01;  0.0000000E+00;  7.2729322E-03;  2.7335043E+02;
  1.1991573E-01;  9.9999998E-03; -1.4000240E-01;1223; -3.6978807E-02;  0.0000000E+00; -1.2958520E-03;  1.0007071E+03;  4.0000001E-01;  5.8585986E+02;3; -1.1719097E+01;  0.0000000E+00; -5.4393893E-01;0; -2.7224350E-01;  1.0014602E+04;  0.0000000E+00;  3.5534114E-07;  1.0000000E+04;  0.0000000E+00;  9.9995469E+03; -2.8039718E-01;  0.0000000E+00;  8.1536695E-03;  2.7251151E+02;
  1.1991555E-01;  9.9999998E-03; -1.2000195E-01;1224; -3.7269291E-02;  0.0000000E+00; -1.1144527E-03;  1.0007068E+03;  4.0000001E-01;  5.8556360E+02;3; -1.1939466E+01;  0.0000000E+00; -4.9048406E-01;0; -2.7296162E-01;  1.0014584E+04;  0.0000000E+00;  3.1468502E-07;  1.0000000E+04;  0.0000000E+00;  9.9995566E+03; -2.8184873E-01;  0.0000000E+00;  8.8871103E-03;  2.6724652E+02;
  1.1991566E-01;  9.9999998E-03; -1.0000155E-01;1225; -3.7424076E-02;  0.0000000E+00; -9.3176361E-04;  1.0007048E+03;  4.0000001E-01;  5.8398340E+02;3; -1.2110778E+01;  0.0000000E+00; -4.2666233E-01;0; -2.7314597E-01;  1.0014530E+04;  0.0000000E+00;  1.4030869E-07;  1.0000000E+04;  0.0000000E+00;  9.9995703E+03; -2.8253454E-01;  0.0000000E+00;  9.3885679E-03;  2.5784692E+02;
  1.1991590E-01;  9.9999998E-03; -8.0001183E-02;1226; -3.7494343E-02;  0.0000000E+00; -7.4825599E-04;  1.0007028E+03;  4.0000001E-01;  5.8220569E+02;3; -1.2242187E+01;  0.0000000E+00; -3.5495776E-01;0; -2.7308953E-01;  1.0014466E+04;  0.0000000E+00;  4.4775540E-08;  1.0000000E+04;  0.0000000E+00;  9.9995938E+03; -2.8277898E-01;  0.0000000E+00;  9.6894549E-03;  2.4639523E+02;
  1.1991617E-01;  9.9999998E-03; -6.0000859E-02;1227; -3.7516173E-02;  0.0000000E+00; -5.6318846E-04;  1.0007007E+03;  4.0000001E-01;  5.8052673E+02;3; -1.2339703E+01;  0.0000000E+00; -2.7457103E-01;0; -2.7294430E-01;  1.0014404E+04;  0.0000000E+00;  1.0401767E-08;  1.0000000E+04;  0.0000000E+00;  9.9996191E+03; -2.8279683E-01;  0.0000000E+00;  9.8525258E-03;  2.3515701E+02;
  1.1991642E-01;  9.9999998E-03; -4.0000558E-02;1228; -3.7514664E-02;  0.0000000E+00; -3.7668739E-04;  1.0006991E+03;  4.0000001E-01;  5.7914404E+02;3; -1.2406860E+01;  0.0000000E+00; -1.8737622E-01;0; -2.7279294E-01;  1.0014354E+04;  0.0000000E+00;  1.2207436E-09;  1.0000000E+04;  0.0000000E+00;  9.9996328E+03; -2.8272656E-01;  0.0000000E+00;  9.9336067E-03;  2.2594266E+02;
  1.1991658E-01;  9.9999998E-03; -2.0000275E-02;1229; -3.7506994E-02;  0.0000000E+00; -1.8875764E-04;  1.0006979E+03;  4.0000001E-01;  5.7825519E+02;3; -1.2446161E+01;  0.0000000E+00; -9.4978228E-02;0; -2.7268371E-01;  1.0014323E+04;  0.0000000E+00; -1.3005914E-10;  1.0000000E+04;  0.0000000E+00;  9.9996445E+03; -2.8265351E-01;  0.0000000E+00;  9.9698119E-03;  2.1996869E+02;
  1.3990282E-01;  9.9999998E-03; -1.8000337E-01;1252; -4.1519508E-02;  0.0000000E+00; -1.5849043E-03;  1.0007797E+03;  4.0000001E-01;  6.4590753E+02;3; -1.2642942E+01;  0.0000000E+00; -5.7551759E-01;0; -2.9048663E-01;  1.0016040E+04;  0.0000000E+00; -5.9207880E-05;  1.0000000E+04;  0.0000000E+00;  9.9995605E+03; -2.9607847E-01;  0.0000000E+00;  5.5918526E-03;  2.7484894E+02;
  1.3990146E-01;  9.9999998E-03; -1.6000293E-01;1253; -4.2359989E-02;  0.0000000E+00; -1.4684922E-03;  1.0007839E+03;  4.0000001E-01;  6.4946301E+02;3; -1.3039659E+01;  0.0000000E+00; -5.6473422E-01;0; -2.9321188E-01;  1.0016144E+04;  0.0000000E+00; -1.7861468E-06;  1.0000000E+04;  0.0000000E+00;  9.9995400E+03; -2.9997849E-01;  0.0000000E+00;  6.7666192E-03;  2.8291870E+02;
  1.3990089E-01;  9.9999998E-03; -1.4000250E-01;1254; -4.2874586E-02;  0.0000000E+00; -1.3235913E-03;  1.0007836E+03;  4.0000001E-01;  6.4926550E+02;3; -1.3353127E+01;  0.0000000E+00; -5.3486794E-01;0; -2.9415688E-01;  1.0016149E+04;  0.0000000E+00;  2.9329308E-07;  1.0000000E+04;  0.0000000E+00;  9.9995293E+03; -3.0219141E-01;  0.0000000E+00;  8.0345208E-03;  2.8794162E+02;
  1.3990080E-01;  9.9999998E-03; -1.2000208E-01;1255; -4.3170039E-02;  0.0000000E+00; -1.1590929E-03;  1.0007810E+03;  4.0000001E-01;  6.4709271E+02;3; -1.3598546E+01;  0.0000000E+00; -4.8949820E-01;0; -2.9412860E-01;  1.0016101E+04;  0.0000000E+00;  4.0534903E-07;  1.0000000E+04;  0.0000000E+00;  9.9995205E+03; -3.0332977E-01;  0.0000000E+00;  9.2011783E-03;  2.8923862E+02;
  1.3990101E-01;  9.9999998E-03; -1.0000167E-01;1256; -4.3323506E-02;  0.0000000E+00; -9.8306965E-04;  1.0007774E+03;  4.0000001E-01;  6.4403107E+02;3; -1.3791734E+01;  0.0000000E+00; -4.3104261E-01;0; -2.9371533E-01;  1.0016025E+04;  0.0000000E+00;  2.0339911E-07;  1.0000000E+04;  0.0000000E+00;  9.9995254E+03; -3.0380979E-01;  0.0000000E+00;  1.0094472E-02;  2.8549600E+02;
  1.3990135E-01;  9.9999998E-03; -8.0001302E-02;1257; -4.3390024E-02;  0.0000000E+00; -7.9799513E-04;  1.0007737E+03;  4.0000001E-01;  6.4106818E+02;3; -1.3941987E+01;  0.0000000E+00; -3.6165246E-01;0; -2.9321280E-01;  1.0015940E+04;  0.0000000E+00;  7.1025504E-08;  1.0000000E+04;  0.0000000E+00;  9.9995371E+03; -3.0392206E-01;  0.0000000E+00;  1.0709249E-02;  2.7828198E+02;
  1.3990173E-01;  9.9999998E-03; -6.0000952E-02;1258; -4.3407477E-02;  0.0000000E+00; -6.0602446E-04;  1.0007707E+03;  4.0000001E-01;  6.3850037E+02;3; -1.4054942E+01;  0.0000000E+00; -2.8161108E-01;0; -2.9275468E-01;  1.0015863E+04;  0.0000000E+00;  2.0189182E-08;  1.0000000E+04;  0.0000000E+00;  9.9995547E+03; -3.0385739E-01;  0.0000000E+00;  1.1102699E-02;  2.6992654E+02;
  1.3990204E-01;  9.9999998E-03; -4.0000625E-02;1259; -4.3402147E-02;  0.0000000E+00; -4.0807034E-04;  1.0007682E+03;  4.0000001E-01;  6.3642633E+02;3; -1.4133534E+01;  0.0000000E+00; -1.9312122E-01;0; -2.9239878E-01;  1.0015801E+04;  0.0000000E+00;  5.1294831E-09;  1.0000000E+04;  0.0000000E+00;  9.9995674E+03; -3.0373719E-01;  0.0000000E+00;  1.1338421E-02;  2.6250723E+02;
  1.3990223E-01;  9.9999998E-03; -2.0000309E-02;1260; -4.3391842E-02;  0.0000000E+00; -2.0541142E-04;  1.0007668E+03;  4.0000001E-01;  6.3533997E+02;3; -1.4179762E+01;  0.0000000E+00; -9.8332666E-02;0; -2.9217437E-01;  1.0015764E+04;  0.0000000E+00;  1.0179902E-09;  1.0000000E+04;  0.0000000E+00;  9.9995742E+03; -3.0363736E-01;  0.0000000E+00;  1.1462989E-02;  2.5749765E+02;
  1.5988611E-01;  9.9999998E-03; -1.8000367E-01;1283; -4.7886968E-02;  0.0000000E+00; -1.6613773E-03;  1.0008705E+03;  4.0000001E-01;  7.2116467E+02;3; -1.4307746E+01;  0.0000000E+00; -5.5862701E-01;0; -3.1579933E-01;  1.0017896E+04;  0.0000000E+00; -4.5145853E-04;  1.0000000E+04;  0.0000000E+00;  9.9995244E+03; -3.2136682E-01;  0.0000000E+00;  5.5674957E-03;  3.0148410E+02;
  1.5988481E-01;  9.9999998E-03; -1.6000329E-01;1284; -4.8757140E-02;  0.0000000E+00; -1.5908603E-03;  1.0008720E+03;  4.0000001E-01;  7.2244861E+02;3; -1.4736541E+01;  0.0000000E+00; -5.7693815E-01;0; -3.1749362E-01;  1.0017945E+04;  0.0000000E+00; -2.5821596E-06;  1.0000000E+04;  0.0000000E+00;  9.9995000E+03; -3.2443315E-01;  0.0000000E+00;  6.9395350E-03;  3.1095111E+02;
  1.5988435E-01;  9.9999998E-03; -1.4000288E-01;1285; -4.9282234E-02;  0.0000000E+00; -1.4681267E-03;  1.0008691E+03;  4.0000001E-01;  7.2007831E+02;3; -1.5079920E+01;  0.0000000E+00; -5.5749899E-01;0; -3.1756714E-01;  1.0017911E+04;  0.0000000E+00;  3.9056201E-07;  1.0000000E+04;  0.0000000E+00;  9.9994736E+03; -3.2618719E-01;  0.0000000E+00;  8.6200535E-03;  3.2190109E+02;
  1.5988441E-01;  9.9999998E-03; -1.2000243E-01;1286; -4.9577769E-02;  0.0000000E+00; -1.3079914E-03;  1.0008638E+03;  4.0000001E-01;  7.1563397E+02;3; -1.5351632E+01;  0.0000000E+00; -5.1757747E-01;0; -3.1680194E-01;  1.0017829E+04;  0.0000000E+00;  5.9500923E-07;  1.0000000E+04;  0.0000000E+00;  9.9994502E+03; -3.2706219E-01;  0.0000000E+00;  1.0260268E-02;  3.3026926E+02;
  1.5988475E-01;  9.9999998E-03; -1.0000200E-01;1287; -4.9726550E-02;  0.0000000E+00; -1.1224420E-03;  1.0008584E+03;  4.0000001E-01;  7.1118964E+02;3; -1.5568198E+01;  0.0000000E+00; -4.5985115E-01;0; -3.1581500E-01;  1.0017728E+04;  0.0000000E+00;  3.0629437E-07;  1.0000000E+04;  0.0000000E+00;  9.9994443E+03; -3.2739565E-01;  0.0000000E+00;  1.1580647E-02;  3.3259680E+02;
  1.5988521E-01;  9.9999998E-03; -8.0001570E-02;1288; -4.9786869E-02;  0.0000000E+00; -9.1868488E-04;  1.0008533E+03;  4.0000001E-01;  7.0694287E+02;3; -1.5738929E+01;  0.0000000E+00; -3.8752928E-01;0; -3.1489691E-01;  1.0017624E+04;  0.0000000E+00;  1.1568562E-07;  1.0000000E+04;  0.0000000E+00;  9.9994443E+03; -3.2742798E-01;  0.0000000E+00;  1.2531074E-02;  3.2976624E+02;
  1.5988567E-01;  9.9999998E-03; -6.0001161E-02;1289; -4.9798284E-02;  0.0000000E+00; -7.0161844E-04;  1.0008489E+03;  4.0000001E-01;  7.0328864E+02;3; -1.5868358E+01;  0.0000000E+00; -3.0294934E-01;0; -3.1415555E-01;  1.0017532E+04;  0.0000000E+00;  3.5602298E-08;  1.0000000E+04;  0.0000000E+00;  9.9994512E+03; -3.2731962E-01;  0.0000000E+00;  1.3164067E-02;  3.2422189E+02;
  1.5988606E-01;  9.9999998E-03; -4.0000767E-02;1290; -4.9788006E-02;  0.0000000E+00; -4.7421304E-04;  1.0008458E+03;  4.0000001E-01;  7.0072083E+02;3; -1.5959152E+01;  0.0000000E+00; -2.0815720E-01;0; -3.1362003E-01;  1.0017459E+04;  0.0000000E+00;  6.9701609E-09;  1.0000000E+04;  0.0000000E+00;  9.9994629E+03; -3.2717574E-01;  0.0000000E+00;  1.3555713E-02;  3.1842953E+02;
  1.5988632E-01;  9.9999998E-03; -2.0000381E-02;1291; -4.9774475E-02;  0.0000000E+00; -2.3923976E-04;  1.0008440E+03;  4.0000001E-01;  6.9923938E+02;3; -1.6012815E+01;  0.0000000E+00; -1.0628299E-01;0; -3.1329638E-01;  1.0017415E+04;  0.0000000E+00;  1.8590322E-09;  1.0000000E+04;  0.0000000E+00;  9.9994678E+03; -3.2706350E-01;  0.0000000E+00;  1.3767119E-02;  3.1423209E+02;
  1.7986746E-01;  9.9999998E-03; -1.8000449E-01;1314; -5.4798514E-02;  0.0000000E+00; -1.9605460E-03;  1.0009695E+03;  4.0000001E-01;  8.0323645E+02;3; -1.6043646E+01;  0.0000000E+00; -6.0707527E-01;0; -3.4184304E-01;  1.0019991E+04;  0.0000000E+00; -1.3324396E-03;  1.0000000E+04;  0.0000000E+00;  9.9994063E+03; -3.4878737E-01;  0.0000000E+00;  6.9443230E-03;  3.6628806E+02;
  1.7986627E-01;  9.9999998E-03; -1.6000412E-01;1315; -5.5687565E-02;  0.0000000E+00; -1.9164478E-03;  1.0009675E+03;  4.0000001E-01;  8.0155743E+02;3; -1.6503721E+01;  0.0000000E+00; -6.3786417E-01;0; -3.4249917E-01;  1.0019967E+04;  0.0000000E+00; -7.6968399E-06;  1.0000000E+04;  0.0000000E+00;  9.9993887E+03; -3.5089228E-01;  0.0000000E+00;  8.3931163E-03;  3.7237369E+02;
  1.7986594E-01;  9.9999998E-03; -1.4000367E-01;1316; -5.6219053E-02;  0.0000000E+00; -1.7980514E-03;  1.0009618E+03;  4.0000001E-01;  7.9681683E+02;3; -1.6878042E+01;  0.0000000E+00; -6.3413817E-01;0; -3.4180927E-01;  1.0019888E+04;  0.0000000E+00;  6.2038100E-07;  1.0000000E+04;  0.0000000E+00;  9.9993545E+03; -3.5222024E-01;  0.0000000E+00;  1.0410954E-02;  3.8640750E+02;
  1.7986615E-01;  9.9999998E-03; -1.2000315E-01;1317; -5.6513954E-02;  0.0000000E+00; -1.6159831E-03;  1.0009543E+03;  4.0000001E-01;  7.9069354E+02;3; -1.7179480E+01;  0.0000000E+00; -5.9201264E-01;0; -3.4041411E-01;  1.0019774E+04;  0.0000000E+00;  8.3691361E-07;  1.0000000E+04;  0.0000000E+00;  9.9993174E+03; -3.5290435E-01;  0.0000000E+00;  1.2490234E-02;  4.0035825E+02;
  1.7986666E-01;  9.9999998E-03; -1.0000261E-01;1318; -5.6657784E-02;  0.0000000E+00; -1.3926870E-03;  1.0009471E+03;  4.0000001E-01;  7.8466907E+02;3; -1.7422411E+01;  0.0000000E+00; -5.2658957E-01;0; -3.3895037E-01;  1.0019646E+04;  0.0000000E+00;  4.4361212E-07;  1.0000000E+04;  0.0000000E+00;  9.9992998E+03; -3.5317123E-01;  0.0000000E+00;  1.4220866E-02;  4.0782785E+02;
  1.7986727E-01;  9.9999998E-03; -8.0002069E-02;1319; -5.6711473E-02;  0.0000000E+00; -1.1418593E-03;  1.0009404E+03;  4.0000001E-01;  7.7913837E+02;3; -1.7615894E+01;  0.0000000E+00; -4.4376320E-01;0; -3.3770132E-01;  1.0019525E+04;  0.0000000E+00;  1.6921577E-07;  1.0000000E+04;  0.0000000E+00;  9.9992900E+03; -3.5319385E-01;  0.0000000E+00;  1.5492535E-02;  4.0860590E+02;
  1.7986785E-01;  9.9999998E-03; -6.0001541E-02;1320; -5.6716301E-02;  0.0000000E+00; -8.7266794E-04;  1.0009354E+03;  4.0000001E-01;  7.7499030E+02;3; -1.7763796E+01;  0.0000000E+00; -3.4635931E-01;0; -3.3674592E-01;  1.0019418E+04;  0.0000000E+00;  5.0015405E-08;  1.0000000E+04;  0.0000000E+00;  9.9992959E+03; -3.5309541E-01;  0.0000000E+00;  1.6349483E-02;  4.0516937E+02;
  1.7986833E-01;  9.9999998E-03; -4.0001020E-02;1321; -5.6700502E-02;  0.0000000E+00; -5.8987620E-04;  1.0009314E+03;  4.0000001E-01;  7.7163239E+02;3; -1.7868086E+01;  0.0000000E+00; -2.3755726E-01;0; -3.3608130E-01;  1.0019335E+04;  0.0000000E+00;  1.5507753E-08;  1.0000000E+04;  0.0000000E+00;  9.9993027E+03; -3.5296366E-01;  0.0000000E+00;  1.6882351E-02;  4.0042099E+02;
  1.7986864E-01;  9.9999998E-03; -2.0000510E-02;1322; -5.6683339E-02;  0.0000000E+00; -2.9761979E-04;  1.0009293E+03;  4.0000001E-01;  7.6985468E+02;3; -1.7930071E+01;  0.0000000E+00; -1.2099570E-01;0; -3.3568978E-01;  1.0019282E+04;  0.0000000E+00;  2.4793592E-09;  1.0000000E+04;  0.0000000E+00;  9.9993096E+03; -3.5285985E-01;  0.0000000E+00;  1.7170087E-02;  3.9664914E+02;
  1.9984671E-01;  9.9999998E-03; -1.8000607E-01;1345; -6.2249977E-02;  0.0000000E+00; -2.5741027E-03;  1.0010745E+03;  4.0000001E-01;  8.9014752E+02;3; -1.7830580E+01;  0.0000000E+00; -7.4375629E-01;0; -3.6770114E-01;  1.0022333E+04;  0.0000000E+00; -2.3251581E-03;  1.0000000E+04;  0.0000000E+00;  9.9991660E+03; -3.7817612E-01;  0.0000000E+00;  1.0474986E-02;  4.8962323E+02;
  1.9984566E-01;  9.9999998E-03; -1.6000563E-01;1346; -6.3151054E-02;  0.0000000E+00; -2.5277555E-03;  1.0010696E+03;  4.0000001E-01;  8.8609827E+02;3; -1.8320225E+01;  0.0000000E+00; -7.8401875E-01;0; -3.6757031E-01;  1.0022233E+04;  0.0000000E+00; -2.4003009E-05;  1.0000000E+04;  0.0000000E+00;  9.9991738E+03; -3.7934843E-01;  0.0000000E+00;  1.1778123E-02;  4.8403952E+02;
  1.9984551E-01;  9.9999998E-03; -1.4000504E-01;1347; -6.3691236E-02;  0.0000000E+00; -2.3765995E-03;  1.0010619E+03;  4.0000001E-01;  8.7977747E+02;3; -1.8730589E+01;  0.0000000E+00; -7.7827537E-01;0; -3.6638910E-01;  1.0022105E+04;  0.0000000E+00;  7.7463113E-07;  1.0000000E+04;  0.0000000E+00;  9.9991465E+03; -3.8032278E-01;  0.0000000E+00;  1.3933679E-02;  4.9465839E+02;
  1.9984591E-01;  9.9999998E-03; -1.2000434E-01;1348; -6.3989908E-02;  0.0000000E+00; -2.1324796E-03;  1.0010527E+03;  4.0000001E-01;  8.7207397E+02;3; -1.9066170E+01;  0.0000000E+00; -7.2450459E-01;0; -3.6460042E-01;  1.0021957E+04;  0.0000000E+00;  1.0150347E-06;  1.0000000E+04;  0.0000000E+00;  9.9991074E+03; -3.8091165E-01;  0.0000000E+00;  1.6311217E-02;  5.0987335E+02;
  1.9984658E-01;  9.9999998E-03; -1.0000361E-01;1349; -6.4132832E-02;  0.0000000E+00; -1.8318448E-03;  1.0010436E+03;  4.0000001E-01;  8.6456799E+02;3; -1.9340246E+01;  0.0000000E+00; -6.4030647E-01;0; -3.6284879E-01;  1.0021805E+04;  0.0000000E+00;  5.4604737E-07;  1.0000000E+04;  0.0000000E+00;  9.9990801E+03; -3.8120779E-01;  0.0000000E+00;  1.8358998E-02;  5.1962433E+02;
  1.9984736E-01;  9.9999998E-03; -8.0002867E-02;1350; -6.4181961E-02;  0.0000000E+00; -1.4960440E-03;  1.0010361E+03;  4.0000001E-01;  8.5834595E+02;3; -1.9559790E+01;  0.0000000E+00; -5.3413433E-01;0; -3.6141443E-01;  1.0021667E+04;  0.0000000E+00;  2.1487145E-07;  1.0000000E+04;  0.0000000E+00;  9.9990684E+03; -3.8130242E-01;  0.0000000E+00;  1.9887971E-02;  5.2199548E+02;
  1.9984807E-01;  9.9999998E-03; -6.0002133E-02;1351; -6.4180613E-02;  0.0000000E+00; -1.1393229E-03;  1.0010302E+03;  4.0000001E-01;  8.5350659E+02;3; -1.9728226E+01;  0.0000000E+00; -4.1310668E-01;0; -3.6035293E-01;  1.0021545E+04;  0.0000000E+00;  6.2601892E-08;  1.0000000E+04;  0.0000000E+00;  9.9990684E+03; -3.8127640E-01;  0.0000000E+00;  2.0923452E-02;  5.1919952E+02;
  1.9984865E-01;  9.9999998E-03; -4.0001418E-02;1352; -6.4159110E-02;  0.0000000E+00; -7.6849794E-04;  1.0010260E+03;  4.0000001E-01;  8.5004993E+02;3; -1.9847279E+01;  0.0000000E+00; -2.8133333E-01;0; -3.5963458E-01;  1.0021448E+04;  0.0000000E+00;  1.6773168E-08;  1.0000000E+04;  0.0000000E+00;  9.9990771E+03; -3.8120052E-01;  0.0000000E+00;  2.1565957E-02;  5.1446454E+02;
  1.9984904E-01;  9.9999998E-03; -2.0000705E-02;1353; -6.4138018E-02;  0.0000000E+00; -3.8716436E-04;  1.0010234E+03;  4.0000001E-01;  8.4787714E+02;3; -1.9917660E+01;  0.0000000E+00; -1.4404990E-01;0; -3.5921890E-01;  1.0021390E+04;  0.0000000E+00;  1.8993369E-09;  1.0000000E+04;  0.0000000E+00;  9.9990859E+03; -3.8112998E-01;  0.0000000E+00;  2.1911083E-02;  5.1050003E+02;
  2.1982369E-01;  9.9999998E-03; -1.8000855E-01;1376; -7.0252635E-02;  0.0000000E+00; -3.5656502E-03;  1.0011837E+03;  4.0000001E-01;  9.8071283E+02;3; -1.9646107E+01;  0.0000000E+00; -9.9558401E-01;0; -3.9248791E-01;  1.0024918E+04;  0.0000000E+00; -2.6620850E-03;  1.0000000E+04;  0.0000000E+00;  9.9987734E+03; -4.0922037E-01;  0.0000000E+00;  1.6732458E-02;  6.8805396E+02;
  2.1982281E-01;  9.9999998E-03; -1.6000791E-01;1377; -7.1166426E-02;  0.0000000E+00; -3.4818656E-03;  1.0011776E+03;  4.0000001E-01;  9.7567596E+02;3; -2.0174417E+01;  0.0000000E+00; -1.0279522E+00;0; -3.9209786E-01;  1.0024748E+04;  0.0000000E+00; -2.6752008E-05;  1.0000000E+04;  0.0000000E+00;  9.9988223E+03; -4.0970191E-01;  0.0000000E+00;  1.7604047E-02;  6.6027325E+02;
  2.1982284E-01;  9.9999998E-03; -1.4000706E-01;1378; -7.1725853E-02;  0.0000000E+00; -3.2373255E-03;  1.0011687E+03;  4.0000001E-01;  9.6826874E+02;3; -2.0625866E+01;  0.0000000E+00; -1.0039474E+00;0; -3.9084235E-01;  1.0024571E+04;  0.0000000E+00;  5.8004298E-07;  1.0000000E+04;  0.0000000E+00;  9.9988242E+03; -4.1045386E-01;  0.0000000E+00;  1.9611521E-02;  6.5822339E+02;
  2.1982343E-01;  9.9999998E-03; -1.2000608E-01;1379; -7.2037108E-02;  0.0000000E+00; -2.8824727E-03;  1.0011583E+03;  4.0000001E-01;  9.5967639E+02;3; -2.1001730E+01;  0.0000000E+00; -9.2529333E-01;0; -3.8901418E-01;  1.0024391E+04;  0.0000000E+00;  8.6214658E-07;  1.0000000E+04;  0.0000000E+00;  9.9987900E+03; -4.1106844E-01;  0.0000000E+00;  2.2054264E-02;  6.6776672E+02;
  2.1982431E-01;  9.9999998E-03; -1.0000505E-01;1380; -7.2185636E-02;  0.0000000E+00; -2.4555519E-03;  1.0011484E+03;  4.0000001E-01;  9.5147913E+02;3; -2.1313091E+01;  0.0000000E+00; -8.0196637E-01;0; -3.8724655E-01;  1.0024214E+04;  0.0000000E+00;  4.9902542E-07;  1.0000000E+04;  0.0000000E+00;  9.9987705E+03; -4.1149893E-01;  0.0000000E+00;  2.4252392E-02;  6.7496857E+02;
  2.1982525E-01;  9.9999998E-03; -8.0003999E-02;1381; -7.2233550E-02;  0.0000000E+00; -1.9936820E-03;  1.0011401E+03;  4.0000001E-01;  9.4456573E+02;3; -2.1562336E+01;  0.0000000E+00; -6.6159540E-01;0; -3.8582587E-01;  1.0024056E+04;  0.0000000E+00;  2.0410620E-07;  1.0000000E+04;  0.0000000E+00;  9.9987656E+03; -4.1175249E-01;  0.0000000E+00;  2.5926625E-02;  6.7564142E+02;
  2.1982613E-01;  9.9999998E-03; -6.0002979E-02;1382; -7.2227858E-02;  0.0000000E+00; -1.5113194E-03;  1.0011338E+03;  4.0000001E-01;  9.3933130E+02;3; -2.1753345E+01;  0.0000000E+00; -5.0934070E-01;0; -3.8479841E-01;  1.0023923E+04;  0.0000000E+00;  5.6957770E-08;  1.0000000E+04;  0.0000000E+00;  9.9987686E+03; -4.1186669E-01;  0.0000000E+00;  2.7068283E-02;  6.7127032E+02;
  2.1982683E-01;  9.9999998E-03; -4.0001974E-02;1383; -7.2202072E-02;  0.0000000E+00; -1.0170670E-03;  1.0011291E+03;  4.0000001E-01;  9.3538080E+02;3; -2.1889465E+01;  0.0000000E+00; -3.4857774E-01;0; -3.8411874E-01;  1.0023817E+04;  0.0000000E+00;  1.1379186E-08;  1.0000000E+04;  0.0000000E+00;  9.9987764E+03; -4.1189426E-01;  0.0000000E+00;  2.7775520E-02;  6.6511700E+02;
  2.1982728E-01;  9.9999998E-03; -2.0000985E-02;1384; -7.2177865E-02;  0.0000000E+00; -5.1202305E-04;  1.0011264E+03;  4.0000001E-01;  9.3320801E+02;3; -2.1970621E+01;  0.0000000E+00; -1.7716606E-01;0; -3.8373318E-01;  1.0023757E+04;  0.0000000E+00;  4.3517376E-09;  1.0000000E+04;  0.0000000E+00;  9.9987861E+03; -4.1188660E-01;  0.0000000E+00;  2.8153408E-02;  6.6015161E+02;
  2.3979813E-01;  9.9999998E-03; -1.8001206E-01;1407; -7.8831322E-02;  0.0000000E+00; -5.0388095E-03;  1.0012972E+03;  4.0000001E-01;  1.0747349E+03;3; -2.1482983E+01;  0.0000000E+00; -1.4082395E+00;0; -4.1580141E-01;  1.0027756E+04;  0.0000000E+00; -1.9773366E-03;  1.0000000E+04;  0.0000000E+00;  9.9982021E+03; -4.4162631E-01;  0.0000000E+00;  2.5824895E-02;  9.6754517E+02;
  2.3979746E-01;  9.9999998E-03; -1.6001104E-01;1408; -7.9781666E-02;  0.0000000E+00; -4.7696568E-03;  1.0012913E+03;  4.0000001E-01;  1.0697968E+03;3; -2.2065001E+01;  0.0000000E+00; -1.3619660E+00;0; -4.1579813E-01;  1.0027523E+04;  0.0000000E+00; -8.0197015E-06;  1.0000000E+04;  0.0000000E+00;  9.9983252E+03; -4.4181740E-01;  0.0000000E+00;  2.6019281E-02;  9.0771368E+02;
  2.3979768E-01;  9.9999998E-03; -1.4000979E-01;1409; -8.0367461E-02;  0.0000000E+00; -4.3749614E-03;  1.0012825E+03;  4.0000001E-01;  1.0624883E+03;3; -2.2563011E+01;  0.0000000E+00; -1.2932106E+00;0; -4.1494581E-01;  1.0027303E+04;  0.0000000E+00; -1.0475002E-07;  1.0000000E+04;  0.0000000E+00;  9.9983672E+03; -4.4255114E-01;  0.0000000E+00;  2.7605314E-02;  8.8349316E+02;
  2.3979849E-01;  9.9999998E-03; -1.2000840E-01;1410; -8.0701776E-02;  0.0000000E+00; -3.8573269E-03;  1.0012720E+03;  4.0000001E-01;  1.0537972E+03;3; -2.2988638E+01;  0.0000000E+00; -1.1577678E+00;0; -4.1348428E-01;  1.0027090E+04;  0.0000000E+00;  2.5349576E-07;  1.0000000E+04;  0.0000000E+00;  9.9983672E+03; -4.4334188E-01;  0.0000000E+00;  2.9857602E-02;  8.7934924E+02;
  2.3979957E-01;  9.9999998E-03; -1.0000695E-01;1411; -8.0861248E-02;  0.0000000E+00; -3.2729364E-03;  1.0012619E+03;  4.0000001E-01;  1.0455011E+03;3; -2.3338589E+01;  0.0000000E+00; -9.9962497E-01;0; -4.1201580E-01;  1.0026896E+04;  0.0000000E+00;  2.1809021E-07;  1.0000000E+04;  0.0000000E+00;  9.9983613E+03; -4.4402337E-01;  0.0000000E+00;  3.2007579E-02;  8.7801959E+02;
  2.3980072E-01;  9.9999998E-03; -8.0005512E-02;1412; -8.0913417E-02;  0.0000000E+00; -2.6521015E-03;  1.0012535E+03;  4.0000001E-01;  1.0384890E+03;3; -2.3620035E+01;  0.0000000E+00; -8.2642311E-01;0; -4.1083494E-01;  1.0026720E+04;  0.0000000E+00;  1.0127556E-07;  1.0000000E+04;  0.0000000E+00;  9.9983682E+03; -4.4452664E-01;  0.0000000E+00;  3.3691715E-02;  8.7286627E+02;
  2.3980175E-01;  9.9999998E-03; -6.0004100E-02;1413; -8.0907404E-02;  0.0000000E+00; -2.0090013E-03;  1.0012468E+03;  4.0000001E-01;  1.0329583E+03;3; -2.3835089E+01;  0.0000000E+00; -6.4192009E-01;0; -4.0999702E-01;  1.0026570E+04;  0.0000000E+00;  2.3690065E-08;  1.0000000E+04;  0.0000000E+00;  9.9983789E+03; -4.4485188E-01;  0.0000000E+00;  3.4854867E-02;  8.6421313E+02;
  2.3980258E-01;  9.9999998E-03; -4.0002715E-02;1414; -8.0879621E-02;  0.0000000E+00; -1.3469062E-03;  1.0012419E+03;  4.0000001E-01;  1.0289091E+03;3; -2.3990524E+01;  0.0000000E+00; -4.3554249E-01;0; -4.0945727E-01;  1.0026463E+04;  0.0000000E+00;  7.2307338E-09;  1.0000000E+04;  0.0000000E+00;  9.9983945E+03; -4.4503507E-01;  0.0000000E+00;  3.5577804E-02;  8.5496942E+02;
  2.3980311E-01;  9.9999998E-03; -2.0001352E-02;1415; -8.0853403E-02;  0.0000000E+00; -6.7420112E-04;  1.0012392E+03;  4.0000001E-01;  1.0266375E+03;3; -2.4083469E+01;  0.0000000E+00; -2.1743375E-01;0; -4.0915850E-01;  1.0026391E+04;  0.0000000E+00;  3.0762762E-10;  1.0000000E+04;  0.0000000E+00;  9.9984053E+03; -4.4512177E-01;  0.0000000E+00;  3.5963260E-02;  8.4809741E+02;
  2.5976974E-01;  9.9999998E-03; -1.8001674E-01;1438; -8.8051505E-02;  0.0000000E+00; -6.9231801E-03;  1.0014160E+03;  4.0000001E-01;  1.1731024E+03;3; -2.3348013E+01;  0.0000000E+00; -1.8813899E+00;0; -4.3797794E-01;  1.0030848E+04;  0.0000000E+00; -8.2858314E-04;  1.0000000E+04;  0.0000000E+00;  9.9974922E+03; -4.7518617E-01;  0.0000000E+00;  3.7208222E-02;  1.3189636E+03;
  2.5976929E-01;  9.9999998E-03; -1.6001505E-01;1439; -8.9037240E-02;  0.0000000E+00; -6.4162822E-03;  1.0014116E+03;  4.0000001E-01;  1.1695469E+03;3; -2.3976217E+01;  0.0000000E+00; -1.7976068E+00;0; -4.3887350E-01;  1.0030568E+04;  0.0000000E+00;  1.0086429E-06;  1.0000000E+04;  0.0000000E+00;  9.9976875E+03; -4.7555348E-01;  0.0000000E+00;  3.6679991E-02;  1.2220500E+03;
  2.5976974E-01;  9.9999998E-03; -1.4001322E-01;1440; -8.9664936E-02;  0.0000000E+00; -5.7872245E-03;  1.0014041E+03;  4.0000001E-01;  1.1632261E+03;3; -2.4537523E+01;  0.0000000E+00; -1.6470796E+00;0; -4.3883818E-01;  1.0030316E+04;  0.0000000E+00; -1.0308968E-06;  1.0000000E+04;  0.0000000E+00;  9.9977891E+03; -4.7654691E-01;  0.0000000E+00;  3.7708741E-02;  1.1691200E+03;
  2.5977078E-01;  9.9999998E-03; -1.2001128E-01;1441; -9.0031028E-02;  0.0000000E+00; -5.0606462E-03;  1.0013945E+03;  4.0000001E-01;  1.1553251E+03;3; -2.5013149E+01;  0.0000000E+00; -1.4569005E+00;0; -4.3810928E-01;  1.0030079E+04;  0.0000000E+00; -6.6951270E-07;  1.0000000E+04;  0.0000000E+00;  9.9978330E+03; -4.7770095E-01;  0.0000000E+00;  3.9591670E-02;  1.1445260E+03;
  2.5977209E-01;  9.9999998E-03; -1.0000933E-01;1442; -9.0212218E-02;  0.0000000E+00; -4.2736474E-03;  1.0013847E+03;  4.0000001E-01;  1.1472266E+03;3; -2.5408648E+01;  0.0000000E+00; -1.2434938E+00;0; -4.3723172E-01;  1.0029865E+04;  0.0000000E+00; -2.7246281E-07;  1.0000000E+04;  0.0000000E+00;  9.9978545E+03; -4.7876421E-01;  0.0000000E+00;  4.1532494E-02;  1.1290120E+03;
  2.5977343E-01;  9.9999998E-03; -8.0007397E-02;1443; -9.0275779E-02;  0.0000000E+00; -3.4514833E-03;  1.0013765E+03;  4.0000001E-01;  1.1404120E+03;3; -2.5728144E+01;  0.0000000E+00; -1.0126613E+00;0; -4.3650514E-01;  1.0029674E+04;  0.0000000E+00; -9.7466213E-08;  1.0000000E+04;  0.0000000E+00;  9.9978789E+03; -4.7961581E-01;  0.0000000E+00;  4.3110680E-02;  1.1139247E+03;
  2.5977466E-01;  9.9999998E-03; -6.0005497E-02;1444; -9.0274081E-02;  0.0000000E+00; -2.6079931E-03;  1.0013701E+03;  4.0000001E-01;  1.1350787E+03;3; -2.5974157E+01;  0.0000000E+00; -7.7613258E-01;0; -4.3600485E-01;  1.0029521E+04;  0.0000000E+00; -4.8594437E-08;  1.0000000E+04;  0.0000000E+00;  9.9979072E+03; -4.8022822E-01;  0.0000000E+00;  4.4223376E-02;  1.0982740E+03;
  2.5977561E-01;  9.9999998E-03; -4.0003639E-02;1445; -9.0246454E-02;  0.0000000E+00; -1.7469996E-03;  1.0013656E+03;  4.0000001E-01;  1.1313258E+03;3; -2.6149878E+01;  0.0000000E+00; -5.2253997E-01;0; -4.3570089E-01;  1.0029403E+04;  0.0000000E+00; -2.5653653E-08;  1.0000000E+04;  0.0000000E+00;  9.9979287E+03; -4.8062354E-01;  0.0000000E+00;  4.4922635E-02;  1.0842941E+03;
  2.5977623E-01;  9.9999998E-03; -2.0001814E-02;1446; -9.0219669E-02;  0.0000000E+00; -8.7878737E-04;  1.0013627E+03;  4.0000001E-01;  1.1289554E+03;3; -2.6254757E+01;  0.0000000E+00; -2.6531804E-01;0; -4.3554246E-01;  1.0029329E+04;  0.0000000E+00; -3.7715249E-09;  1.0000000E+04;  0.0000000E+00;  9.9979492E+03; -4.8083988E-01;  0.0000000E+00;  4.5297418E-02;  1.0746514E+03;
  2.7973819E-01;  9.9999998E-03; -1.8002254E-01;1469; -9.7958140E-02;  0.0000000E+00; -9.2318384E-03;  1.0015426E+03;  4.0000001E-01;  1.2779883E+03;3; -2.5224871E+01;  0.0000000E+00; -2.4645696E+00;0; -4.5993707E-01;  1.0034209E+04;  0.0000000E+00; -9.2381793E-05;  1.0000000E+04;  0.0000000E+00;  9.9966777E+03; -5.0975794E-01;  0.0000000E+00;  4.9820863E-02;  1.7203208E+03;
  2.7973801E-01;  9.9999998E-03; -1.6001993E-01;1470; -9.8988362E-02;  0.0000000E+00; -8.3823400E-03;  1.0015410E+03;  4.0000001E-01;  1.2766056E+03;3; -2.5923168E+01;  0.0000000E+00; -2.2596412E+00;0; -4.6197012E-01;  1.0033903E+04;  0.0000000E+00;  2.1170645E-06;  1.0000000E+04;  0.0000000E+00;  9.9969434E+03; -5.1078069E-01;  0.0000000E+00;  4.8810564E-02;  1.5889017E+03;
  2.7973872E-01;  9.9999998E-03; -1.4001735E-01;1471; -9.9661954E-02;  0.0000000E+00; -7.4767512E-03;  1.0015351E+03;  4.0000001E-01;  1.2717662E+03;3; -2.6537361E+01;  0.0000000E+00; -2.0605776E+00;0; -4.6301228E-01;  1.0033624E+04;  0.0000000E+00; -1.6670639E-06;  1.0000000E+04;  0.0000000E+00;  9.9971074E+03; -5.1237506E-01;  0.0000000E+00;  4.9362767E-02;  1.5059501E+03;
  2.7974001E-01;  9.9999998E-03; -1.2001473E-01;1472; -1.0006858E-01;  0.0000000E+00; -6.4901300E-03;  1.0015269E+03;  4.0000001E-01;  1.2649515E+03;3; -2.7071987E+01;  0.0000000E+00; -1.8079557E+00;0; -4.6326020E-01;  1.0033367E+04;  0.0000000E+00; -1.5165442E-06;  1.0000000E+04;  0.0000000E+00;  9.9971953E+03; -5.1411188E-01;  0.0000000E+00;  5.0851673E-02;  1.4574124E+03;
  2.7974156E-01;  9.9999998E-03; -1.0001215E-01;1473; -1.0028147E-01;  0.0000000E+00; -5.4501328E-03;  1.0015184E+03;  4.0000001E-01;  1.2579395E+03;3; -2.7515297E+01;  0.0000000E+00; -1.5323919E+00;0; -4.6318108E-01;  1.0033137E+04;  0.0000000E+00; -8.0399116E-07;  1.0000000E+04;  0.0000000E+00;  9.9972588E+03; -5.1570475E-01;  0.0000000E+00;  5.2523669E-02;  1.4238962E+03;
  2.7974313E-01;  9.9999998E-03; -8.0009617E-02;1474; -1.0036658E-01;  0.0000000E+00; -4.3807300E-03;  1.0015105E+03;  4.0000001E-01;  1.2514211E+03;3; -2.7877455E+01;  0.0000000E+00; -1.2375106E+00;0; -4.6307042E-01;  1.0032938E+04;  0.0000000E+00; -3.6635825E-07;  1.0000000E+04;  0.0000000E+00;  9.9973076E+03; -5.1701552E-01;  0.0000000E+00;  5.3945091E-02;  1.3957660E+03;
  2.7974454E-01;  9.9999998E-03; -6.0007144E-02;1475; -1.0037736E-01;  0.0000000E+00; -3.2955448E-03;  1.0015048E+03;  4.0000001E-01;  1.2466805E+03;3; -2.8158308E+01;  0.0000000E+00; -9.2812270E-01;0; -4.6302363E-01;  1.0032772E+04;  0.0000000E+00; -1.4836320E-07;  1.0000000E+04;  0.0000000E+00;  9.9973525E+03; -5.1800120E-01;  0.0000000E+00;  5.4977570E-02;  1.3709725E+03;
  2.7974564E-01;  9.9999998E-03; -4.0004726E-02;1476; -1.0035520E-01;  0.0000000E+00; -2.1997474E-03;  1.0015004E+03;  4.0000001E-01;  1.2430262E+03;3; -2.8357166E+01;  0.0000000E+00; -6.1928999E-01;0; -4.6303135E-01;  1.0032648E+04;  0.0000000E+00; -5.6492155E-08;  1.0000000E+04;  0.0000000E+00;  9.9973906E+03; -5.1867247E-01;  0.0000000E+00;  5.5641100E-02;  1.3509574E+03;
  2.7974632E-01;  9.9999998E-03; -2.0002352E-02;1477; -1.0033108E-01;  0.0000000E+00; -1.0997825E-03;  1.0014980E+03;  4.0000001E-01;  1.2410510E+03;3; -2.8476484E+01;  0.0000000E+00; -3.1452051E-01;0; -4.6305642E-01;  1.0032572E+04;  0.0000000E+00; -9.5628616E-09;  1.0000000E+04;  0.0000000E+00;  9.9974160E+03; -5.1905882E-01;  0.0000000E+00;  5.6002405E-02;  1.3378749E+03;
  2.9970315E-01;  9.9999998E-03; -1.8002915E-01;1500; -1.0858531E-01;  0.0000000E+00; -1.1792527E-02;  1.0016810E+03;  4.0000001E-01;  1.3926515E+03;3; -2.7109816E+01;  0.0000000E+00; -3.0760329E+00;0; -4.8281252E-01;  1.0037846E+04;  0.0000000E+00;  2.9753752E-05;  1.0000000E+04;  0.0000000E+00;  9.9958125E+03; -5.4527241E-01;  0.0000000E+00;  6.2459901E-02;  2.1457236E+03;
  2.9970327E-01;  9.9999998E-03; -1.6002554E-01;1501; -1.0967641E-01;  0.0000000E+00; -1.0586464E-02;  1.0016813E+03;  4.0000001E-01;  1.3929478E+03;3; -2.7877769E+01;  0.0000000E+00; -2.7652078E+00;0; -4.8599929E-01;  1.0037534E+04;  0.0000000E+00;  3.0753417E-06;  1.0000000E+04;  0.0000000E+00;  9.9961348E+03; -5.4743230E-01;  0.0000000E+00;  6.1433017E-02;  1.9887203E+03;
  2.9970431E-01;  9.9999998E-03; -1.4002207E-01;1502; -1.1040429E-01;  0.0000000E+00; -9.3596652E-03;  1.0016780E+03;  4.0000001E-01;  1.3901824E+03;3; -2.8567799E+01;  0.0000000E+00; -2.4728091E+00;0; -4.8819044E-01;  1.0037247E+04;  0.0000000E+00; -1.6979512E-06;  1.0000000E+04;  0.0000000E+00;  9.9963486E+03; -5.4998499E-01;  0.0000000E+00;  6.1794538E-02;  1.8797292E+03;
  2.9970586E-01;  9.9999998E-03; -1.2001866E-01;1503; -1.1086001E-01;  0.0000000E+00; -8.0827894E-03;  1.0016716E+03;  4.0000001E-01;  1.3848492E+03;3; -2.9157366E+01;  0.0000000E+00; -2.1600270E+00;0; -4.8950133E-01;  1.0036979E+04;  0.0000000E+00; -2.0085167E-06;  1.0000000E+04;  0.0000000E+00;  9.9964893E+03; -5.5253536E-01;  0.0000000E+00;  6.3034028E-02;  1.8076952E+03;
  2.9970768E-01;  9.9999998E-03; -1.0001535E-01;1504; -1.1111320E-01;  0.0000000E+00; -6.7677493E-03;  1.0016647E+03;  4.0000001E-01;  1.3792197E+03;3; -2.9653511E+01;  0.0000000E+00; -1.8312207E+00;0; -4.9031550E-01;  1.0036736E+04;  0.0000000E+00; -1.2824956E-06;  1.0000000E+04;  0.0000000E+00;  9.9965889E+03; -5.5482167E-01;  0.0000000E+00;  6.4506158E-02;  1.7550317E+03;
  2.9970950E-01;  9.9999998E-03; -8.0012128E-02;1505; -1.1122899E-01;  0.0000000E+00; -5.4263603E-03;  1.0016581E+03;  4.0000001E-01;  1.3737878E+03;3; -3.0059994E+01;  0.0000000E+00; -1.4739246E+00;0; -4.9090320E-01;  1.0036528E+04;  0.0000000E+00; -6.4526500E-07;  1.0000000E+04;  0.0000000E+00;  9.9966689E+03; -5.5671448E-01;  0.0000000E+00;  6.5811291E-02;  1.7124358E+03;
  2.9971111E-01;  9.9999998E-03; -6.0008999E-02;1506; -1.1126118E-01;  0.0000000E+00; -4.0690945E-03;  1.0016527E+03;  4.0000001E-01;  1.3692448E+03;3; -3.0376783E+01;  0.0000000E+00; -1.1116438E+00;0; -4.9137470E-01;  1.0036355E+04;  0.0000000E+00; -2.8291794E-07;  1.0000000E+04;  0.0000000E+00;  9.9967373E+03; -5.5817086E-01;  0.0000000E+00;  6.6796146E-02;  1.6773842E+03;
  2.9971233E-01;  9.9999998E-03; -4.0005956E-02;1507; -1.1125427E-01;  0.0000000E+00; -2.7129811E-03;  1.0016489E+03;  4.0000001E-01;  1.3660844E+03;3; -3.0602476E+01;  0.0000000E+00; -7.4005133E-01;0; -4.9173868E-01;  1.0036226E+04;  0.0000000E+00; -1.0284828E-07;  1.0000000E+04;  0.0000000E+00;  9.9967842E+03; -5.5919093E-01;  0.0000000E+00;  6.7452237E-02;  1.6506396E+03;
  2.9971313E-01;  9.9999998E-03; -2.0002965E-02;1508; -1.1123775E-01;  0.0000000E+00; -1.3566015E-03;  1.0016468E+03;  4.0000001E-01;  1.3643065E+03;3; -3.0739130E+01;  0.0000000E+00; -3.6460313E-01;0; -4.9197143E-01;  1.0036148E+04;  0.0000000E+00; -2.2165617E-08;  1.0000000E+04;  0.0000000E+00;  9.9968164E+03; -5.5979198E-01;  0.0000000E+00;  6.7820534E-02;  1.6337731E+03;
  3.1966433E-01;  9.9999998E-03; -1.8003623E-01;1531; -1.1995678E-01;  0.0000000E+00; -1.4428566E-02;  1.0018339E+03;  4.0000001E-01;  1.5193639E+03;3; -2.8982853E+01;  0.0000000E+00; -3.6619115E+00;0; -5.0759774E-01;  1.0041777E+04;  0.0000000E+00;  2.7128379E-05;  1.0000000E+04;  0.0000000E+00;  9.9949541E+03; -5.8179182E-01;  0.0000000E+00;  7.4194066E-02;  2.5749744E+03;
  3.1966481E-01;  9.9999998E-03; -1.6003159E-01;1532; -1.2112533E-01;  0.0000000E+00; -1.2879858E-02;  1.0018367E+03;  4.0000001E-01;  1.5217341E+03;3; -2.9837107E+01;  0.0000000E+00; -3.2596829E+00;0; -5.1186633E-01;  1.0041490E+04;  0.0000000E+00;  3.7281161E-06;  1.0000000E+04;  0.0000000E+00;  9.9952969E+03; -5.8552760E-01;  0.0000000E+00;  7.3661238E-02;  2.4034021E+03;
  3.1966615E-01;  9.9999998E-03; -1.4002718E-01;1533; -1.2192610E-01;  0.0000000E+00; -1.1333905E-02;  1.0018353E+03;  4.0000001E-01;  1.5205491E+03;3; -3.0602459E+01;  0.0000000E+00; -2.8781397E+00;0; -5.1512414E-01;  1.0041201E+04;  0.0000000E+00; -1.1817472E-06;  1.0000000E+04;  0.0000000E+00;  9.9955518E+03; -5.8934414E-01;  0.0000000E+00;  7.4220024E-02;  2.2754204E+03;
  3.1966802E-01;  9.9999998E-03; -1.2002294E-01;1534; -1.2244360E-01;  0.0000000E+00; -9.7673731E-03;  1.0018306E+03;  4.0000001E-01;  1.5165985E+03;3; -3.1255909E+01;  0.0000000E+00; -2.5055416E+00;0; -5.1745260E-01;  1.0040928E+04;  0.0000000E+00; -2.1296435E-06;  1.0000000E+04;  0.0000000E+00;  9.9957344E+03; -5.9292537E-01;  0.0000000E+00;  7.5472780E-02;  2.1833652E+03;
  3.1967014E-01;  9.9999998E-03; -1.0001884E-01;1535; -1.2275021E-01;  0.0000000E+00; -8.1680501E-03;  1.0018251E+03;  4.0000001E-01;  1.5120554E+03;3; -3.1809633E+01;  0.0000000E+00; -2.1171367E+00;0; -5.1914960E-01;  1.0040679E+04;  0.0000000E+00; -1.6303712E-06;  1.0000000E+04;  0.0000000E+00;  9.9958662E+03; -5.9607118E-01;  0.0000000E+00;  7.6921605E-02;  2.1128738E+03;
  3.1967220E-01;  9.9999998E-03; -8.0014892E-02;1536; -1.2290969E-01;  0.0000000E+00; -6.5486352E-03;  1.0018199E+03;  4.0000001E-01;  1.5077098E+03;3; -3.2266533E+01;  0.0000000E+00; -1.7044696E+00;0; -5.2044713E-01;  1.0040461E+04;  0.0000000E+00; -9.4031395E-07;  1.0000000E+04;  0.0000000E+00;  9.9959775E+03; -5.9868181E-01;  0.0000000E+00;  7.8234695E-02;  2.0561448E+03;
  3.1967399E-01;  9.9999998E-03; -6.0011063E-02;1537; -1.2297461E-01;  0.0000000E+00; -4.9206102E-03;  1.0018152E+03;  4.0000001E-01;  1.5038582E+03;3; -3.2621704E+01;  0.0000000E+00; -1.2813050E+00;0; -5.2145082E-01;  1.0040287E+04;  0.0000000E+00; -4.5324009E-07;  1.0000000E+04;  0.0000000E+00;  9.9960615E+03; -6.0071528E-01;  0.0000000E+00;  7.9264469E-02;  2.0108606E+03;
  3.1967536E-01;  9.9999998E-03; -4.0007327E-02;1538; -1.2298927E-01;  0.0000000E+00; -3.2855789E-03;  1.0018120E+03;  4.0000001E-01;  1.5011915E+03;3; -3.2875248E+01;  0.0000000E+00; -8.5484666E-01;0; -5.2218205E-01;  1.0040158E+04;  0.0000000E+00; -1.6197237E-07;  1.0000000E+04;  0.0000000E+00;  9.9961240E+03; -6.0216284E-01;  0.0000000E+00;  7.9980798E-02;  1.9773771E+03;
  3.1967625E-01;  9.9999998E-03; -2.0003650E-02;1539; -1.2298576E-01;  0.0000000E+00; -1.6456022E-03;  1.0018102E+03;  4.0000001E-01;  1.4997101E+03;3; -3.3027496E+01;  0.0000000E+00; -4.2796773E-01;0; -5.2262872E-01;  1.0040083E+04;  0.0000000E+00; -4.0310713E-08;  1.0000000E+04;  0.0000000E+00;  9.9961650E+03; -6.0302687E-01;  0.0000000E+00;  8.0398127E-02;  1.9567366E+03;
  3.3962139E-01;  9.9999998E-03; -1.8004341E-01;1562; -1.3208592E-01;  0.0000000E+00; -1.6957738E-02;  1.0020048E+03;  4.0000001E-01;  1.6608905E+03;3; -3.0847956E+01;  0.0000000E+00; -4.1448588E+00;0; -5.3501546E-01;  1.0046046E+04;  0.0000000E+00;  2.3615645E-05;  1.0000000E+04;  0.0000000E+00;  9.9941045E+03; -6.1955267E-01;  0.0000000E+00;  8.4537238E-02;  2.9977693E+03;
  3.3962223E-01;  9.9999998E-03; -1.6003783E-01;1563; -1.3336183E-01;  0.0000000E+00; -1.5139335E-02;  1.0020094E+03;  4.0000001E-01;  1.6647423E+03;3; -3.1791098E+01;  0.0000000E+00; -3.6784267E+00;0; -5.4023480E-01;  1.0045784E+04;  0.0000000E+00;  3.9250376E-06;  1.0000000E+04;  0.0000000E+00;  9.9944609E+03; -6.2514114E-01;  0.0000000E+00;  8.4906325E-02;  2.8210249E+03;
  3.3962393E-01;  9.9999998E-03; -1.4003253E-01;1564; -1.3425672E-01;  0.0000000E+00; -1.3321073E-02;  1.0020093E+03;  4.0000001E-01;  1.6647423E+03;3; -3.2635738E+01;  0.0000000E+00; -3.2405248E+00;0; -5.4441428E-01;  1.0045508E+04;  0.0000000E+00; -7.7179715E-07;  1.0000000E+04;  0.0000000E+00;  9.9947373E+03; -6.3043451E-01;  0.0000000E+00;  8.6020224E-02;  2.6811172E+03;
  3.3962616E-01;  9.9999998E-03; -1.2002744E-01;1565; -1.3485633E-01;  0.0000000E+00; -1.1476155E-02;  1.0020065E+03;  4.0000001E-01;  1.6622732E+03;3; -3.3356815E+01;  0.0000000E+00; -2.8236485E+00;0; -5.4764676E-01;  1.0045234E+04;  0.0000000E+00; -2.2675376E-06;  1.0000000E+04;  0.0000000E+00;  9.9949482E+03; -6.3522267E-01;  0.0000000E+00;  8.7575935E-02;  2.5736655E+03;
  3.3962855E-01;  9.9999998E-03; -1.0002255E-01;1566; -1.3523608E-01;  0.0000000E+00; -9.6052149E-03;  1.0020020E+03;  4.0000001E-01;  1.6586190E+03;3; -3.3973644E+01;  0.0000000E+00; -2.3725777E+00;0; -5.5015743E-01;  1.0044981E+04;  0.0000000E+00; -2.0071755E-06;  1.0000000E+04;  0.0000000E+00;  9.9951143E+03; -6.3938296E-01;  0.0000000E+00;  8.9225553E-02;  2.4880862E+03;
  3.3963084E-01;  9.9999998E-03; -8.0017842E-02;1567; -1.3545468E-01;  0.0000000E+00; -7.7123237E-03;  1.0019980E+03;  4.0000001E-01;  1.6552611E+03;3; -3.4482929E+01;  0.0000000E+00; -1.9051944E+00;0; -5.5212694E-01;  1.0044761E+04;  0.0000000E+00; -1.2701963E-06;  1.0000000E+04;  0.0000000E+00;  9.9952461E+03; -6.4284289E-01;  0.0000000E+00;  9.0715922E-02;  2.4187634E+03;
  3.3963281E-01;  9.9999998E-03; -6.0013268E-02;1568; -1.3556571E-01;  0.0000000E+00; -5.8042668E-03;  1.0019942E+03;  4.0000001E-01;  1.6521995E+03;3; -3.4879913E+01;  0.0000000E+00; -1.4317219E+00;0; -5.5364549E-01;  1.0044582E+04;  0.0000000E+00; -6.3633701E-07;  1.0000000E+04;  0.0000000E+00;  9.9953496E+03; -6.4556253E-01;  0.0000000E+00;  9.1917023E-02;  2.3641226E+03;
  3.3963436E-01;  9.9999998E-03; -4.0008798E-02;1569; -1.3561362E-01;  0.0000000E+00; -3.8843942E-03;  1.0019914E+03;  4.0000001E-01;  1.6498291E+03;3; -3.5164074E+01;  0.0000000E+00; -9.5854896E-01;0; -5.5473495E-01;  1.0044454E+04;  0.0000000E+00; -2.5222093E-07;  1.0000000E+04;  0.0000000E+00;  9.9954248E+03; -6.4751774E-01;  0.0000000E+00;  9.2782825E-02;  2.3244185E+03;
  3.3963531E-01;  9.9999998E-03; -2.0004386E-02;1570; -1.3562864E-01;  0.0000000E+00; -1.9446274E-03;  1.0019899E+03;  4.0000001E-01;  1.6486440E+03;3; -3.5333462E+01;  0.0000000E+00; -4.7896132E-01;0; -5.5539215E-01;  1.0044374E+04;  0.0000000E+00; -4.8870085E-08;  1.0000000E+04;  0.0000000E+00;  9.9954756E+03; -6.4869475E-01;  0.0000000E+00;  9.3302578E-02;  2.3002944E+03;
  3.5957408E-01;  9.9999998E-03; -1.8005055E-01;1593; -1.4499265E-01;  0.0000000E+00; -1.9287918E-02;  1.0021951E+03;  4.0000001E-01;  1.8186143E+03;3; -3.2691437E+01;  0.0000000E+00; -4.4970012E+00;0; -5.6535482E-01;  1.0050694E+04;  0.0000000E+00;  1.9513011E-05;  1.0000000E+04;  0.0000000E+00;  9.9932813E+03; -6.5879977E-01;  0.0000000E+00;  9.3444914E-02;  3.4138389E+03;
  3.5957524E-01;  9.9999998E-03; -1.6004410E-01;1594; -1.4640753E-01;  0.0000000E+00; -1.7273910E-02;  1.0022009E+03;  4.0000001E-01;  1.8233549E+03;3; -3.3728088E+01;  0.0000000E+00; -4.0063267E+00;0; -5.7142228E-01;  1.0050457E+04;  0.0000000E+00;  2.8639722E-06;  1.0000000E+04;  0.0000000E+00;  9.9936338E+03; -6.6634345E-01;  0.0000000E+00;  9.4921157E-02;  3.2369324E+03;
  3.5957730E-01;  9.9999998E-03; -1.4003794E-01;1595; -1.4742516E-01;  0.0000000E+00; -1.5226076E-02;  1.0022021E+03;  4.0000001E-01;  1.8244413E+03;3; -3.4658485E+01;  0.0000000E+00; -3.5332255E+00;0; -5.7640505E-01;  1.0050184E+04;  0.0000000E+00; -1.0366410E-06;  1.0000000E+04;  0.0000000E+00;  9.9939209E+03; -6.7322510E-01;  0.0000000E+00;  9.6820079E-02;  3.0899092E+03;
  3.5957983E-01;  9.9999998E-03; -1.2003204E-01;1596; -1.4813636E-01;  0.0000000E+00; -1.3150587E-02;  1.0021999E+03;  4.0000001E-01;  1.8225648E+03;3; -3.5453125E+01;  0.0000000E+00; -3.0781434E+00;0; -5.8043635E-01;  1.0049910E+04;  0.0000000E+00; -2.6719194E-06;  1.0000000E+04;  0.0000000E+00;  9.9941563E+03; -6.7934126E-01;  0.0000000E+00;  9.8904893E-02;  2.9710840E+03;
  3.5958251E-01;  9.9999998E-03; -1.0002636E-01;1597; -1.4861231E-01;  0.0000000E+00; -1.1024520E-02;  1.0021965E+03;  4.0000001E-01;  1.8197007E+03;3; -3.6134144E+01;  0.0000000E+00; -2.5874169E+00;0; -5.8368534E-01;  1.0049656E+04;  0.0000000E+00; -2.5132642E-06;  1.0000000E+04;  0.0000000E+00;  9.9943418E+03; -6.8463808E-01;  0.0000000E+00;  1.0095274E-01;  2.8733335E+03;
  3.5958505E-01;  9.9999998E-03; -8.0020875E-02;1598; -1.4891194E-01;  0.0000000E+00; -8.8648880E-03;  1.0021934E+03;  4.0000001E-01;  1.8172316E+03;3; -3.6700089E+01;  0.0000000E+00; -2.0697348E+00;0; -5.8628201E-01;  1.0049435E+04;  0.0000000E+00; -1.6548414E-06;  1.0000000E+04;  0.0000000E+00;  9.9944990E+03; -6.8906248E-01;  0.0000000E+00;  1.0278045E-01;  2.7933594E+03;
  3.5958722E-01;  9.9999998E-03; -6.0015541E-02;1599; -1.4908619E-01;  0.0000000E+00; -6.6809426E-03;  1.0021906E+03;  4.0000001E-01;  1.8148613E+03;3; -3.7140350E+01;  0.0000000E+00; -1.5528836E+00;0; -5.8828831E-01;  1.0049259E+04;  0.0000000E+00; -8.4469951E-07;  1.0000000E+04;  0.0000000E+00;  9.9946182E+03; -6.9256449E-01;  0.0000000E+00;  1.0427620E-01;  2.7306223E+03;
  3.5958889E-01;  9.9999998E-03; -4.0010300E-02;1600; -1.4917825E-01;  0.0000000E+00; -4.4666720E-03;  1.0021885E+03;  4.0000001E-01;  1.8131824E+03;3; -3.7454151E+01;  0.0000000E+00; -1.0356501E+00;0; -5.8972007E-01;  1.0049128E+04;  0.0000000E+00; -3.2954975E-07;  1.0000000E+04;  0.0000000E+00;  9.9947080E+03; -6.9509947E-01;  0.0000000E+00;  1.0537940E-01;  2.6855063E+03;
  3.5958993E-01;  9.9999998E-03; -2.0005133E-02;1601; -1.4922103E-01;  0.0000000E+00; -2.2382094E-03;  1.0021872E+03;  4.0000001E-01;  1.8120959E+03;3; -3.7641865E+01;  0.0000000E+00; -5.1785672E-01;0; -5.9057778E-01;  1.0049050E+04;  0.0000000E+00; -7.2312176E-08;  1.0000000E+04;  0.0000000E+00;  9.9947588E+03; -6.9663280E-01;  0.0000000E+00;  1.0605504E-01;  2.6583650E+03;
  3.7952194E-01;  9.9999998E-03; -1.8005756E-01;1624; -1.5870093E-01;  0.0000000E+00; -2.1390470E-02;  1.0024064E+03;  4.0000001E-01;  1.9936211E+03;3; -3.4500027E+01;  0.0000000E+00; -4.7287140E+00;0; -5.9854186E-01;  1.0055748E+04;  0.0000000E+00;  1.4476384E-05;  1.0000000E+04;  0.0000000E+00;  9.9924688E+03; -6.9967240E-01;  0.0000000E+00;  1.0113055E-01;  3.8285769E+03;
  3.7952343E-01;  9.9999998E-03; -1.6005030E-01;1625; -1.6028757E-01;  0.0000000E+00; -1.9223483E-02;  1.0024127E+03;  4.0000001E-01;  1.9988556E+03;3; -3.5636295E+01;  0.0000000E+00; -4.2318406E+00;0; -6.0543400E-01;  1.0055525E+04;  0.0000000E+00;  6.5024574E-07;  1.0000000E+04;  0.0000000E+00;  9.9928193E+03; -7.0914453E-01;  0.0000000E+00;  1.0371053E-01;  3.6517717E+03;
  3.7952584E-01;  9.9999998E-03; -1.4004333E-01;1626; -1.6146526E-01;  0.0000000E+00; -1.7000491E-02;  1.0024143E+03;  4.0000001E-01;  2.0002382E+03;3; -3.6655506E+01;  0.0000000E+00; -3.7467628E+00;0; -6.1118132E-01;  1.0055255E+04;  0.0000000E+00; -2.0327425E-06;  1.0000000E+04;  0.0000000E+00;  9.9931152E+03; -7.1764070E-01;  0.0000000E+00;  1.0645939E-01;  3.4995823E+03;
  3.7952870E-01;  9.9999998E-03; -1.2003662E-01;1627; -1.6232070E-01;  0.0000000E+00; -1.4714160E-02;  1.0024126E+03;  4.0000001E-01;  1.9987568E+03;3; -3.7532097E+01;  0.0000000E+00; -3.2629905E+00;0; -6.1596811E-01;  1.0054976E+04;  0.0000000E+00; -3.3489896E-06;  1.0000000E+04;  0.0000000E+00;  9.9933633E+03; -7.2514707E-01;  0.0000000E+00;  1.0917896E-01;  3.3720161E+03;
  3.7953165E-01;  9.9999998E-03; -1.0003015E-01;1628; -1.6292208E-01;  0.0000000E+00; -1.2361711E-02;  1.0024100E+03;  4.0000001E-01;  1.9966827E+03;3; -3.8285175E+01;  0.0000000E+00; -2.7367928E+00;0; -6.1991882E-01;  1.0054712E+04;  0.0000000E+00; -3.0641286E-06;  1.0000000E+04;  0.0000000E+00;  9.9935684E+03; -7.3165631E-01;  0.0000000E+00;  1.1173747E-01;  3.2644751E+03;
  3.7953442E-01;  9.9999998E-03; -8.0023892E-02;1629; -1.6332705E-01;  0.0000000E+00; -9.9592693E-03;  1.0024075E+03;  4.0000001E-01;  1.9945100E+03;3; -3.8907406E+01;  0.0000000E+00; -2.1920600E+00;0; -6.2311435E-01;  1.0054487E+04;  0.0000000E+00; -2.0191983E-06;  1.0000000E+04;  0.0000000E+00;  9.9937422E+03; -7.3712099E-01;  0.0000000E+00;  1.1400667E-01;  3.1756812E+03;
  3.7953678E-01;  9.9999998E-03; -6.0017783E-02;1630; -1.6358347E-01;  0.0000000E+00; -7.5031524E-03;  1.0024052E+03;  4.0000001E-01;  1.9926335E+03;3; -3.9390831E+01;  0.0000000E+00; -1.6379893E+00;0; -6.2558788E-01;  1.0054313E+04;  0.0000000E+00; -1.0370137E-06;  1.0000000E+04;  0.0000000E+00;  9.9938701E+03; -7.4147332E-01;  0.0000000E+00;  1.1588546E-01;  3.1061887E+03;
  3.7953857E-01;  9.9999998E-03; -4.0011793E-02;1631; -1.6373558E-01;  0.0000000E+00; -5.0213048E-03;  1.0024036E+03;  4.0000001E-01;  1.9913496E+03;3; -3.9734985E+01;  0.0000000E+00; -1.0877360E+00;0; -6.2734461E-01;  1.0054184E+04;  0.0000000E+00; -3.9488776E-07;  1.0000000E+04;  0.0000000E+00;  9.9939688E+03; -7.4463981E-01;  0.0000000E+00;  1.1729518E-01;  3.0566167E+03;
  3.7953970E-01;  9.9999998E-03; -2.0005878E-02;1632; -1.6381352E-01;  0.0000000E+00; -2.5162196E-03;  1.0024024E+03;  4.0000001E-01;  1.9903619E+03;3; -3.9940266E+01;  0.0000000E+00; -5.4269677E-01;0; -6.2839150E-01;  1.0054104E+04;  0.0000000E+00; -8.6854577E-08;  1.0000000E+04;  0.0000000E+00;  9.9940215E+03; -7.4656314E-01;  0.0000000E+00;  1.1817163E-01;  3.0270544E+03;
  3.9946464E-01;  9.9999998E-03; -1.8006445E-01;1655; -1.7323571E-01;  0.0000000E+00; -2.3256497E-02;  1.0026395E+03;  4.0000001E-01;  2.1867017E+03;3; -3.6270138E+01;  0.0000000E+00; -4.8393197E+00;0; -6.3432014E-01;  1.0061241E+04;  0.0000000E+00;  8.5090778E-06;  1.0000000E+04;  0.0000000E+00;  9.9916523E+03; -7.4216354E-01;  0.0000000E+00;  1.0784342E-01;  4.2476533E+03;
  3.9946645E-01;  9.9999998E-03; -1.6005637E-01;1656; -1.7502965E-01;  0.0000000E+00; -2.0951105E-02;  1.0026456E+03;  4.0000001E-01;  2.1918372E+03;3; -3.7505550E+01;  0.0000000E+00; -4.3469892E+00;0; -6.4209348E-01;  1.0061011E+04;  0.0000000E+00; -2.0622604E-06;  1.0000000E+04;  0.0000000E+00;  9.9920049E+03; -7.5346637E-01;  0.0000000E+00;  1.1137290E-01;  4.0682275E+03;
  3.9946923E-01;  9.9999998E-03; -1.4004858E-01;1657; -1.7640287E-01;  0.0000000E+00; -1.8577261E-02;  1.0026468E+03;  4.0000001E-01;  2.1928250E+03;3; -3.8611324E+01;  0.0000000E+00; -3.8796544E+00;0; -6.4864796E-01;  1.0060730E+04;  0.0000000E+00; -2.8688753E-06;  1.0000000E+04;  0.0000000E+00;  9.9923096E+03; -7.6354057E-01;  0.0000000E+00;  1.1489261E-01;  3.9111106E+03;
  3.9947242E-01;  9.9999998E-03; -1.2004108E-01;1658; -1.7743945E-01;  0.0000000E+00; -1.6107542E-02;  1.0026453E+03;  4.0000001E-01;  2.1916396E+03;3; -3.9582825E+01;  0.0000000E+00; -3.3644741E+00;0; -6.5421182E-01;  1.0060436E+04;  0.0000000E+00; -3.8051246E-06;  1.0000000E+04;  0.0000000E+00;  9.9925684E+03; -7.7243608E-01;  0.0000000E+00;  1.1822426E-01;  3.7766636E+03;
  3.9947563E-01;  9.9999998E-03; -1.0003384E-01;1659; -1.7820030E-01;  0.0000000E+00; -1.3557441E-02;  1.0026426E+03;  4.0000001E-01;  2.1893682E+03;3; -4.0414944E+01;  0.0000000E+00; -2.8108323E+00;0; -6.5887117E-01;  1.0060162E+04;  0.0000000E+00; -3.4185989E-06;  1.0000000E+04;  0.0000000E+00;  9.9927881E+03; -7.8017443E-01;  0.0000000E+00;  1.2130323E-01;  3.6614927E+03;
  3.9947861E-01;  9.9999998E-03; -8.0026820E-02;1660; -1.7873655E-01;  0.0000000E+00; -1.0931780E-02;  1.0026404E+03;  4.0000001E-01;  2.1875906E+03;3; -4.1094982E+01;  0.0000000E+00; -2.2441669E+00;0; -6.6266209E-01;  1.0059932E+04;  0.0000000E+00; -2.2668639E-06;  1.0000000E+04;  0.0000000E+00;  9.9929707E+03; -7.8670365E-01;  0.0000000E+00;  1.2404154E-01;  3.5657578E+03;
  3.9948115E-01;  9.9999998E-03; -6.0019974E-02;1661; -1.7909820E-01;  0.0000000E+00; -8.2500093E-03;  1.0026383E+03;  4.0000001E-01;  2.1858127E+03;3; -4.1620964E+01;  0.0000000E+00; -1.6777544E+00;0; -6.6558969E-01;  1.0059747E+04;  0.0000000E+00; -1.1679203E-06;  1.0000000E+04;  0.0000000E+00;  9.9931143E+03; -7.9193115E-01;  0.0000000E+00;  1.2634143E-01;  3.4909985E+03;
  3.9948305E-01;  9.9999998E-03; -4.0013250E-02;1662; -1.7932512E-01;  0.0000000E+00; -5.5237482E-03;  1.0026367E+03;  4.0000001E-01;  2.1844302E+03;3; -4.1993652E+01;  0.0000000E+00; -1.1101513E+00;0; -6.6765440E-01;  1.0059621E+04;  0.0000000E+00; -4.4315402E-07;  1.0000000E+04;  0.0000000E+00;  9.9932168E+03; -7.9575199E-01;  0.0000000E+00;  1.2809756E-01;  3.4380886E+03;
  3.9948425E-01;  9.9999998E-03; -2.0006606E-02;1663; -1.7944750E-01;  0.0000000E+00; -2.7695063E-03;  1.0026359E+03;  4.0000001E-01;  2.1838374E+03;3; -4.2215832E+01;  0.0000000E+00; -5.5271190E-01;0; -6.6887689E-01;  1.0059541E+04;  0.0000000E+00; -9.6348082E-08;  1.0000000E+04;  0.0000000E+00;  9.9932734E+03; -7.9808211E-01;  0.0000000E+00;  1.2920526E-01;  3.4068176E+03;
  4.1940174E-01;  9.9999998E-03; -1.8007125E-01;1686; -1.8862478E-01;  0.0000000E+00; -2.4858121E-02;  1.0028944E+03;  4.0000001E-01;  2.3979539E+03;3; -3.8003273E+01;  0.0000000E+00; -4.8176737E+00;0; -6.7242718E-01;  1.0067185E+04;  0.0000000E+00;  3.6076860E-06;  1.0000000E+04;  0.0000000E+00;  9.9908291E+03; -7.8612608E-01;  0.0000000E+00;  1.1369888E-01;  4.6731675E+03;
  4.1940394E-01;  9.9999998E-03; -1.6006230E-01;1687; -1.9065982E-01;  0.0000000E+00; -2.2421815E-02;  1.0028994E+03;  4.0000001E-01;  2.4021018E+03;3; -3.9333183E+01;  0.0000000E+00; -4.3473248E+00;0; -6.8116611E-01;  1.0066924E+04;  0.0000000E+00; -3.0726394E-06;  1.0000000E+04;  0.0000000E+00;  9.9911934E+03; -7.9911691E-01;  0.0000000E+00;  1.1795080E-01;  4.4884282E+03;
  4.1940707E-01;  9.9999998E-03; -1.4005369E-01;1688; -1.9226728E-01;  0.0000000E+00; -1.9894868E-02;  1.0028997E+03;  4.0000001E-01;  2.4022993E+03;3; -4.0543095E+01;  0.0000000E+00; -3.8752396E+00;0; -6.8859947E-01;  1.0066617E+04;  0.0000000E+00; -2.1885114E-06;  1.0000000E+04;  0.0000000E+00;  9.9914980E+03; -8.1067759E-01;  0.0000000E+00;  1.2207814E-01;  4.3274951E+03;
  4.1941056E-01;  9.9999998E-03; -1.2004539E-01;1689; -1.9351956E-01;  0.0000000E+00; -1.7268801E-02;  1.0028966E+03;  4.0000001E-01;  2.3997314E+03;3; -4.1607174E+01;  0.0000000E+00; -3.3512421E+00;0; -6.9498545E-01;  1.0066296E+04;  0.0000000E+00; -3.2031207E-06;  1.0000000E+04;  0.0000000E+00;  9.9917666E+03; -8.2089841E-01;  0.0000000E+00;  1.2591296E-01;  4.1892144E+03;
  4.1941407E-01;  9.9999998E-03; -1.0003740E-01;1690; -1.9447105E-01;  0.0000000E+00; -1.4558509E-02;  1.0028937E+03;  4.0000001E-01;  2.3973613E+03;3; -4.2514423E+01;  0.0000000E+00; -2.7958977E+00;0; -7.0037341E-01;  1.0066005E+04;  0.0000000E+00; -3.2268142E-06;  1.0000000E+04;  0.0000000E+00;  9.9919932E+03; -8.2981682E-01;  0.0000000E+00;  1.2944344E-01;  4.0696777E+03;
  4.1941726E-01;  9.9999998E-03; -8.0029659E-02;1691; -1.9516689E-01;  0.0000000E+00; -1.1753617E-02;  1.0028910E+03;  4.0000001E-01;  2.3950896E+03;3; -4.3250973E+01;  0.0000000E+00; -2.2262449E+00;0; -7.0476246E-01;  1.0065758E+04;  0.0000000E+00; -2.2625411E-06;  1.0000000E+04;  0.0000000E+00;  9.9921826E+03; -8.3737665E-01;  0.0000000E+00;  1.3261421E-01;  3.9697119E+03;
  4.1941994E-01;  9.9999998E-03; -6.0022108E-02;1692; -1.9565545E-01;  0.0000000E+00; -8.8852579E-03;  1.0028889E+03;  4.0000001E-01;  2.3933120E+03;3; -4.3817936E+01;  0.0000000E+00; -1.6625360E+00;0; -7.0813125E-01;  1.0065567E+04;  0.0000000E+00; -1.1965728E-06;  1.0000000E+04;  0.0000000E+00;  9.9923291E+03; -8.4345633E-01;  0.0000000E+00;  1.3532507E-01;  3.8917051E+03;
  4.1942197E-01;  9.9999998E-03; -4.0014677E-02;1693; -1.9597280E-01;  0.0000000E+00; -5.9570884E-03;  1.0028874E+03;  4.0000001E-01;  2.3921267E+03;3; -4.4216885E+01;  0.0000000E+00; -1.1015551E+00;0; -7.1048450E-01;  1.0065431E+04;  0.0000000E+00; -4.4998902E-07;  1.0000000E+04;  0.0000000E+00;  9.9924336E+03; -8.4791964E-01;  0.0000000E+00;  1.3743515E-01;  3.8368569E+03;
  4.1942322E-01;  9.9999998E-03; -2.0007323E-02;1694; -1.9614972E-01;  0.0000000E+00; -2.9884672E-03;  1.0028863E+03;  4.0000001E-01;  2.3912380E+03;3; -4.4454449E+01;  0.0000000E+00; -5.4610538E-01;0; -7.1186346E-01;  1.0065354E+04;  0.0000000E+00; -9.8049057E-08;  1.0000000E+04;  0.0000000E+00;  9.9924941E+03; -8.5065025E-01;  0.0000000E+00;  1.3878679E-01;  3.8047168E+03;
  4.3933284E-01;  9.9999998E-03; -1.8007801E-01;1717; -2.0489226E-01;  0.0000000E+00; -2.6158061E-02;  1.0031703E+03;  4.0000001E-01;  2.6264893E+03;3; -3.9671703E+01;  0.0000000E+00; -4.6869197E+00;0; -7.1258277E-01;  1.0073563E+04;  0.0000000E+00;  3.7274060E-06;  1.0000000E+04;  0.0000000E+00;  9.9900078E+03; -8.3117604E-01;  0.0000000E+00;  1.1859330E-01;  5.1027397E+03;
  4.3933544E-01;  9.9999998E-03; -1.6006817E-01;1718; -2.0720603E-01;  0.0000000E+00; -2.3580370E-02;  1.0031732E+03;  4.0000001E-01;  2.6289583E+03;3; -4.1103657E+01;  0.0000000E+00; -4.2397842E+00;0; -7.2231829E-01;  1.0073251E+04;  0.0000000E+00;  5.0008276E-07;  1.0000000E+04;  0.0000000E+00;  9.9903721E+03; -8.4566218E-01;  0.0000000E+00;  1.2334387E-01;  4.9136050E+03;
  4.3933898E-01;  9.9999998E-03; -1.4005873E-01;1719; -2.0907801E-01;  0.0000000E+00; -2.0912973E-02;  1.0031706E+03;  4.0000001E-01;  2.6267856E+03;3; -4.2424091E+01;  0.0000000E+00; -3.7588401E+00;0; -7.3065495E-01;  1.0072890E+04;  0.0000000E+00;  1.7744532E-06;  1.0000000E+04;  0.0000000E+00;  9.9906787E+03; -8.5856730E-01;  0.0000000E+00;  1.2791234E-01;  4.7541885E+03;
  4.3934286E-01;  9.9999998E-03; -1.2004966E-01;1720; -2.1057612E-01;  0.0000000E+00; -1.8158033E-02;  1.0031660E+03;  4.0000001E-01;  2.6229338E+03;3; -4.3587902E+01;  0.0000000E+00; -3.2260184E+00;0; -7.3786533E-01;  1.0072535E+04;  0.0000000E+00; -7.5586814E-07;  1.0000000E+04;  0.0000000E+00;  9.9909355E+03; -8.6999309E-01;  0.0000000E+00;  1.3212779E-01;  4.6189932E+03;
  4.3934664E-01;  9.9999998E-03; -1.0004094E-01;1721; -2.1174644E-01;  0.0000000E+00; -1.5322855E-02;  1.0031609E+03;  4.0000001E-01;  2.6186870E+03;3; -4.4570698E+01;  0.0000000E+00; -2.6836922E+00;0; -7.4397278E-01;  1.0072212E+04;  0.0000000E+00; -2.1371022E-06;  1.0000000E+04;  0.0000000E+00;  9.9911572E+03; -8.7998933E-01;  0.0000000E+00;  1.3601653E-01;  4.5012700E+03;
  4.3935004E-01;  9.9999998E-03; -8.0032498E-02;1722; -2.1262920E-01;  0.0000000E+00; -1.2392571E-02;  1.0031573E+03;  4.0000001E-01;  2.6157241E+03;3; -4.5361370E+01;  0.0000000E+00; -2.1305931E+00;0; -7.4893934E-01;  1.0071944E+04;  0.0000000E+00; -1.8951418E-06;  1.0000000E+04;  0.0000000E+00;  9.9913496E+03; -8.8849074E-01;  0.0000000E+00;  1.3955140E-01;  4.4016338E+03;
  4.3935290E-01;  9.9999998E-03; -6.0024250E-02;1723; -2.1326636E-01;  0.0000000E+00; -9.3850549E-03;  1.0031545E+03;  4.0000001E-01;  2.6134526E+03;3; -4.5966179E+01;  0.0000000E+00; -1.5887918E+00;0; -7.5272626E-01;  1.0071739E+04;  0.0000000E+00; -1.0843858E-06;  1.0000000E+04;  0.0000000E+00;  9.9915000E+03; -8.9535606E-01;  0.0000000E+00;  1.4262980E-01;  4.3233638E+03;
  4.3935502E-01;  9.9999998E-03; -4.0016118E-02;1724; -2.1369086E-01;  0.0000000E+00; -6.3033635E-03;  1.0031525E+03;  4.0000001E-01;  2.6117737E+03;3; -4.6389198E+01;  0.0000000E+00; -1.0525374E+00;0; -7.5534344E-01;  1.0071600E+04;  0.0000000E+00; -4.3236571E-07;  1.0000000E+04;  0.0000000E+00;  9.9915967E+03; -9.0041584E-01;  0.0000000E+00;  1.4507237E-01;  4.2683618E+03;
  4.3935636E-01;  9.9999998E-03; -2.0008046E-02;1725; -2.1393220E-01;  0.0000000E+00; -3.1652083E-03;  1.0031511E+03;  4.0000001E-01;  2.6106873E+03;3; -4.6640034E+01;  0.0000000E+00; -5.2148283E-01;0; -7.5685966E-01;  1.0071513E+04;  0.0000000E+00; -8.9628593E-08;  1.0000000E+04;  0.0000000E+00;  9.9916572E+03; -9.0352017E-01;  0.0000000E+00;  1.4666048E-01;  4.2362930E+03;
  4.5925736E-01;  9.9999998E-03; -1.8008494E-01;1748; -2.2207440E-01;  0.0000000E+00; -2.7097993E-02;  1.0034666E+03;  4.0000102E-01;  2.8720110E+03;3; -4.1270954E+01;  0.0000000E+00; -4.4107885E+00;0; -7.5413674E-01;  1.0080289E+04;  0.0000000E+00;  1.6208605E-05;  1.0000000E+04;  0.0000000E+00;  9.9891865E+03; -8.7634903E-01;  0.0000000E+00;  1.2221228E-01;  5.5322935E+03;
  4.5926046E-01;  9.9999998E-03; -1.6007425E-01;1749; -2.2469619E-01;  0.0000000E+00; -2.4384361E-02;  1.0034647E+03;  4.0000096E-01;  2.8704309E+03;3; -4.2819351E+01;  0.0000000E+00; -3.9681861E+00;0; -7.6476473E-01;  1.0079893E+04;  0.0000000E+00;  1.2797078E-05;  1.0000000E+04;  0.0000000E+00;  9.9895439E+03; -8.9207470E-01;  0.0000000E+00;  1.2730999E-01;  5.3466792E+03;
  4.5926452E-01;  9.9999998E-03; -1.4006400E-01;1750; -2.2685789E-01;  0.0000000E+00; -2.1597678E-02;  1.0034575E+03;  4.0000108E-01;  2.8644063E+03;3; -4.4257896E+01;  0.0000000E+00; -3.4806275E+00;0; -7.7390504E-01;  1.0079469E+04;  0.0000000E+00;  1.1415899E-05;  1.0000000E+04;  0.0000000E+00;  9.9898242E+03; -9.0613770E-01;  0.0000000E+00;  1.3223267E-01;  5.2014727E+03;
  4.5926881E-01;  9.9999998E-03; -1.2005416E-01;1751; -2.2862232E-01;  0.0000000E+00; -1.8751770E-02;  1.0034487E+03;  4.0000099E-01;  2.8571968E+03;3; -4.5515064E+01;  0.0000000E+00; -2.9692059E+00;0; -7.8184712E-01;  1.0079066E+04;  0.0000000E+00;  4.6682235E-06;  1.0000000E+04;  0.0000000E+00;  9.9900449E+03; -9.1861778E-01;  0.0000000E+00;  1.3677065E-01;  5.0825249E+03;
  4.5927292E-01;  9.9999998E-03; -1.0004468E-01;1752; -2.3003368E-01;  0.0000000E+00; -1.5837288E-02;  1.0034410E+03;  4.0000096E-01;  2.8508760E+03;3; -4.6568123E+01;  0.0000000E+00; -2.4612694E+00;0; -7.8860033E-01;  1.0078712E+04;  0.0000000E+00;  2.5463601E-07;  1.0000000E+04;  0.0000000E+00;  9.9902441E+03; -9.2955989E-01;  0.0000000E+00;  1.4095953E-01;  4.9771616E+03;
  4.5927656E-01;  9.9999998E-03; -8.0035515E-02;1753; -2.3112623E-01;  0.0000000E+00; -1.2832885E-02;  1.0034351E+03;  4.0000093E-01;  2.8459377E+03;3; -4.7409920E+01;  0.0000000E+00; -1.9517308E+00;0; -7.9409266E-01;  1.0078420E+04;  0.0000000E+00; -1.0542693E-06;  1.0000000E+04;  0.0000000E+00;  9.9904180E+03; -9.3888825E-01;  0.0000000E+00;  1.4479561E-01;  4.8849292E+03;
  4.5927957E-01;  9.9999998E-03; -6.0026541E-02;1754; -2.3193215E-01;  0.0000000E+00; -9.7377459E-03;  1.0034311E+03;  4.0000093E-01;  2.8425798E+03;3; -4.8047817E+01;  0.0000000E+00; -1.4522814E+00;0; -7.9826164E-01;  1.0078195E+04;  0.0000000E+00; -8.3055579E-07;  1.0000000E+04;  0.0000000E+00;  9.9905537E+03; -9.4644421E-01;  0.0000000E+00;  1.4818259E-01;  4.8105083E+03;
  4.5928180E-01;  9.9999998E-03; -4.0017672E-02;1755; -2.3248002E-01;  0.0000000E+00; -6.5533998E-03;  1.0034280E+03;  4.0000093E-01;  2.8400120E+03;3; -4.8492180E+01;  0.0000000E+00; -9.6387845E-01;0; -8.0111742E-01;  1.0078043E+04;  0.0000000E+00; -3.4821198E-07;  1.0000000E+04;  0.0000000E+00;  9.9906553E+03; -9.5202923E-01;  0.0000000E+00;  1.5091179E-01;  4.7574453E+03;
  4.5928320E-01;  9.9999998E-03; -2.0008830E-02;1756; -2.3279589E-01;  0.0000000E+00; -3.2955171E-03;  1.0034264E+03;  4.0000096E-01;  2.8387280E+03;3; -4.8753723E+01;  0.0000000E+00; -4.7765666E-01;0; -8.0275536E-01;  1.0077952E+04;  0.0000000E+00; -7.9479641E-08;  1.0000000E+04;  0.0000000E+00;  9.9907090E+03; -9.5546395E-01;  0.0000000E+00;  1.5270859E-01;  4.7263584E+03;
  4.7917476E-01;  9.9999998E-03; -1.8009248E-01;1779; -2.4021380E-01;  0.0000000E+00; -2.7639365E-02;  1.0037710E+03;  4.0000281E-01;  3.1241497E+03;3; -4.2791950E+01;  0.0000000E+00; -3.9705074E+00;0; -7.9533362E-01;  1.0087139E+04;  0.0000000E+00;  5.0333991E-05;  1.0000000E+04;  0.0000000E+00;  9.9883721E+03; -9.1946876E-01;  0.0000000E+00;  1.2413513E-01;  5.9627529E+03;
  4.7917852E-01;  9.9999998E-03; -1.6008106E-01;1780; -2.4316639E-01;  0.0000000E+00; -2.4823587E-02;  1.0037618E+03;  4.0000278E-01;  3.1165449E+03;3; -4.4474209E+01;  0.0000000E+00; -3.5190725E+00;0; -8.0656278E-01;  1.0086635E+04;  0.0000000E+00;  4.0457733E-05;  1.0000000E+04;  0.0000000E+00;  9.9886924E+03; -9.3611187E-01;  0.0000000E+00;  1.2954906E-01;  5.7973037E+03;
  4.7918314E-01;  9.9999998E-03; -1.4007001E-01;1781; -2.4562852E-01;  0.0000000E+00; -2.1958655E-02;  1.0037479E+03;  4.0000281E-01;  3.1049897E+03;3; -4.6030327E+01;  0.0000000E+00; -3.0342352E+00;0; -8.1624448E-01;  1.0086144E+04;  0.0000000E+00;  3.0966963E-05;  1.0000000E+04;  0.0000000E+00;  9.9888926E+03; -9.5112401E-01;  0.0000000E+00;  1.3487956E-01;  5.6877817E+03;
  4.7918794E-01;  9.9999998E-03; -1.2005934E-01;1782; -2.4767065E-01;  0.0000000E+00; -1.9062061E-02;  1.0037327E+03;  4.0000275E-01;  3.0924468E+03;3; -4.7373936E+01;  0.0000000E+00; -2.5692387E+00;0; -8.2470405E-01;  1.0085694E+04;  0.0000000E+00;  1.5315019E-05;  1.0000000E+04;  0.0000000E+00;  9.9890430E+03; -9.6450800E-01;  0.0000000E+00;  1.3980395E-01;  5.6053652E+03;
  4.7919241E-01;  9.9999998E-03; -1.0004903E-01;1783; -2.4933805E-01;  0.0000000E+00; -1.6113639E-02;  1.0037205E+03;  4.0000290E-01;  3.0823730E+03;3; -4.8491199E+01;  0.0000000E+00; -2.1249943E+00;0; -8.3195627E-01;  1.0085309E+04;  0.0000000E+00;  4.8226652E-06;  1.0000000E+04;  0.0000000E+00;  9.9891826E+03; -9.7626776E-01;  0.0000000E+00;  1.4431152E-01;  5.5275801E+03;
  4.7919634E-01;  9.9999998E-03; -8.0039039E-02;1784; -2.5065708E-01;  0.0000000E+00; -1.3080482E-02;  1.0037117E+03;  4.0000260E-01;  3.0750647E+03;3; -4.9378521E+01;  0.0000000E+00; -1.6863091E+00;0; -8.3789170E-01;  1.0084991E+04;  0.0000000E+00;  4.9906708E-07;  1.0000000E+04;  0.0000000E+00;  9.9893184E+03; -9.8630673E-01;  0.0000000E+00;  1.4841501E-01;  5.4522256E+03;
  4.7919953E-01;  9.9999998E-03; -6.0029227E-02;1785; -2.5164914E-01;  0.0000000E+00; -9.9487444E-03;  1.0037055E+03;  4.0000296E-01;  3.0699290E+03;3; -5.0045712E+01;  0.0000000E+00; -1.2577381E+00;0; -8.4240294E-01;  1.0084750E+04;  0.0000000E+00; -4.4037867E-07;  1.0000000E+04;  0.0000000E+00;  9.9894395E+03; -9.9444854E-01;  0.0000000E+00;  1.5204558E-01;  5.3865674E+03;
  4.7920188E-01;  9.9999998E-03; -4.0019486E-02;1786; -2.5233403E-01;  0.0000000E+00; -6.7076324E-03;  1.0037016E+03;  4.0000269E-01;  3.0666699E+03;3; -5.0506737E+01;  0.0000000E+00; -8.3490598E-01;0; -8.4548378E-01;  1.0084583E+04;  0.0000000E+00; -2.7415228E-07;  1.0000000E+04;  0.0000000E+00;  9.9895313E+03; -1.0004761E+00;  0.0000000E+00;  1.5499231E-01;  5.3374819E+03;
  4.7920334E-01;  9.9999998E-03; -2.0009751E-02;1787; -2.5273374E-01;  0.0000000E+00; -3.3790390E-03;  1.0036993E+03;  4.0000272E-01;  3.0647935E+03;3; -5.0776623E+01;  0.0000000E+00; -4.1499695E-01;0; -8.4724170E-01;  1.0084479E+04;  0.0000000E+00; -7.2080667E-08;  1.0000000E+04;  0.0000000E+00;  9.9895850E+03; -1.0041890E+00;  0.0000000E+00;  1.5694733E-01;  5.3079858E+03;
  4.9908447E-01;  9.9999998E-03; -1.8010142E-01;1810; -2.5935942E-01;  0.0000000E+00; -2.7767835E-02;  1.0040636E+03;  4.0000680E-01;  3.3666077E+03;3; -4.4249508E+01;  0.0000000E+00; -3.2661653E+00;0; -8.3239412E-01;  1.0093658E+04;  0.0000000E+00;  1.1654336E-04;  1.0000000E+04;  0.0000000E+00;  9.9875322E+03; -9.5642579E-01;  0.0000000E+00;  1.2403163E-01;  6.4103467E+03;
  4.9908897E-01;  9.9999998E-03; -1.6008945E-01;1811; -2.6265112E-01;  0.0000000E+00; -2.4934968E-02;  1.0040438E+03;  4.0000659E-01;  3.3502131E+03;3; -4.6071915E+01;  0.0000000E+00; -2.8335626E+00;0; -8.4375751E-01;  1.0093039E+04;  0.0000000E+00;  9.2940652E-05;  1.0000000E+04;  0.0000000E+00;  9.9877568E+03; -9.7360581E-01;  0.0000000E+00;  1.2984832E-01;  6.2882085E+03;
  4.9909434E-01;  9.9999998E-03; -1.4007759E-01;1812; -2.6541314E-01;  0.0000000E+00; -2.2050092E-02;  1.0040198E+03;  4.0000674E-01;  3.3303618E+03;3; -4.7733406E+01;  0.0000000E+00; -2.4091463E+00;0; -8.5356063E-01;  1.0092482E+04;  0.0000000E+00;  6.8046014E-05;  1.0000000E+04;  0.0000000E+00;  9.9878271E+03; -9.8934507E-01;  0.0000000E+00;  1.3578445E-01;  6.2423994E+03;
  4.9909970E-01;  9.9999998E-03; -1.2006593E-01;1813; -2.6773524E-01;  0.0000000E+00; -1.9139623E-02;  1.0039973E+03;  4.0000659E-01;  3.3116958E+03;3; -4.9152775E+01;  0.0000000E+00; -2.0193374E+00;0; -8.6220932E-01;  1.0091999E+04;  0.0000000E+00;  3.5907735E-05;  1.0000000E+04;  0.0000000E+00;  9.9878486E+03; -1.0034958E+00;  0.0000000E+00;  1.4128646E-01;  6.2220449E+03;
  4.9910465E-01;  9.9999998E-03; -1.0005457E-01;1814; -2.6966453E-01;  0.0000000E+00; -1.6189612E-02;  1.0039789E+03;  4.0000659E-01;  3.2963877E+03;3; -5.0324547E+01;  0.0000000E+00; -1.6674927E+00;0; -8.6975217E-01;  1.0091591E+04;  0.0000000E+00;  1.3864634E-05;  1.0000000E+04;  0.0000000E+00;  9.9879004E+03; -1.0159652E+00;  0.0000000E+00;  1.4621304E-01;  6.1903179E+03;
  4.9910888E-01;  9.9999998E-03; -8.0043495E-02;1815; -2.7121970E-01;  0.0000000E+00; -1.3163338E-02;  1.0039661E+03;  4.0000668E-01;  3.2858201E+03;3; -5.1250721E+01;  0.0000000E+00; -1.3344865E+00;0; -8.7603229E-01;  1.0091253E+04;  0.0000000E+00;  3.6142005E-06;  1.0000000E+04;  0.0000000E+00;  9.9879756E+03; -1.0266119E+00;  0.0000000E+00;  1.5057965E-01;  6.1426689E+03;
  4.9911228E-01;  9.9999998E-03; -6.0032602E-02;1816; -2.7240935E-01;  0.0000000E+00; -1.0032751E-02;  1.0039581E+03;  4.0000665E-01;  3.2792031E+03;3; -5.1942196E+01;  0.0000000E+00; -1.0048862E+00;0; -8.8086176E-01;  1.0090993E+04;  0.0000000E+00;  3.4656753E-07;  1.0000000E+04;  0.0000000E+00;  9.9880693E+03; -1.0352404E+00;  0.0000000E+00;  1.5437865E-01;  6.0907388E+03;
  4.9911478E-01;  9.9999998E-03; -4.0021766E-02;1817; -2.7324292E-01;  0.0000000E+00; -6.7791166E-03;  1.0039527E+03;  4.0000677E-01;  3.2747588E+03;3; -5.2416595E+01;  0.0000000E+00; -6.7001730E-01;0; -8.8417995E-01;  1.0090813E+04;  0.0000000E+00; -1.6033628E-07;  1.0000000E+04;  0.0000000E+00;  9.9881494E+03; -1.0416251E+00;  0.0000000E+00;  1.5744516E-01;  6.0471118E+03;
  4.9911630E-01;  9.9999998E-03; -2.0010900E-02;1818; -2.7373362E-01;  0.0000000E+00; -3.4202761E-03;  1.0039502E+03;  4.0000677E-01;  3.2726848E+03;3; -5.2691746E+01;  0.0000000E+00; -3.3499989E-01;0; -8.8607693E-01;  1.0090701E+04;  0.0000000E+00; -5.8744085E-08;  1.0000000E+04;  0.0000000E+00;  9.9881982E+03; -1.0455570E+00;  0.0000000E+00;  1.5948008E-01;  6.0192246E+03;
  5.1898623E-01;  9.9999998E-03; -1.8011299E-01;1841; -2.7951533E-01;  0.0000000E+00; -2.7541701E-02;  1.0043168E+03;  4.0001824E-01;  3.5763738E+03;3; -4.5645317E+01;  0.0000000E+00; -2.2623813E+00;0; -8.5878325E-01;  1.0099125E+04;  0.0000000E+00;  2.1264666E-04;  1.0000000E+04;  0.0000000E+00;  9.9865557E+03; -9.8073494E-01;  0.0000000E+00;  1.2195167E-01;  6.9205698E+03;
  5.1899159E-01;  9.9999998E-03; -1.6010053E-01;1842; -2.8314626E-01;  0.0000000E+00; -2.4808163E-02;  1.0042851E+03;  4.0001833E-01;  3.5501030E+03;3; -4.7600063E+01;  0.0000000E+00; -1.9121896E+00;0; -8.6977005E-01;  1.0098392E+04;  0.0000000E+00;  1.7316526E-04;  1.0000000E+04;  0.0000000E+00;  9.9866523E+03; -9.9804485E-01;  0.0000000E+00;  1.2827481E-01;  6.8623799E+03;
  5.1899767E-01;  9.9999998E-03; -1.4008771E-01;1843; -2.8621328E-01;  0.0000000E+00; -2.1970760E-02;  1.0042496E+03;  4.0001842E-01;  3.5207708E+03;3; -4.9358738E+01;  0.0000000E+00; -1.5980889E+00;0; -8.7921184E-01;  1.0097785E+04;  0.0000000E+00;  1.2992218E-04;  1.0000000E+04;  0.0000000E+00;  9.9865381E+03; -1.0142680E+00;  0.0000000E+00;  1.3505620E-01;  6.9067720E+03;
  5.1900375E-01;  9.9999998E-03; -1.2007477E-01;1844; -2.8881380E-01;  0.0000000E+00; -1.9064931E-02;  1.0042169E+03;  4.0001827E-01;  3.4936111E+03;3; -5.0844780E+01;  0.0000000E+00; -1.3242474E+00;0; -8.8766086E-01;  1.0097284E+04;  0.0000000E+00;  7.3189185E-05;  1.0000000E+04;  0.0000000E+00;  9.9863838E+03; -1.0290384E+00;  0.0000000E+00;  1.4137755E-01;  6.9734121E+03;
  5.1900917E-01;  9.9999998E-03; -1.0006196E-01;1845; -2.9100254E-01;  0.0000000E+00; -1.6122073E-02;  1.0041920E+03;  4.0001833E-01;  3.4729700E+03;3; -5.2057884E+01;  0.0000000E+00; -1.0932024E+00;0; -8.9525276E-01;  1.0096868E+04;  0.0000000E+00;  3.1588170E-05;  1.0000000E+04;  0.0000000E+00;  9.9862988E+03; -1.0421089E+00;  0.0000000E+00;  1.4685614E-01;  7.0058833E+03;
  5.1901376E-01;  9.9999998E-03; -8.0049410E-02;1846; -2.9279587E-01;  0.0000000E+00; -1.3122641E-02;  1.0041753E+03;  4.0001822E-01;  3.4591431E+03;3; -5.3013489E+01;  0.0000000E+00; -8.9467263E-01;0; -9.0177679E-01;  1.0096526E+04;  0.0000000E+00;  1.0359468E-05;  1.0000000E+04;  0.0000000E+00;  9.9863066E+03; -1.0532594E+00;  0.0000000E+00;  1.5148258E-01;  6.9961685E+03;
  5.1901740E-01;  9.9999998E-03; -6.0037039E-02;1847; -2.9418805E-01;  0.0000000E+00; -1.0016217E-02;  1.0041647E+03;  4.0001839E-01;  3.4503533E+03;3; -5.3724735E+01;  0.0000000E+00; -6.9548708E-01;0; -9.0692103E-01;  1.0096261E+04;  0.0000000E+00;  2.3643099E-06;  1.0000000E+04;  0.0000000E+00;  9.9863604E+03; -1.0622696E+00;  0.0000000E+00;  1.5534857E-01;  6.9620439E+03;
  5.1902008E-01;  9.9999998E-03; -4.0024731E-02;1848; -2.9517624E-01;  0.0000000E+00; -6.7820121E-03;  1.0041583E+03;  4.0001833E-01;  3.4450203E+03;3; -5.4209648E+01;  0.0000000E+00; -4.7872254E-01;0; -9.1052151E-01;  1.0096068E+04;  0.0000000E+00;  2.6234460E-07;  1.0000000E+04;  0.0000000E+00;  9.9864258E+03; -1.0689189E+00;  0.0000000E+00;  1.5839747E-01;  6.9244160E+03;
  5.1902175E-01;  9.9999998E-03; -2.0012394E-02;1849; -2.9576495E-01;  0.0000000E+00; -3.4278324E-03;  1.0041554E+03;  4.0001827E-01;  3.4426499E+03;3; -5.4489628E+01;  0.0000000E+00; -2.4632770E-01;0; -9.1260570E-01;  1.0095952E+04;  0.0000000E+00; -7.4035733E-09;  1.0000000E+04;  0.0000000E+00;  9.9864736E+03; -1.0730053E+00;  0.0000000E+00;  1.6039962E-01;  6.8974448E+03;
  5.3888047E-01;  9.9999998E-03; -1.8012859E-01;1872; -3.0054367E-01;  0.0000000E+00; -2.7082017E-02;  1.0045000E+03;  4.0004909E-01;  3.7281650E+03;3; -4.6968796E+01;  0.0000000E+00; -9.2340100E-01;0; -8.6501253E-01;  1.0102509E+04;  0.0000000E+00;  3.0321529E-04;  1.0000000E+04;  0.0000000E+00;  9.9852607E+03; -9.8368156E-01;  0.0000000E+00;  1.1866902E-01;  7.5833735E+03;
  5.3888667E-01;  9.9999998E-03; -1.6011545E-01;1873; -3.0453026E-01;  0.0000000E+00; -2.4539700E-02;  1.0044579E+03;  4.0004933E-01;  3.6932034E+03;3; -4.9045139E+01;  0.0000000E+00; -7.2651881E-01;0; -8.7537253E-01;  1.0101693E+04;  0.0000000E+00;  2.5334957E-04;  1.0000000E+04;  0.0000000E+00;  9.9852207E+03; -1.0007855E+00;  0.0000000E+00;  1.2541297E-01;  7.5919712E+03;
  5.3889352E-01;  9.9999998E-03; -1.4010136E-01;1874; -3.0791926E-01;  0.0000000E+00; -2.1796633E-02;  1.0044116E+03;  4.0004894E-01;  3.6548835E+03;3; -5.0891762E+01;  0.0000000E+00; -5.8800024E-01;0; -8.8416052E-01;  1.0101078E+04;  0.0000000E+00;  2.0637258E-04;  1.0000000E+04;  0.0000000E+00;  9.9849072E+03; -1.0172472E+00;  0.0000000E+00;  1.3308667E-01;  7.7363047E+03;
  5.3890020E-01;  9.9999998E-03; -1.2008665E-01;1875; -3.1080773E-01;  0.0000000E+00; -1.8921025E-02;  1.0043694E+03;  4.0004915E-01;  3.6199219E+03;3; -5.2435131E+01;  0.0000000E+00; -4.8821062E-01;0; -8.9213264E-01;  1.0100591E+04;  0.0000000E+00;  1.2787605E-04;  1.0000000E+04;  0.0000000E+00;  9.9845449E+03; -1.0324602E+00;  0.0000000E+00;  1.4032754E-01;  7.9032178E+03;
  5.3890616E-01;  9.9999998E-03; -1.0007185E-01;1876; -3.1325331E-01;  0.0000000E+00; -1.5977342E-02;  1.0043377E+03;  4.0004927E-01;  3.5936511E+03;3; -5.3678879E+01;  0.0000000E+00; -4.0822443E-01;0; -8.9958256E-01;  1.0100191E+04;  0.0000000E+00;  6.1421735E-05;  1.0000000E+04;  0.0000000E+00;  9.9843076E+03; -1.0459874E+00;  0.0000000E+00;  1.4640479E-01;  8.0114673E+03;
  5.3891116E-01;  9.9999998E-03; -8.0057263E-02;1877; -3.1527877E-01;  0.0000000E+00; -1.2990849E-02;  1.0043170E+03;  4.0004933E-01;  3.5765654E+03;3; -5.4654259E+01;  0.0000000E+00; -3.6997283E-01;0; -9.0628141E-01;  1.0099861E+04;  0.0000000E+00;  2.3282333E-05;  1.0000000E+04;  0.0000000E+00;  9.9842236E+03; -1.0575073E+00;  0.0000000E+00;  1.5122585E-01;  8.0464580E+03;
  5.3891516E-01;  9.9999998E-03; -6.0042895E-02;1878; -3.1687266E-01;  0.0000000E+00; -9.9242069E-03;  1.0043051E+03;  4.0004927E-01;  3.5665903E+03;3; -5.5377792E+01;  0.0000000E+00; -3.3161023E-01;0; -9.1177022E-01;  1.0099599E+04;  0.0000000E+00;  6.8437980E-06;  1.0000000E+04;  0.0000000E+00;  9.9842393E+03; -1.0667710E+00;  0.0000000E+00;  1.5500081E-01;  8.0324116E+03;
  5.3891802E-01;  9.9999998E-03; -4.0028617E-02;1879; -3.1801894E-01;  0.0000000E+00; -6.7255427E-03;  1.0042980E+03;  4.0004933E-01;  3.5608623E+03;3; -5.5873714E+01;  0.0000000E+00; -2.6120102E-01;0; -9.1572762E-01;  1.0099408E+04;  0.0000000E+00;  1.5364686E-06;  1.0000000E+04;  0.0000000E+00;  9.9842891E+03; -1.0735701E+00;  0.0000000E+00;  1.5784250E-01;  8.0003936E+03;
  5.3891975E-01;  9.9999998E-03; -2.0014323E-02;1880; -3.1870866E-01;  0.0000000E+00; -3.4006871E-03;  1.0042947E+03;  4.0004921E-01;  3.5580969E+03;3; -5.6159954E+01;  0.0000000E+00; -1.4588037E-01;0; -9.1807139E-01;  1.0099288E+04;  0.0000000E+00;  2.3394512E-07;  1.0000000E+04;  0.0000000E+00;  9.9843418E+03; -1.0777321E+00;  0.0000000E+00;  1.5966070E-01;  7.9732354E+03;
  5.5876946E-01;  9.9999998E-03; -1.8014972E-01;1903; -3.2198888E-01;  0.0000000E+00; -2.6547303E-02;  1.0046175E+03;  4.0013221E-01;  3.8254360E+03;3; -4.8186363E+01;  0.0000000E+00;  7.4457085E-01;0; -8.3895850E-01;  1.0102535E+04;  0.0000000E+00;  3.1696926E-04;  1.0000000E+04;  0.0000000E+00;  9.9833535E+03; -9.5486939E-01;  0.0000000E+00;  1.1591087E-01;  8.5369678E+03;
  5.5877626E-01;  9.9999998E-03; -1.6013534E-01;1904; -3.2637697E-01;  0.0000000E+00; -2.4194906E-02;  1.0045720E+03;  4.0013251E-01;  3.7878079E+03;3; -5.0364075E+01;  0.0000000E+00;  7.3031193E-01;0; -8.4914434E-01;  1.0101734E+04;  0.0000000E+00;  2.5402379E-04;  1.0000000E+04;  0.0000000E+00;  9.9832344E+03; -9.7175360E-01;  0.0000000E+00;  1.2260929E-01;  8.5843604E+03;
  5.5878365E-01;  9.9999998E-03; -1.4011934E-01;1905; -3.3013558E-01;  0.0000000E+00; -2.1575099E-02;  1.0045204E+03;  4.0013239E-01;  3.7450439E+03;3; -5.2289616E+01;  0.0000000E+00;  6.5020114E-01;0; -8.5764605E-01;  1.0101165E+04;  0.0000000E+00;  2.4303848E-04;  1.0000000E+04;  0.0000000E+00;  9.9827686E+03; -9.8838568E-01;  0.0000000E+00;  1.3073963E-01;  8.8050527E+03;
  5.5879080E-01;  9.9999998E-03; -1.2010226E-01;1906; -3.3334687E-01;  0.0000000E+00; -1.8735183E-02;  1.0044727E+03;  4.0013245E-01;  3.7054404E+03;3; -5.3889526E+01;  0.0000000E+00;  5.1077950E-01;0; -8.6537230E-01;  1.0100733E+04;  0.0000000E+00;  1.7513424E-04;  1.0000000E+04;  0.0000000E+00;  9.9822334E+03; -1.0039390E+00;  0.0000000E+00;  1.3856675E-01;  9.0592334E+03;
  5.5879724E-01;  9.9999998E-03; -1.0008483E-01;1907; -3.3606455E-01;  0.0000000E+00; -1.5787762E-02;  1.0044368E+03;  4.0013257E-01;  3.6758120E+03;3; -5.5156788E+01;  0.0000000E+00;  3.8419399E-01;0; -8.7281221E-01;  1.0100392E+04;  0.0000000E+00;  9.5804542E-05;  1.0000000E+04;  0.0000000E+00;  9.9818496E+03; -1.0178047E+00;  0.0000000E+00;  1.4499255E-01;  9.2393896E+03;
  5.5880266E-01;  9.9999998E-03; -8.0067553E-02;1908; -3.3832332E-01;  0.0000000E+00; -1.2803935E-02;  1.0044139E+03;  4.0013245E-01;  3.6567510E+03;3; -5.6144142E+01;  0.0000000E+00;  2.1822329E-01;0; -8.7980318E-01;  1.0100109E+04;  0.0000000E+00;  4.0994189E-05;  1.0000000E+04;  0.0000000E+00;  9.9816738E+03; -1.0295707E+00;  0.0000000E+00;  1.4976753E-01;  9.3187588E+03;
  5.5880702E-01;  9.9999998E-03; -6.0050528E-02;1909; -3.4011593E-01;  0.0000000E+00; -9.7571202E-03;  1.0044011E+03;  4.0013266E-01;  3.6461836E+03;3; -5.6875717E+01;  0.0000000E+00;  8.4699191E-02;0; -8.8577640E-01;  1.0099878E+04;  0.0000000E+00;  1.4061466E-05;  1.0000000E+04;  0.0000000E+00;  9.9816484E+03; -1.0389630E+00;  0.0000000E+00;  1.5318656E-01;  9.3246445E+03;
  5.5881011E-01;  9.9999998E-03; -4.0033657E-02;1910; -3.4142143E-01;  0.0000000E+00; -6.6078361E-03;  1.0043947E+03;  4.0013281E-01;  3.6409492E+03;3; -5.7383820E+01;  0.0000000E+00; -1.4213827E-02;0; -8.9024013E-01;  1.0099700E+04;  0.0000000E+00;  3.9269139E-06;  1.0000000E+04;  0.0000000E+00;  9.9816934E+03; -1.0458016E+00;  0.0000000E+00;  1.5556151E-01;  9.2976416E+03;
  5.5881202E-01;  9.9999998E-03; -2.0016830E-02;1911; -3.4221303E-01;  0.0000000E+00; -3.3379882E-03;  1.0043917E+03;  4.0013263E-01;  3.6383813E+03;3; -5.7676678E+01;  0.0000000E+00; -2.6493195E-02;0; -8.9295852E-01;  1.0099589E+04;  0.0000000E+00;  7.4611262E-07;  1.0000000E+04;  0.0000000E+00;  9.9817490E+03; -1.0499613E+00;  0.0000000E+00;  1.5700281E-01;  9.2696543E+03;
  5.7865793E-01;  9.9999998E-03; -1.8017720E-01;1934; -3.4283134E-01;  0.0000000E+00; -2.6060406E-02;  1.0047839E+03;  4.0035295E-01;  3.9633936E+03;3; -4.9181252E+01;  0.0000000E+00;  2.7275257E+00;0; -7.6502740E-01;  1.0097628E+04;  0.0000000E+00;  1.7153657E-04;  1.0000000E+04;  0.0000000E+00;  9.9804941E+03; -8.8110566E-01;  0.0000000E+00;  1.1607826E-01;  9.9415605E+03;
  5.7866484E-01;  9.9999998E-03; -1.6016056E-01;1935; -3.4770951E-01;  0.0000000E+00; -2.3869649E-02;  1.0047488E+03;  4.0035284E-01;  3.9342590E+03;3; -5.1465660E+01;  0.0000000E+00;  2.4742711E+00;0; -7.7662361E-01;  1.0096991E+04;  0.0000000E+00;  7.0038659E-05;  1.0000000E+04;  0.0000000E+00;  9.9804131E+03; -8.9858496E-01;  0.0000000E+00;  1.2196133E-01;  9.9727334E+03;
  5.7867235E-01;  9.9999998E-03; -1.4014170E-01;1936; -3.5193110E-01;  0.0000000E+00; -2.1307763E-02;  1.0047040E+03;  4.0035304E-01;  3.8971245E+03;3; -5.3477589E+01;  0.0000000E+00;  2.1160979E+00;0; -7.8636456E-01;  1.0096585E+04;  0.0000000E+00;  1.5036920E-04;  1.0000000E+04;  0.0000000E+00;  9.9799141E+03; -9.1593033E-01;  0.0000000E+00;  1.2956581E-01;  1.0209624E+04;
  5.7867974E-01;  9.9999998E-03; -1.2012150E-01;1937; -3.5553443E-01;  0.0000000E+00; -1.8499926E-02;  1.0046599E+03;  4.0035307E-01;  3.8605830E+03;3; -5.5107750E+01;  0.0000000E+00;  1.7113496E+00;0; -7.9519814E-01;  1.0096302E+04;  0.0000000E+00;  1.6008432E-04;  1.0000000E+04;  0.0000000E+00;  9.9793008E+03; -9.3221277E-01;  0.0000000E+00;  1.3701461E-01;  1.0503448E+04;
  5.7868654E-01;  9.9999998E-03; -1.0010072E-01;1938; -3.5857457E-01;  0.0000000E+00; -1.5550890E-02;  1.0046258E+03;  4.0035322E-01;  3.8323372E+03;3; -5.6411430E+01;  0.0000000E+00;  1.2797841E+00;0; -8.0366981E-01;  1.0096086E+04;  0.0000000E+00;  1.1035640E-04;  1.0000000E+04;  0.0000000E+00;  9.9788271E+03; -9.4668615E-01;  0.0000000E+00;  1.4301635E-01;  1.0728108E+04;
  5.7869232E-01;  9.9999998E-03; -8.0080077E-02;1939; -3.6109230E-01;  0.0000000E+00; -1.2553567E-02;  1.0046047E+03;  4.0035325E-01;  3.8148564E+03;3; -5.7409924E+01;  0.0000000E+00;  8.7361473E-01;0; -8.1170261E-01;  1.0095905E+04;  0.0000000E+00;  5.5179415E-05;  1.0000000E+04;  0.0000000E+00;  9.9785889E+03; -9.5887190E-01;  0.0000000E+00;  1.4716929E-01;  1.0840262E+04;
  5.7869697E-01;  9.9999998E-03; -6.0059801E-02;1940; -3.6309516E-01;  0.0000000E+00; -9.5212366E-03;  1.0045944E+03;  4.0035337E-01;  3.8062642E+03;3; -5.8153816E+01;  0.0000000E+00;  5.4150075E-01;0; -8.1871450E-01;  1.0095739E+04;  0.0000000E+00;  2.1919232E-05;  1.0000000E+04;  0.0000000E+00;  9.9785352E+03; -9.6849638E-01;  0.0000000E+00;  1.4978191E-01;  1.0862722E+04;
  5.7870030E-01;  9.9999998E-03; -4.0039793E-02;1941; -3.6456275E-01;  0.0000000E+00; -6.4244177E-03;  1.0045901E+03;  4.0035346E-01;  3.8027087E+03;3; -5.8674309E+01;  0.0000000E+00;  2.7743626E-01;0; -8.2409179E-01;  1.0095609E+04;  0.0000000E+00;  7.3011884E-06;  1.0000000E+04;  0.0000000E+00;  9.9785742E+03; -9.7542727E-01;  0.0000000E+00;  1.5133545E-01;  1.0840834E+04;
  5.7870239E-01;  9.9999998E-03; -2.0019893E-02;1942; -3.6546105E-01;  0.0000000E+00; -3.2401131E-03;  1.0045881E+03;  4.0035334E-01;  3.8011287E+03;3; -5.8976963E+01;  0.0000000E+00;  1.1441138E-01;0; -8.2744199E-01;  1.0095517E+04;  0.0000000E+00;  1.6092742E-06;  1.0000000E+04;  0.0000000E+00;  9.9786260E+03; -9.7960556E-01;  0.0000000E+00;  1.5216358E-01;  1.0813018E+04;
  5.9855193E-01;  9.9999998E-03; -1.8020937E-01;1965; -3.6176991E-01;  0.0000000E+00; -2.5385311E-02;  1.0053724E+03;  4.0091309E-01;  4.4508608E+03;3; -4.9847763E+01;  0.0000000E+00;  5.1007338E+00;0; -6.1872232E-01;  1.0085437E+04;  0.0000000E+00; -2.2348535E-04;  1.0000000E+04;  0.0000000E+00;  9.9764150E+03; -7.3993921E-01;  0.0000000E+00;  1.2121692E-01;  1.1915645E+04;
  5.9855908E-01;  9.9999998E-03; -1.6019014E-01;1966; -3.6717781E-01;  0.0000000E+00; -2.3305636E-02;  1.0053671E+03;  4.0091345E-01;  4.4464165E+03;3; -5.2182091E+01;  0.0000000E+00;  4.4591455E+00;0; -6.3463765E-01;  1.0085237E+04;  0.0000000E+00; -3.8763855E-04;  1.0000000E+04;  0.0000000E+00;  9.9764795E+03; -7.6031828E-01;  0.0000000E+00;  1.2568063E-01;  1.1877684E+04;
  5.9856671E-01;  9.9999998E-03; -1.4016820E-01;1967; -3.7189490E-01;  0.0000000E+00; -2.0843368E-02;  1.0053456E+03;  4.0091366E-01;  4.4286396E+03;3; -5.4212212E+01;  0.0000000E+00;  3.7493267E+00;0; -6.4829397E-01;  1.0085168E+04;  0.0000000E+00; -1.5809826E-04;  1.0000000E+04;  0.0000000E+00;  9.9761064E+03; -7.7993327E-01;  0.0000000E+00;  1.3163929E-01;  1.2056643E+04;
  5.9857422E-01;  9.9999998E-03; -1.2014430E-01;1968; -3.7593529E-01;  0.0000000E+00; -1.8090175E-02;  1.0053193E+03;  4.0091383E-01;  4.4068135E+03;3; -5.5929195E+01;  0.0000000E+00;  2.9283595E+00;0; -6.6080672E-01;  1.0085174E+04;  0.0000000E+00;  1.4857667E-05;  1.0000000E+04;  0.0000000E+00;  9.9755596E+03; -7.9817611E-01;  0.0000000E+00;  1.3736939E-01;  1.2320187E+04;
  5.9858114E-01;  9.9999998E-03; -1.0011952E-01;1969; -3.7931728E-01;  0.0000000E+00; -1.5151493E-02;  1.0052981E+03;  4.0091398E-01;  4.3893325E+03;3; -5.7248535E+01;  0.0000000E+00;  2.1674416E+00;0; -6.7258441E-01;  1.0085189E+04;  0.0000000E+00;  6.6719600E-05;  1.0000000E+04;  0.0000000E+00;  9.9751055E+03; -8.1428665E-01;  0.0000000E+00;  1.4170226E-01;  1.2540893E+04;
  5.9858721E-01;  9.9999998E-03; -8.0094889E-02;1970; -3.8211140E-01;  0.0000000E+00; -1.2166697E-02;  1.0052857E+03;  4.0091446E-01;  4.3790615E+03;3; -5.8323254E+01;  0.0000000E+00;  1.5696555E+00;0; -6.8346006E-01;  1.0085188E+04;  0.0000000E+00;  4.9496986E-05;  1.0000000E+04;  0.0000000E+00;  9.9748525E+03; -8.2772875E-01;  0.0000000E+00;  1.4426869E-01;  1.2661913E+04;
  5.9859210E-01;  9.9999998E-03; -6.0070772E-02;1971; -3.8432744E-01;  0.0000000E+00; -9.1796881E-03;  1.0052814E+03;  4.0091464E-01;  4.3755059E+03;3; -5.9094803E+01;  0.0000000E+00;  9.7292489E-01;0; -6.9284397E-01;  1.0085160E+04;  0.0000000E+00;  2.4821931E-05;  1.0000000E+04;  0.0000000E+00;  9.9747803E+03; -8.3823228E-01;  0.0000000E+00;  1.4538832E-01;  1.2693787E+04;
  5.9859574E-01;  9.9999998E-03; -4.0047076E-02;1972; -3.8595507E-01;  0.0000000E+00; -6.1566145E-03;  1.0052813E+03;  4.0091455E-01;  4.3754072E+03;3; -5.9649151E+01;  0.0000000E+00;  5.8224219E-01;0; -7.0005614E-01;  1.0085118E+04;  0.0000000E+00;  1.0429563E-05;  1.0000000E+04;  0.0000000E+00;  9.9748135E+03; -8.4571010E-01;  0.0000000E+00;  1.4565395E-01;  1.2678059E+04;
  5.9859800E-01;  9.9999998E-03; -2.0023534E-02;1973; -3.8695616E-01;  0.0000000E+00; -3.0953921E-03;  1.0052821E+03;  4.0091479E-01;  4.3760986E+03;3; -5.9964172E+01;  0.0000000E+00;  2.6102582E-01;0; -7.0458055E-01;  1.0085082E+04;  0.0000000E+00;  2.7364320E-06;  1.0000000E+04;  0.0000000E+00;  9.9748623E+03; -8.5017240E-01;  0.0000000E+00;  1.4559187E-01;  1.2653628E+04;
  6.1845773E-01;  9.9999998E-03; -1.8024440E-01;1996; -3.7778521E-01;  0.0000000E+00; -2.3895996E-02;  1.0071751E+03;  4.0220124E-01;  5.9442891E+03;3; -5.0065880E+01;  0.0000000E+00;  7.7891617E+00;0; -3.6196932E-01;  1.0062531E+04;  0.0000000E+00; -8.3304616E-04;  1.0000000E+04;  0.0000000E+00;  9.9710713E+03; -4.9395636E-01;  0.0000000E+00;  1.3198704E-01;  1.4467992E+04;
  6.1846560E-01;  9.9999998E-03; -1.6022249E-01;1997; -3.8361475E-01;  0.0000000E+00; -2.1974545E-02;  1.0072186E+03;  4.0220201E-01;  5.9803364E+03;3; -5.2465813E+01;  0.0000000E+00;  6.8256741E+00;0; -3.8546306E-01;  1.0063127E+04;  0.0000000E+00; -1.1377592E-03;  1.0000000E+04;  0.0000000E+00;  9.9713105E+03; -5.2067298E-01;  0.0000000E+00;  1.3520992E-01;  1.4349830E+04;
  6.1847329E-01;  9.9999998E-03; -1.4019719E-01;1998; -3.8875481E-01;  0.0000000E+00; -1.9687869E-02;  1.0072390E+03;  4.0220267E-01;  5.9972246E+03;3; -5.4562565E+01;  0.0000000E+00;  5.6433601E+00;0; -4.0604550E-01;  1.0063644E+04;  0.0000000E+00; -7.3133345E-04;  1.0000000E+04;  0.0000000E+00;  9.9711592E+03; -5.4494900E-01;  0.0000000E+00;  1.3890350E-01;  1.4422136E+04;
  6.1848086E-01;  9.9999998E-03; -1.2016931E-01;1999; -3.9315671E-01;  0.0000000E+00; -1.7066171E-02;  1.0072460E+03;  4.0220287E-01;  6.0030513E+03;3; -5.6351864E+01;  0.0000000E+00;  4.4082279E+00;0; -4.2520639E-01;  1.0064104E+04;  0.0000000E+00; -3.2548537E-04;  1.0000000E+04;  0.0000000E+00;  9.9708076E+03; -5.6699336E-01;  0.0000000E+00;  1.4178696E-01;  1.4594913E+04;
  6.1848783E-01;  9.9999998E-03; -1.0014037E-01;2000; -3.9686596E-01;  0.0000000E+00; -1.4196351E-02;  1.0072495E+03;  4.0220356E-01;  6.0059155E+03;3; -5.7734814E+01;  0.0000000E+00;  3.2207780E+00;0; -4.4315988E-01;  1.0064484E+04;  0.0000000E+00; -9.0290276E-05;  1.0000000E+04;  0.0000000E+00;  9.9704746E+03; -5.8632916E-01;  0.0000000E+00;  1.4316928E-01;  1.4761310E+04;
  6.1849403E-01;  9.9999998E-03; -8.0111563E-02;2001; -3.9987841E-01;  0.0000000E+00; -1.1323402E-02;  1.0072547E+03;  4.0220395E-01;  6.0102607E+03;3; -5.8843376E+01;  0.0000000E+00;  2.2025669E+00;0; -4.5938915E-01;  1.0064773E+04;  0.0000000E+00; -8.2354682E-06;  1.0000000E+04;  0.0000000E+00;  9.9702695E+03; -6.0241497E-01;  0.0000000E+00;  1.4302580E-01;  1.4862720E+04;
  6.1849928E-01;  9.9999998E-03; -6.0083225E-02;2002; -4.0227336E-01;  0.0000000E+00; -8.4618302E-03;  1.0072624E+03;  4.0220430E-01;  6.0165815E+03;3; -5.9670212E+01;  0.0000000E+00;  1.4419383E+00;0; -4.7311273E-01;  1.0064967E+04;  0.0000000E+00;  8.5208112E-06;  1.0000000E+04;  0.0000000E+00;  9.9702031E+03; -6.1493856E-01;  0.0000000E+00;  1.4182582E-01;  1.4895602E+04;
  6.1850321E-01;  9.9999998E-03; -4.0055361E-02;2003; -4.0402848E-01;  0.0000000E+00; -5.6445859E-03;  1.0072692E+03;  4.0220439E-01;  6.0222109E+03;3; -6.0262558E+01;  0.0000000E+00;  8.4666079E-01;0; -4.8354909E-01;  1.0065075E+04;  0.0000000E+00;  8.5442625E-06;  1.0000000E+04;  0.0000000E+00;  9.9702227E+03; -6.2381512E-01;  0.0000000E+00;  1.4026603E-01;  1.4888961E+04;
  6.1850566E-01;  9.9999998E-03; -2.0027701E-02;2004; -4.0511262E-01;  0.0000000E+00; -2.8248576E-03;  1.0072743E+03;  4.0220472E-01;  6.0264575E+03;3; -6.0606705E+01;  0.0000000E+00;  3.7459975E-01;0; -4.9007341E-01;  1.0065131E+04;  0.0000000E+00;  3.2518969E-06;  1.0000000E+04;  0.0000000E+00;  9.9702549E+03; -6.2908983E-01;  0.0000000E+00;  1.3901642E-01;  1.4873697E+04;
  6.3838035E-01;  9.9999998E-03; -1.8028177E-01;2027; -3.9004421E-01;  0.0000000E+00; -2.1426957E-02;  1.0109346E+03;  4.0458417E-01;  9.0588232E+03;3; -4.9974537E+01;  0.0000000E+00;  1.0966969E+01;0;  4.6234332E-02;  1.0025372E+04;  0.0000000E+00; -1.1575848E-03;  1.0000000E+04;  0.0000000E+00;  9.9647305E+03; -1.0086703E-01;  0.0000000E+00;  1.4710136E-01;  1.7452500E+04;
  6.3838869E-01;  9.9999998E-03; -1.6025592E-01;2028; -3.9617816E-01;  0.0000000E+00; -1.9544968E-02;  1.0110369E+03;  4.0458497E-01;  9.1435596E+03;3; -5.2320789E+01;  0.0000000E+00;  9.5916176E+00;0;  1.4341220E-02;  1.0027071E+04;  0.0000000E+00; -1.8854579E-03;  1.0000000E+04;  0.0000000E+00;  9.9650098E+03; -1.3612004E-01;  0.0000000E+00;  1.5046126E-01;  1.7317906E+04;
  6.3839626E-01;  9.9999998E-03; -1.4022662E-01;2029; -4.0167373E-01;  0.0000000E+00; -1.7471170E-02;  1.0111086E+03;  4.0458587E-01;  9.2030127E+03;3; -5.4428783E+01;  0.0000000E+00;  7.9348974E+00;0; -1.4484450E-02;  1.0028392E+04;  0.0000000E+00; -1.4333838E-03;  1.0000000E+04;  0.0000000E+00;  9.9650615E+03; -1.6680484E-01;  0.0000000E+00;  1.5232038E-01;  1.7298721E+04;
  6.3840359E-01;  9.9999998E-03; -1.2019470E-01;2030; -4.0636721E-01;  0.0000000E+00; -1.5116678E-02;  1.0111591E+03;  4.0458658E-01;  9.2447881E+03;3; -5.6165939E+01;  0.0000000E+00;  6.1411223E+00;0; -4.2010576E-02;  1.0029476E+04;  0.0000000E+00; -8.3946210E-04;  1.0000000E+04;  0.0000000E+00;  9.9649316E+03; -1.9403952E-01;  0.0000000E+00;  1.5202895E-01;  1.7366053E+04;
  6.3841063E-01;  9.9999998E-03; -1.0016147E-01;2031; -4.1033450E-01;  0.0000000E+00; -1.2479150E-02;  1.0111971E+03;  4.0458748E-01;  9.2762920E+03;3; -5.7642139E+01;  0.0000000E+00;  4.6686182E+00;0; -6.8150818E-02;  1.0030350E+04;  0.0000000E+00; -3.9372317E-04;  1.0000000E+04;  0.0000000E+00;  9.9647656E+03; -2.1783981E-01;  0.0000000E+00;  1.4968899E-01;  1.7453975E+04;
  6.3841718E-01;  9.9999998E-03; -8.0128238E-02;2032; -4.1355550E-01;  0.0000000E+00; -9.8167546E-03;  1.0112275E+03;  4.0458816E-01;  9.3014756E+03;3; -5.8753822E+01;  0.0000000E+00;  3.2508721E+00;0; -9.1760948E-02;  1.0031034E+04;  0.0000000E+00; -1.5524666E-04;  1.0000000E+04;  0.0000000E+00;  9.9646484E+03; -2.3774390E-01;  0.0000000E+00;  1.4598295E-01;  1.7519217E+04;
  6.3842273E-01;  9.9999998E-03; -6.0095631E-02;2033; -4.1607136E-01;  0.0000000E+00; -7.2489553E-03;  1.0112510E+03;  4.0458861E-01;  9.3210303E+03;3; -5.9653679E+01;  0.0000000E+00;  2.0858722E+00;0; -1.1158593E-01;  1.0031530E+04;  0.0000000E+00; -4.8687751E-05;  1.0000000E+04;  0.0000000E+00;  9.9645986E+03; -2.5335199E-01;  0.0000000E+00;  1.4176606E-01;  1.7550865E+04;
  6.3842696E-01;  9.9999998E-03; -4.0063612E-02;2034; -4.1792718E-01;  0.0000000E+00; -4.7672233E-03;  1.0112682E+03;  4.0458897E-01;  9.3352520E+03;3; -6.0292759E+01;  0.0000000E+00;  1.2027144E+00;0; -1.2656555E-01;  1.0031857E+04;  0.0000000E+00; -7.1036029E-06;  1.0000000E+04;  0.0000000E+00;  9.9645898E+03; -2.6448178E-01;  0.0000000E+00;  1.3791624E-01;  1.7561213E+04;
  6.3842952E-01;  9.9999998E-03; -2.0031800E-02;2035; -4.1907519E-01;  0.0000000E+00; -2.3681379E-03;  1.0112786E+03;  4.0458924E-01;  9.3437451E+03;3; -6.0702099E+01;  0.0000000E+00;  5.4510701E-01;0; -1.3589293E-01;  1.0032045E+04;  0.0000000E+00;  1.2266736E-06;  1.0000000E+04;  0.0000000E+00;  9.9645908E+03; -2.7112252E-01;  0.0000000E+00;  1.3522959E-01;  1.7564645E+04;
  6.5832573E-01;  9.9999998E-03; -1.8032651E-01;2058; -3.9800811E-01;  0.0000000E+00; -1.8509207E-02;  1.0155021E+03;  4.0762660E-01;  1.2842661E+04;3; -4.9339462E+01;  0.0000000E+00;  1.4620753E+01;0;  6.2522584E-01;  9.9724434E+03;  0.0000000E+00; -2.2963317E-04;  1.0000000E+04;  0.0000000E+00;  9.9579932E+03;  4.6201149E-01;  0.0000000E+00;  1.6321436E-01;  2.0568816E+04;
  6.5833366E-01;  9.9999998E-03; -1.6029356E-01;2059; -4.0436518E-01;  0.0000000E+00; -1.6323721E-02;  1.0156490E+03;  4.0762743E-01;  1.2964332E+04;3; -5.1658478E+01;  0.0000000E+00;  1.2717802E+01;0;  5.8994901E-01;  9.9752676E+03;  0.0000000E+00; -1.8793789E-03;  1.0000000E+04;  0.0000000E+00;  9.9580137E+03;  4.2061150E-01;  0.0000000E+00;  1.6933750E-01;  2.0565178E+04;
  6.5834069E-01;  9.9999998E-03; -1.4025910E-01;2060; -4.1012979E-01;  0.0000000E+00; -1.4310728E-02;  1.0157645E+03;  4.0762815E-01;  1.3060028E+04;3; -5.3785759E+01;  0.0000000E+00;  1.0435497E+01;0;  5.5608505E-01;  9.9774600E+03;  0.0000000E+00; -1.7840344E-03;  1.0000000E+04;  0.0000000E+00;  9.9580557E+03;  3.8500723E-01;  0.0000000E+00;  1.7107782E-01;  2.0554016E+04;
  6.5834743E-01;  9.9999998E-03; -1.2022183E-01;2061; -4.1509050E-01;  0.0000000E+00; -1.2198232E-02;  1.0158547E+03;  4.0762851E-01;  1.3134788E+04;3; -5.5552486E+01;  0.0000000E+00;  8.2443361E+00;0;  5.2200514E-01;  9.9792139E+03;  0.0000000E+00; -1.2758059E-03;  1.0000000E+04;  0.0000000E+00;  9.9580439E+03;  3.5359758E-01;  0.0000000E+00;  1.6840757E-01;  2.0570396E+04;
  6.5835404E-01;  9.9999998E-03; -1.0018354E-01;2062; -4.1921142E-01;  0.0000000E+00; -9.9908644E-03;  1.0159267E+03;  4.0762925E-01;  1.3194438E+04;3; -5.6983608E+01;  0.0000000E+00;  6.1272449E+00;0;  4.8843682E-01;  9.9806426E+03;  0.0000000E+00; -7.4952893E-04;  1.0000000E+04;  0.0000000E+00;  9.9579990E+03;  3.2597941E-01;  0.0000000E+00;  1.6245739E-01;  2.0603564E+04;
  6.5836048E-01;  9.9999998E-03; -8.0145791E-02;2063; -4.2256737E-01;  0.0000000E+00; -7.7281785E-03;  1.0159831E+03;  4.0762982E-01;  1.3241151E+04;3; -5.8191490E+01;  0.0000000E+00;  4.3275723E+00;0;  4.5754170E-01;  9.9817734E+03;  0.0000000E+00; -3.7434004E-04;  1.0000000E+04;  0.0000000E+00;  9.9579453E+03;  3.0257308E-01;  0.0000000E+00;  1.5496860E-01;  2.0644453E+04;
  6.5836620E-01;  9.9999998E-03; -6.0108997E-02;2064; -4.2518753E-01;  0.0000000E+00; -5.5188634E-03;  1.0160245E+03;  4.0763044E-01;  1.3275420E+04;3; -5.9179508E+01;  0.0000000E+00;  2.9217238E+00;0;  4.3140045E-01;  9.9826260E+03;  0.0000000E+00; -1.5197598E-04;  1.0000000E+04;  0.0000000E+00;  9.9578809E+03;  2.8393403E-01;  0.0000000E+00;  1.4746642E-01;  2.0688221E+04;
  6.5837055E-01;  9.9999998E-03; -4.0072665E-02;2065; -4.2706770E-01;  0.0000000E+00; -3.4937491E-03;  1.0160518E+03;  4.0763083E-01;  1.3298036E+04;3; -5.9868706E+01;  0.0000000E+00;  1.7961223E+00;0;  4.1159821E-01;  9.9832158E+03;  0.0000000E+00; -4.1649091E-05;  1.0000000E+04;  0.0000000E+00;  9.9578105E+03;  2.7045694E-01;  0.0000000E+00;  1.4114128E-01;  2.0732557E+04;
  6.5837324E-01;  9.9999998E-03; -2.0036336E-02;2066; -4.2822352E-01;  0.0000000E+00; -1.6921295E-03;  1.0160665E+03;  4.0763086E-01;  1.3310184E+04;3; -6.0267155E+01;  0.0000000E+00;  8.6502689E-01;0;  3.9926296E-01;  9.9835566E+03;  0.0000000E+00; -4.9339069E-06;  1.0000000E+04;  0.0000000E+00;  9.9577490E+03;  2.6233175E-01;  0.0000000E+00;  1.3693123E-01;  2.0769500E+04;
  6.7830783E-01;  9.9999998E-03; -1.8039800E-01;2089; -3.9951473E-01;  0.0000000E+00; -1.8778887E-02;  1.0179786E+03;  4.1009992E-01;  1.4894155E+04;3; -4.8753639E+01;  0.0000000E+00;  1.9377008E+01;0;  1.3455899E+00;  9.9066162E+03;  0.0000000E+00;  2.3324625E-03;  1.0000000E+04;  0.0000000E+00;  9.9516533E+03;  1.1696639E+00;  0.0000000E+00;  1.7592593E-01;  2.3433854E+04;
  6.7831397E-01;  9.9999998E-03; -1.6035327E-01;2090; -4.0649113E-01;  0.0000000E+00; -1.4911014E-02;  1.0181280E+03;  4.1009977E-01;  1.5017898E+04;3; -5.1069614E+01;  0.0000000E+00;  1.7087116E+01;0;  1.3191338E+00;  9.9101533E+03;  0.0000000E+00; -5.1981932E-04;  1.0000000E+04;  0.0000000E+00;  9.9510166E+03;  1.1312591E+00;  0.0000000E+00;  1.8787470E-01;  2.3755916E+04;
  6.7831886E-01;  9.9999998E-03; -1.4031021E-01;2091; -4.1284421E-01;  0.0000000E+00; -1.2056028E-02;  1.0182565E+03;  4.1009971E-01;  1.5124358E+04;3; -5.2986771E+01;  0.0000000E+00;  1.4236464E+01;0;  1.2897162E+00;  9.9129688E+03;  0.0000000E+00; -1.2417960E-03;  1.0000000E+04;  0.0000000E+00;  9.9507002E+03;  1.0975957E+00;  0.0000000E+00;  1.9212049E-01;  2.3921354E+04;
  6.7832345E-01;  9.9999998E-03; -1.2026562E-01;2092; -4.1837424E-01;  0.0000000E+00; -9.6942428E-03;  1.0183665E+03;  4.1009969E-01;  1.5215512E+04;3; -5.4760807E+01;  0.0000000E+00;  1.1239613E+01;0;  1.2561260E+00;  9.9152578E+03;  0.0000000E+00; -1.2301066E-03;  1.0000000E+04;  0.0000000E+00;  9.9505635E+03;  1.0673037E+00;  0.0000000E+00;  1.8882240E-01;  2.4004846E+04;
  6.7832851E-01;  9.9999998E-03; -1.0022060E-01;2093; -4.2295676E-01;  0.0000000E+00; -7.4951630E-03;  1.0184600E+03;  4.1009977E-01;  1.5292837E+04;3; -5.6225006E+01;  0.0000000E+00;  8.4895964E+00;0;  1.2202848E+00;  9.9171377E+03;  0.0000000E+00; -9.1043091E-04;  1.0000000E+04;  0.0000000E+00;  9.9504902E+03;  1.0400220E+00;  0.0000000E+00;  1.8026276E-01;  2.4057039E+04;
  6.7833376E-01;  9.9999998E-03; -8.0176562E-02;2094; -4.2658281E-01;  0.0000000E+00; -5.4688319E-03;  1.0185337E+03;  4.1009983E-01;  1.5353968E+04;3; -5.7416176E+01;  0.0000000E+00;  6.0354333E+00;0;  1.1857985E+00;  9.9186572E+03;  0.0000000E+00; -5.4311159E-04;  1.0000000E+04;  0.0000000E+00;  9.9504082E+03;  1.0162846E+00;  0.0000000E+00;  1.6951397E-01;  2.4118838E+04;
  6.7833853E-01;  9.9999998E-03; -6.0133256E-02;2095; -4.2935055E-01;  0.0000000E+00; -3.6415819E-03;  1.0185870E+03;  4.1010010E-01;  1.5398112E+04;3; -5.8393005E+01;  0.0000000E+00;  4.1394663E+00;0;  1.1559284E+00;  9.9198311E+03;  0.0000000E+00; -2.5306357E-04;  1.0000000E+04;  0.0000000E+00;  9.9502666E+03;  9.9689513E-01;  0.0000000E+00;  1.5903319E-01;  2.4207000E+04;
  6.7834216E-01;  9.9999998E-03; -4.0089883E-02;2096; -4.3132541E-01;  0.0000000E+00; -2.1330193E-03;  1.0186204E+03;  4.1010016E-01;  1.5425765E+04;3; -5.9106236E+01;  0.0000000E+00;  2.6245813E+00;0;  1.1330316E+00;  9.9206621E+03;  0.0000000E+00; -8.0999394E-05;  1.0000000E+04;  0.0000000E+00;  9.9500830E+03;  9.8257065E-01;  0.0000000E+00;  1.5046102E-01;  2.4311701E+04;
  6.7834431E-01;  9.9999998E-03; -2.0045435E-02;2097; -4.3252513E-01;  0.0000000E+00; -9.5417735E-04;  1.0186371E+03;  4.1010016E-01;  1.5439689E+04;3; -5.9542236E+01;  0.0000000E+00;  1.2869306E+00;0;  1.1186894E+00;  9.9211494E+03;  0.0000000E+00; -1.3023304E-05;  1.0000000E+04;  0.0000000E+00;  9.9499219E+03;  9.7380096E-01;  0.0000000E+00;  1.4488851E-01;  2.4401221E+04;
  6.9835800E-01;  9.9999998E-03; -1.8051949E-01;2120; -3.8773748E-01;  0.0000000E+00; -3.0181846E-02;  1.0175170E+03;  4.1147685E-01;  1.4511386E+04;3; -4.6832684E+01;  0.0000000E+00;  2.3791504E+01;0;  2.1141012E+00;  9.8363584E+03;  0.0000000E+00;  5.0078430E-03;  1.0000000E+04;  0.0000000E+00;  9.9464570E+03;  1.9322270E+00;  0.0000000E+00;  1.8187423E-01;  2.5716197E+04;
  6.9835728E-01;  9.9999998E-03; -1.6045707E-01;2121; -3.9720365E-01;  0.0000000E+00; -2.2381892E-02;  1.0176122E+03;  4.1147605E-01;  1.4590291E+04;3; -4.9680164E+01;  0.0000000E+00;  2.1657406E+01;0;  2.1129107E+00;  9.8398262E+03;  0.0000000E+00;  1.4986532E-03;  1.0000000E+04;  0.0000000E+00;  9.9448330E+03;  1.9115744E+00;  0.0000000E+00;  2.0133634E-01;  2.6519904E+04;
  6.9835478E-01;  9.9999998E-03; -1.4039740E-01;2122; -4.0572438E-01;  0.0000000E+00; -1.6471362E-02;  1.0177078E+03;  4.1147533E-01;  1.4669493E+04;3; -5.1841541E+01;  0.0000000E+00;  1.8952301E+01;0;  2.1021905E+00;  9.8427188E+03;  0.0000000E+00;  7.9374740E-06;  1.0000000E+04;  0.0000000E+00;  9.9438018E+03;  1.8917499E+00;  0.0000000E+00;  2.1044053E-01;  2.7037852E+04;
  6.9835228E-01;  9.9999998E-03; -1.2033847E-01;2123; -4.1292340E-01;  0.0000000E+00; -1.2370782E-02;  1.0178044E+03;  4.1147485E-01;  1.4749484E+04;3; -5.3583977E+01;  0.0000000E+00;  1.5633663E+01;0;  2.0806870E+00;  9.8451641E+03;  0.0000000E+00; -6.0558872E-04;  1.0000000E+04;  0.0000000E+00;  9.9432451E+03;  1.8722762E+00;  0.0000000E+00;  2.0841086E-01;  2.7329285E+04;
  6.9835234E-01;  9.9999998E-03; -1.0028180E-01;2124; -4.1872805E-01;  0.0000000E+00; -9.4041945E-03;  1.0178948E+03;  4.1147420E-01;  1.4824439E+04;3; -5.5164413E+01;  0.0000000E+00;  1.2409945E+01;0;  2.0520201E+00;  9.8472324E+03;  0.0000000E+00; -6.9000473E-04;  1.0000000E+04;  0.0000000E+00;  9.9429414E+03;  1.8533655E+00;  0.0000000E+00;  1.9865446E-01;  2.7500527E+04;
  6.9835407E-01;  9.9999998E-03; -8.0227114E-02;2125; -4.2322150E-01;  0.0000000E+00; -6.8970490E-03;  1.0179700E+03;  4.1147420E-01;  1.4886655E+04;3; -5.6358494E+01;  0.0000000E+00;  9.5719357E+00;0;  2.0214927E+00;  9.8489512E+03;  0.0000000E+00; -5.0602196E-04;  1.0000000E+04;  0.0000000E+00;  9.9426885E+03;  1.8358252E+00;  0.0000000E+00;  1.8566757E-01;  2.7649375E+04;
  6.9835603E-01;  9.9999998E-03; -6.0172521E-02;2126; -4.2668208E-01;  0.0000000E+00; -4.5602899E-03;  1.0180236E+03;  4.1147390E-01;  1.4931096E+04;3; -5.7236687E+01;  0.0000000E+00;  7.0983133E+00;0;  1.9936866E+00;  9.8503076E+03;  0.0000000E+00; -2.6358734E-04;  1.0000000E+04;  0.0000000E+00;  9.9423770E+03;  1.8207176E+00;  0.0000000E+00;  1.7296895E-01;  2.7826094E+04;
  6.9835752E-01;  9.9999998E-03; -4.0116802E-02;2127; -4.2912576E-01;  0.0000000E+00; -2.5971397E-03;  1.0180555E+03;  4.1147378E-01;  1.4957463E+04;3; -5.7834297E+01;  0.0000000E+00;  4.8011775E+00;0;  1.9718322E+00;  9.8512881E+03;  0.0000000E+00; -9.0636371E-05;  1.0000000E+04;  0.0000000E+00;  9.9420205E+03;  1.8091060E+00;  0.0000000E+00;  1.6272612E-01;  2.8021893E+04;
  6.9835836E-01;  9.9999998E-03; -2.0059092E-02;2128; -4.3055764E-01;  0.0000000E+00; -1.1289907E-03;  1.0180706E+03;  4.1147357E-01;  1.4970005E+04;3; -5.8188061E+01;  0.0000000E+00;  2.4394865E+00;0;  1.9579772E+00;  9.8518867E+03;  0.0000000E+00; -1.5703366E-05;  1.0000000E+04;  0.0000000E+00;  9.9417168E+03;  1.8018064E+00;  0.0000000E+00;  1.5617070E-01;  2.8183326E+04;
  7.1857780E-01;  9.9999998E-03; -1.8069454E-01;2151; -3.3425751E-01;  0.0000000E+00; -5.7571158E-02;  1.0156360E+03;  4.1208962E-01;  1.2952783E+04;3; -3.4242641E+01;  0.0000000E+00;  3.0659281E+01;0;  2.7873919E+00;  9.7745098E+03;  0.0000000E+00;  5.3915964E-03;  1.0000000E+04;  0.0000000E+00;  9.9427686E+03;  2.6059861E+00;  0.0000000E+00;  1.8140580E-01;  2.7283584E+04;
  7.1857178E-01;  9.9999998E-03; -1.6062523E-01;2152; -3.4672087E-01;  0.0000000E+00; -5.2434061E-02;  1.0156293E+03;  4.1208863E-01;  1.2947253E+04;3; -3.8149197E+01;  0.0000000E+00;  2.4762152E+01;0;  2.8251839E+00;  9.7769980E+03;  0.0000000E+00;  2.4626732E-03;  1.0000000E+04;  0.0000000E+00;  9.9401357E+03;  2.6186080E+00;  0.0000000E+00;  2.0657593E-01;  2.8581854E+04;
  7.1856457E-01;  9.9999998E-03; -1.4054817E-01;2153; -3.5906264E-01;  0.0000000E+00; -4.4195089E-02;  1.0156494E+03;  4.1208795E-01;  1.2963844E+04;3; -4.2009201E+01;  0.0000000E+00;  2.0758169E+01;0;  2.8469152E+00;  9.7793145E+03;  0.0000000E+00;  9.5135166E-04;  1.0000000E+04;  0.0000000E+00;  9.9381943E+03;  2.6261477E+00;  0.0000000E+00;  2.2076748E-01;  2.9542371E+04;
  7.1855789E-01;  9.9999998E-03; -1.2046646E-01;2154; -3.7059382E-01;  0.0000000E+00; -3.6381330E-02;  1.0156979E+03;  4.1208717E-01;  1.3004135E+04;3; -4.5414349E+01;  0.0000000E+00;  1.7371944E+01;0;  2.8500578E+00;  9.7814258E+03;  0.0000000E+00;  1.3097764E-04;  1.0000000E+04;  0.0000000E+00;  9.9370127E+03;  2.6292984E+00;  0.0000000E+00;  2.2075932E-01;  3.0140219E+04;
  7.1855468E-01;  9.9999998E-03; -1.0038619E-01;2155; -3.8025436E-01;  0.0000000E+00; -2.9416066E-02;  1.0157590E+03;  4.1208649E-01;  1.3054696E+04;3; -4.8460461E+01;  0.0000000E+00;  1.3922304E+01;0;  2.8397346E+00;  9.7833105E+03;  0.0000000E+00; -2.1106533E-04;  1.0000000E+04;  0.0000000E+00;  9.9363057E+03;  2.6289980E+00;  0.0000000E+00;  2.1073656E-01;  3.0515730E+04;
  7.1855450E-01;  9.9999998E-03; -8.0309264E-02;2156; -3.8782012E-01;  0.0000000E+00; -2.2943340E-02;  1.0158153E+03;  4.1208634E-01;  1.3101308E+04;3; -5.1016731E+01;  0.0000000E+00;  1.0867407E+01;0;  2.8227642E+00;  9.7849521E+03;  0.0000000E+00; -2.3980210E-04;  1.0000000E+04;  0.0000000E+00;  9.9357549E+03;  2.6263528E+00;  0.0000000E+00;  1.9641148E-01;  3.0815428E+04;
  7.1855575E-01;  9.9999998E-03; -6.0234416E-02;2157; -3.9363092E-01;  0.0000000E+00; -1.6840478E-02;  1.0158549E+03;  4.1208568E-01;  1.3134192E+04;3; -5.3030262E+01;  0.0000000E+00;  8.2573929E+00;0;  2.8048534E+00;  9.7862910E+03;  0.0000000E+00; -1.3755592E-04;  1.0000000E+04;  0.0000000E+00;  9.9351816E+03;  2.6225879E+00;  0.0000000E+00;  1.8226562E-01;  3.1124520E+04;
  7.1855754E-01;  9.9999998E-03; -4.0158778E-02;2158; -3.9780286E-01;  0.0000000E+00; -1.1045674E-02;  1.0158756E+03;  4.1208532E-01;  1.3151276E+04;3; -5.4529976E+01;  0.0000000E+00;  5.6912642E+00;0;  2.7898679E+00;  9.7872842E+03;  0.0000000E+00; -4.3843163E-05;  1.0000000E+04;  0.0000000E+00;  9.9345879E+03;  2.6189115E+00;  0.0000000E+00;  1.7095648E-01;  3.1440094E+04;
  7.1855903E-01;  9.9999998E-03; -2.0080494E-02;2159; -4.0027547E-01;  0.0000000E+00; -5.4566343E-03;  1.0158828E+03;  4.1208515E-01;  1.3157201E+04;3; -5.5449722E+01;  0.0000000E+00;  2.9460287E+00;0;  2.7801094E+00;  9.7878955E+03;  0.0000000E+00; -5.5446662E-06;  1.0000000E+04;  0.0000000E+00;  9.9341104E+03;  2.6162972E+00;  0.0000000E+00;  1.6381210E-01;  3.1689996E+04;
  7.3908317E-01;  9.9999998E-03; -1.8071145E-01;2182; -2.1038584E-01;  0.0000000E+00; -4.8487529E-02;  1.0140012E+03;  4.1233447E-01;  1.1598163E+04;3; -1.7148640E+01;  0.0000000E+00;  3.7054398E+01;0;  3.2187095E+00;  9.7337393E+03;  0.0000000E+00;  3.3279648E-03;  1.0000000E+04;  0.0000000E+00;  9.9406641E+03;  3.0422976E+00;  0.0000000E+00;  1.7641190E-01;  2.8145289E+04;
  7.3907399E-01;  9.9999998E-03; -1.6064265E-01;2183; -2.2060412E-01;  0.0000000E+00; -4.2305898E-02;  1.0138673E+03;  4.1233394E-01;  1.1487169E+04;3; -1.9980461E+01;  0.0000000E+00;  3.1425953E+01;0;  3.2997341E+00;  9.7346699E+03;  0.0000000E+00;  1.7972244E-03;  1.0000000E+04;  0.0000000E+00;  9.9371328E+03;  3.0951545E+00;  0.0000000E+00;  2.0457968E-01;  2.9881836E+04;
  7.3906571E-01;  9.9999998E-03; -1.4056507E-01;2184; -2.3082933E-01;  0.0000000E+00; -3.4731213E-02;  1.0137945E+03;  4.1233307E-01;  1.1426934E+04;3; -2.2924421E+01;  0.0000000E+00;  2.7368649E+01;0;  3.3575573E+00;  9.7359521E+03;  0.0000000E+00;  9.7901514E-04;  1.0000000E+04;  0.0000000E+00;  9.9344248E+03;  3.1370282E+00;  0.0000000E+00;  2.2052911E-01;  3.1220545E+04;
  7.3905867E-01;  9.9999998E-03; -1.2048163E-01;2185; -2.4052672E-01;  0.0000000E+00; -2.8116288E-02;  1.0137755E+03;  4.1233242E-01;  1.1411134E+04;3; -2.5771189E+01;  0.0000000E+00;  2.2840771E+01;0;  3.3908443E+00;  9.7373721E+03;  0.0000000E+00;  4.7299819E-04;  1.0000000E+04;  0.0000000E+00;  9.9326387E+03;  3.1698620E+00;  0.0000000E+00;  2.2098237E-01;  3.2119705E+04;
  7.3905325E-01;  9.9999998E-03; -1.0040056E-01;2186; -2.4918503E-01;  0.0000000E+00; -2.2663560E-02;  1.0137885E+03;  4.1233173E-01;  1.1421897E+04;3; -2.8377089E+01;  0.0000000E+00;  1.8434814E+01;0;  3.4054480E+00;  9.7387871E+03;  0.0000000E+00;  1.8638794E-04;  1.0000000E+04;  0.0000000E+00;  9.9314619E+03;  3.1950996E+00;  0.0000000E+00;  2.1034831E-01;  3.2725875E+04;
  7.3904961E-01;  9.9999998E-03; -8.0322906E-02;2187; -2.5651410E-01;  0.0000000E+00; -1.7818531E-02;  1.0138088E+03;  4.1233122E-01;  1.1438783E+04;3; -3.0661459E+01;  0.0000000E+00;  1.4548955E+01;0;  3.4087398E+00;  9.7400957E+03;  0.0000000E+00;  6.9409041E-05;  1.0000000E+04;  0.0000000E+00;  9.9305400E+03;  3.2138104E+00;  0.0000000E+00;  1.9492944E-01;  3.3210395E+04;
  7.3904759E-01;  9.9999998E-03; -6.0246237E-02;2188; -2.6235366E-01;  0.0000000E+00; -1.3153515E-02;  1.0138211E+03;  4.1233072E-01;  1.1448954E+04;3; -3.2564510E+01;  0.0000000E+00;  1.1080838E+01;0;  3.4067020E+00;  9.7412227E+03;  0.0000000E+00;  4.2168700E-05;  1.0000000E+04;  0.0000000E+00;  9.9296504E+03;  3.2269936E+00;  0.0000000E+00;  1.7970847E-01;  3.3679051E+04;
  7.3904675E-01;  9.9999998E-03; -4.0167529E-02;2189; -2.6660323E-01;  0.0000000E+00; -8.6073000E-03;  1.0138212E+03;  4.1233033E-01;  1.1449053E+04;3; -3.4015244E+01;  0.0000000E+00;  7.6499023E+00;0;  3.4032004E+00;  9.7420801E+03;  0.0000000E+00;  3.1416519E-05;  1.0000000E+04;  0.0000000E+00;  9.9287871E+03;  3.2355919E+00;  0.0000000E+00;  1.6760841E-01;  3.4130488E+04;
  7.3904657E-01;  9.9999998E-03; -2.0085162E-02;2190; -2.6918966E-01;  0.0000000E+00; -4.2346572E-03;  1.0138151E+03;  4.1233033E-01;  1.1443918E+04;3; -3.4932144E+01;  0.0000000E+00;  3.9547484E+00;0;  3.4004083E+00;  9.7426230E+03;  0.0000000E+00;  1.1617316E-05;  1.0000000E+04;  0.0000000E+00;  9.9281152E+03;  3.2403948E+00;  0.0000000E+00;  1.6001342E-01;  3.4476012E+04;
  7.5947791E-01;  9.9999998E-03; -1.8068998E-01;2213; -1.2211160E-01;  0.0000000E+00; -3.1657115E-02;  1.0133580E+03;  4.1242638E-01;  1.1064766E+04;3; -1.0247893E+01;  0.0000000E+00;  4.1356148E+01;0;  3.3675380E+00;  9.7183613E+03;  0.0000000E+00;  1.0232318E-03;  1.0000000E+04;  0.0000000E+00;  9.9395215E+03;  3.1942530E+00;  0.0000000E+00;  1.7328499E-01;  2.8626775E+04;
  7.5946641E-01;  9.9999998E-03; -1.6062780E-01;2214; -1.2977928E-01;  0.0000000E+00; -2.5998248E-02;  1.0131231E+03;  4.1242597E-01;  1.0870241E+04;3; -1.1919197E+01;  0.0000000E+00;  3.7741474E+01;0;  3.4784162E+00;  9.7177568E+03;  0.0000000E+00;  6.5505621E-04;  1.0000000E+04;  0.0000000E+00;  9.9355830E+03;  3.2793019E+00;  0.0000000E+00;  1.9911432E-01;  3.0563596E+04;
  7.5945568E-01;  9.9999998E-03; -1.4055631E-01;2215; -1.3773179E-01;  0.0000000E+00; -2.0927846E-02;  1.0129727E+03;  4.1242555E-01;  1.0745626E+04;3; -1.3773804E+01;  0.0000000E+00;  3.3084549E+01;0;  3.5620465E+00;  9.7179639E+03;  0.0000000E+00;  5.0151063E-04;  1.0000000E+04;  0.0000000E+00;  9.9324551E+03;  3.3494759E+00;  0.0000000E+00;  2.1257079E-01;  3.2110119E+04;
  7.5944591E-01;  9.9999998E-03; -1.2047777E-01;2216; -1.4552929E-01;  0.0000000E+00; -1.6845077E-02;  1.0128923E+03;  4.1242492E-01;  1.0679072E+04;3; -1.5646834E+01;  0.0000000E+00;  2.7694881E+01;0;  3.6189342E+00;  9.7186133E+03;  0.0000000E+00;  3.8212095E-04;  1.0000000E+04;  0.0000000E+00;  9.9302461E+03;  3.4079413E+00;  0.0000000E+00;  2.1099278E-01;  3.3216027E+04;
  7.5943756E-01;  9.9999998E-03; -1.0040022E-01;2217; -1.5274674E-01;  0.0000000E+00; -1.3675544E-02;  1.0128548E+03;  4.1242430E-01;  1.0647969E+04;3; -1.7431469E+01;  0.0000000E+00;  2.2500187E+01;0;  3.6550732E+00;  9.7194365E+03;  0.0000000E+00;  2.7550635E-04;  1.0000000E+04;  0.0000000E+00;  9.9286973E+03;  3.4565747E+00;  0.0000000E+00;  1.9849841E-01;  3.4009949E+04;
  7.5943089E-01;  9.9999998E-03; -8.0324769E-02;2218; -1.5907104E-01;  0.0000000E+00; -1.0831825E-02;  1.0128336E+03;  4.1242376E-01;  1.0630393E+04;3; -1.9054983E+01;  0.0000000E+00;  1.7889261E+01;0;  3.6774395E+00;  9.7202813E+03;  0.0000000E+00;  1.9108185E-04;  1.0000000E+04;  0.0000000E+00;  9.9274424E+03;  3.4960434E+00;  0.0000000E+00;  1.8139590E-01;  3.4662301E+04;
  7.5942612E-01;  9.9999998E-03; -6.0249057E-02;2219; -1.6425712E-01;  0.0000000E+00; -7.9768784E-03;  1.0128118E+03;  4.1242328E-01;  1.0612322E+04;3; -2.0448994E+01;  0.0000000E+00;  1.3696477E+01;0;  3.6912706E+00;  9.7210439E+03;  0.0000000E+00;  1.2438701E-04;  1.0000000E+04;  0.0000000E+00;  9.9262510E+03;  3.5265186E+00;  0.0000000E+00;  1.6475210E-01;  3.5281063E+04;
  7.5942296E-01;  9.9999998E-03; -4.0170170E-02;2220; -1.6811147E-01;  0.0000000E+00; -5.1557911E-03;  1.0127857E+03;  4.1242307E-01;  1.0590697E+04;3; -2.1535187E+01;  0.0000000E+00;  9.4758797E+00;0;  3.6996765E+00;  9.7216523E+03;  0.0000000E+00;  6.6091328E-05;  1.0000000E+04;  0.0000000E+00;  9.9251348E+03;  3.5481105E+00;  0.0000000E+00;  1.5156606E-01;  3.5858586E+04;
  7.5942129E-01;  9.9999998E-03; -2.0086728E-02;2221; -1.7048807E-01;  0.0000000E+00; -2.5001001E-03;  1.0127629E+03;  4.1242290E-01;  1.0571837E+04;3; -2.2231054E+01;  0.0000000E+00;  4.8998909E+00;0;  3.7042463E+00;  9.7220449E+03;  0.0000000E+00;  1.9130732E-05;  1.0000000E+04;  0.0000000E+00;  9.9242959E+03;  3.5609672E+00;  0.0000000E+00;  1.4327903E-01;  3.6290691E+04;
  7.7975863E-01;  9.9999998E-03; -1.8066666E-01;2244; -6.5160818E-02;  0.0000000E+00; -1.8056292E-02;  1.0135617E+03;  4.1245830E-01;  1.1232769E+04;3; -8.6889181E+00;  0.0000000E+00;  4.5780277E+01;0;  3.3395970E+00;  9.7214150E+03;  0.0000000E+00; -5.5715260E-05;  1.0000000E+04;  0.0000000E+00;  9.9388467E+03;  3.1659429E+00;  0.0000000E+00;  1.7365406E-01;  2.8940762E+04;
  7.7974963E-01;  9.9999998E-03; -1.6060990E-01;2245; -6.9332883E-02;  0.0000000E+00; -1.4017025E-02;  1.0132780E+03;  4.1245809E-01;  1.0997773E+04;3; -9.3608761E+00;  0.0000000E+00;  4.1761761E+01;0;  3.4601092E+00;  9.7198242E+03;  0.0000000E+00;  1.9961213E-05;  1.0000000E+04;  0.0000000E+00;  9.9349512E+03;  3.2658329E+00;  0.0000000E+00;  1.9427629E-01;  3.0854098E+04;
  7.7974051E-01;  9.9999998E-03; -1.4054303E-01;2246; -7.3998131E-02;  0.0000000E+00; -1.0567841E-02;  1.0130875E+03;  4.1245776E-01;  1.0839993E+04;3; -1.0180392E+01;  0.0000000E+00;  3.6576382E+01;0;  3.5529008E+00;  9.7193213E+03;  0.0000000E+00;  1.0829038E-04;  1.0000000E+04;  0.0000000E+00;  9.9317637E+03;  3.3498240E+00;  0.0000000E+00;  2.0307682E-01;  3.2430873E+04;
  7.7973157E-01;  9.9999998E-03; -1.2046822E-01;2247; -7.8893423E-02;  0.0000000E+00; -8.0096731E-03;  1.0129703E+03;  4.1245714E-01;  1.0742934E+04;3; -1.1070581E+01;  0.0000000E+00;  3.0714516E+01;0;  3.6201079E+00;  9.7194111E+03;  0.0000000E+00;  1.5342553E-04;  1.0000000E+04;  0.0000000E+00;  9.9294082E+03;  3.4222207E+00;  0.0000000E+00;  1.9788726E-01;  3.3614316E+04;
  7.7972329E-01;  9.9999998E-03; -1.0039364E-01;2248; -8.3701037E-02;  0.0000000E+00; -6.2382934E-03;  1.0128978E+03;  4.1245675E-01;  1.0682803E+04;3; -1.1974885E+01;  0.0000000E+00;  2.5115677E+01;0;  3.6675477E+00;  9.7197549E+03;  0.0000000E+00;  1.5567226E-04;  1.0000000E+04;  0.0000000E+00;  9.9276650E+03;  3.4851573E+00;  0.0000000E+00;  1.8239035E-01;  3.4506871E+04;
  7.7971613E-01;  9.9999998E-03; -8.0320522E-02;2249; -8.8124357E-02;  0.0000000E+00; -4.7316561E-03;  1.0128431E+03;  4.1245618E-01;  1.0637582E+04;3; -1.2844114E+01;  0.0000000E+00;  2.0123095E+01;0;  3.7013495E+00;  9.7201680E+03;  0.0000000E+00;  1.2949170E-04;  1.0000000E+04;  0.0000000E+00;  9.9261992E+03;  3.5386527E+00;  0.0000000E+00;  1.6269685E-01;  3.5264449E+04;
  7.7971053E-01;  9.9999998E-03; -6.0246576E-02;2250; -9.1888204E-02;  0.0000000E+00; -3.2521125E-03;  1.0127914E+03;  4.1245583E-01;  1.0594729E+04;3; -1.3623542E+01;  0.0000000E+00;  1.5506439E+01;0;  3.7255905E+00;  9.7205605E+03;  0.0000000E+00;  8.9161302E-05;  1.0000000E+04;  0.0000000E+00;  9.9248047E+03;  3.5817442E+00;  0.0000000E+00;  1.4384624E-01;  3.5985863E+04;
  7.7970654E-01;  9.9999998E-03; -4.0168911E-02;2251; -9.4759583E-02;  0.0000000E+00; -1.9064151E-03;  1.0127418E+03;  4.1245574E-01;  1.0553655E+04;3; -1.4249906E+01;  0.0000000E+00;  1.0771040E+01;0;  3.7422452E+00;  9.7208809E+03;  0.0000000E+00;  4.6620684E-05;  1.0000000E+04;  0.0000000E+00;  9.9235137E+03;  3.6133404E+00;  0.0000000E+00;  1.2890488E-01;  3.6651941E+04;
  7.7970421E-01;  9.9999998E-03; -2.0086229E-02;2252; -9.6559405E-02;  0.0000000E+00; -8.3846797E-04;  1.0127031E+03;  4.1245544E-01;  1.0521565E+04;3; -1.4659269E+01;  0.0000000E+00;  5.5799475E+00;0;  3.7520514E+00;  9.7210957E+03;  0.0000000E+00;  1.3079165E-05;  1.0000000E+04;  0.0000000E+00;  9.9225527E+03;  3.6326098E+00;  0.0000000E+00;  1.1944148E-01;  3.7144844E+04;
  7.9998916E-01;  9.9999998E-03; -1.8065085E-01;2275; -1.7814612E-02;  0.0000000E+00; -1.2059056E-02;  1.0141575E+03;  4.1246673E-01;  1.1725102E+04;3; -6.9633884E+00;  0.0000000E+00;  4.7220486E+01;0;  3.2623057E+00;  9.7327617E+03;  0.0000000E+00; -1.4632930E-04;  1.0000000E+04;  0.0000000E+00;  9.9383730E+03;  3.0856953E+00;  0.0000000E+00;  1.7661047E-01;  2.9170033E+04;
  7.9998356E-01;  9.9999998E-03; -1.6059610E-01;2276; -1.8928064E-02;  0.0000000E+00; -8.4800078E-03;  1.0138816E+03;  4.1246647E-01;  1.1496644E+04;3; -7.0425067E+00;  0.0000000E+00;  4.2946327E+01;0;  3.3740256E+00;  9.7310244E+03;  0.0000000E+00; -9.6324809E-05;  1.0000000E+04;  0.0000000E+00;  9.9347842E+03;  3.1812625E+00;  0.0000000E+00;  1.9276300E-01;  3.0935205E+04;
  7.9997724E-01;  9.9999998E-03; -1.4053114E-01;2277; -2.0515235E-02;  0.0000000E+00; -5.4693501E-03;  1.0136962E+03;  4.1246608E-01;  1.1343122E+04;3; -7.1594696E+00;  0.0000000E+00;  3.7562298E+01;0;  3.4596522E+00;  9.7304404E+03;  0.0000000E+00; -3.5078690E-05;  1.0000000E+04;  0.0000000E+00;  9.9317900E+03;  3.2620723E+00;  0.0000000E+00;  1.9757994E-01;  3.2421504E+04;
  7.9997057E-01;  9.9999998E-03; -1.2045798E-01;2278; -2.2481009E-02;  0.0000000E+00; -3.2557598E-03;  1.0135773E+03;  4.1246548E-01;  1.1244689E+04;3; -7.3083434E+00;  0.0000000E+00;  3.1601662E+01;0;  3.5226228E+00;  9.7304199E+03;  0.0000000E+00;  1.0380206E-05;  1.0000000E+04;  0.0000000E+00;  9.9295049E+03;  3.3336577E+00;  0.0000000E+00;  1.8896501E-01;  3.3570414E+04;
  7.9996395E-01;  9.9999998E-03; -1.0038497E-01;2279; -2.4660358E-02;  0.0000000E+00; -1.8273689E-03;  1.0134962E+03;  4.1246504E-01;  1.1177455E+04;3; -7.4874568E+00;  0.0000000E+00;  2.5971548E+01;0;  3.5686867E+00;  9.7305996E+03;  0.0000000E+00;  3.2046974E-05;  1.0000000E+04;  0.0000000E+00;  9.9277627E+03;  3.3984179E+00;  0.0000000E+00;  1.7026882E-01;  3.4463930E+04;
  7.9995787E-01;  9.9999998E-03; -8.0313504E-02;2280; -2.6846398E-02;  0.0000000E+00; -7.9166226E-04;  1.0134283E+03;  4.1246471E-01;  1.1121279E+04;3; -7.6869693E+00;  0.0000000E+00;  2.0950348E+01;0;  3.6032953E+00;  9.7307969E+03;  0.0000000E+00;  3.4039855E-05;  1.0000000E+04;  0.0000000E+00;  9.9262588E+03;  3.4557831E+00;  0.0000000E+00;  1.4751214E-01;  3.5244156E+04;
  7.9995286E-01;  9.9999998E-03; -6.0241316E-02;2281; -2.8817959E-02;  0.0000000E+00;  3.4550267E-06;  1.0133614E+03;  4.1246441E-01;  1.1065794E+04;3; -7.8869619E+00;  0.0000000E+00;  1.6250000E+01;0;  3.6295295E+00;  9.7309561E+03;  0.0000000E+00;  2.5024146E-05;  1.0000000E+04;  0.0000000E+00;  9.9247988E+03;  3.5036721E+00;  0.0000000E+00;  1.2585737E-01;  3.5999434E+04;
  7.9994917E-01;  9.9999998E-03; -4.0165436E-02;2282; -3.0381883E-02;  0.0000000E+00;  4.3237268E-04;  1.0132974E+03;  4.1246420E-01;  1.1012876E+04;3; -8.0608196E+00;  0.0000000E+00;  1.1342924E+01;0;  3.6483464E+00;  9.7310762E+03;  0.0000000E+00;  1.3106775E-05;  1.0000000E+04;  0.0000000E+00;  9.9234414E+03;  3.5397656E+00;  0.0000000E+00;  1.0858078E-01;  3.6699516E+04;
  7.9994690E-01;  9.9999998E-03; -2.0084508E-02;2283; -3.1385761E-02;  0.0000000E+00;  3.8729739E-04;  1.0132493E+03;  4.1246390E-01;  1.0972989E+04;3; -8.1806250E+00;  0.0000000E+00;  5.8928905E+00;0;  3.6596982E+00;  9.7311523E+03;  0.0000000E+00;  3.6270860E-06;  1.0000000E+04;  0.0000000E+00;  9.9224346E+03;  3.5621884E+00;  0.0000000E+00;  9.7509906E-02;  3.7217000E+04;
  8.2022238E-01;  9.9999998E-03; -1.8064377E-01;2306;  3.5551134E-02;  0.0000000E+00; -1.3124028E-02;  1.0147682E+03;  4.1244870E-01;  1.2229490E+04;3; -2.0586677E+00;  0.0000000E+00;  4.6056793E+01;0;  3.2081127E+00;  9.7454375E+03;  0.0000000E+00;  2.7947290E-05;  1.0000000E+04;  0.0000000E+00;  9.9381074E+03;  3.0279970E+00;  0.0000000E+00;  1.8011561E-01;  2.9287014E+04;
  8.2021785E-01;  9.9999998E-03; -1.6058820E-01;2307;  3.6048654E-02;  0.0000000E+00; -9.1405157E-03;  1.0145444E+03;  4.1244814E-01;  1.2044101E+04;3; -2.0601752E+00;  0.0000000E+00;  4.1708221E+01;0;  3.2999012E+00;  9.7443594E+03;  0.0000000E+00; -5.3114567E-05;  1.0000000E+04;  0.0000000E+00;  9.9348604E+03;  3.1048200E+00;  0.0000000E+00;  1.9508123E-01;  3.0884506E+04;
  8.2021296E-01;  9.9999998E-03; -1.4052284E-01;2308;  3.6433786E-02;  0.0000000E+00; -5.6609279E-03;  1.0144022E+03;  4.1244769E-01;  1.1926334E+04;3; -1.9194989E+00;  0.0000000E+00;  3.6354427E+01;0;  3.3674517E+00;  9.7443281E+03;  0.0000000E+00; -5.7124678E-05;  1.0000000E+04;  0.0000000E+00;  9.9321367E+03;  3.1687806E+00;  0.0000000E+00;  1.9867121E-01;  3.2236539E+04;
  8.2020789E-01;  9.9999998E-03; -1.2044948E-01;2309;  3.6650956E-02;  0.0000000E+00; -2.8698533E-03;  1.0143146E+03;  4.1244724E-01;  1.1853777E+04;3; -1.6860005E+00;  0.0000000E+00;  3.0554651E+01;0;  3.4152009E+00;  9.7447109E+03;  0.0000000E+00; -3.5885103E-05;  1.0000000E+04;  0.0000000E+00;  9.9300537E+03;  3.2267644E+00;  0.0000000E+00;  1.8843642E-01;  3.3285984E+04;
  8.2020289E-01;  9.9999998E-03; -1.0037671E-01;2310;  3.6666986E-02;  0.0000000E+00; -9.2338858E-04;  1.0142534E+03;  4.1244671E-01;  1.1803136E+04;3; -1.4123549E+00;  0.0000000E+00;  2.5161367E+01;0;  3.4492097E+00;  9.7451260E+03;  0.0000000E+00; -1.8336277E-05;  1.0000000E+04;  0.0000000E+00;  9.9284629E+03;  3.2816386E+00;  0.0000000E+00;  1.6757101E-01;  3.4106895E+04;
  8.2019830E-01;  9.9999998E-03; -8.0306076E-02;2311;  3.6522914E-02;  0.0000000E+00;  4.1800027E-04;  1.0141964E+03;  4.1244644E-01;  1.1755950E+04;3; -1.1390282E+00;  0.0000000E+00;  2.0387886E+01;0;  3.4748101E+00;  9.7454248E+03;  0.0000000E+00; -9.7687644E-06;  1.0000000E+04;  0.0000000E+00;  9.9270635E+03;  3.3325894E+00;  0.0000000E+00;  1.4222075E-01;  3.4836359E+04;
  8.2019448E-01;  9.9999998E-03; -6.0235262E-02;2312;  3.6296915E-02;  0.0000000E+00;  1.2442857E-03;  1.0141334E+03;  4.1244620E-01;  1.1703729E+04;3; -8.9539546E-01;  0.0000000E+00;  1.5901922E+01;0;  3.4947214E+00;  9.7455928E+03;  0.0000000E+00; -5.9799181E-06;  1.0000000E+04;  0.0000000E+00;  9.9256758E+03;  3.3768249E+00;  0.0000000E+00;  1.1789650E-01;  3.5558738E+04;
  8.2019156E-01;  9.9999998E-03; -4.0161170E-02;2313;  3.6066208E-02;  0.0000000E+00;  1.4310470E-03;  1.0140700E+03;  4.1244593E-01;  1.1651311E+04;3; -7.0550036E-01;  0.0000000E+00;  1.1127373E+01;0;  3.5093846E+00;  9.7456807E+03;  0.0000000E+00; -3.2585119E-06;  1.0000000E+04;  0.0000000E+00;  9.9243623E+03;  3.4111297E+00;  0.0000000E+00;  9.8254919E-02;  3.6238383E+04;
  8.2018971E-01;  9.9999998E-03; -2.0082312E-02;2314;  3.5896577E-02;  0.0000000E+00;  9.0034574E-04;  1.0140212E+03;  4.1244584E-01;  1.1610937E+04;3; -5.8539981E-01;  0.0000000E+00;  5.6325574E+00;0;  3.5183532E+00;  9.7457158E+03;  0.0000000E+00; -9.5782445E-07;  1.0000000E+04;  0.0000000E+00;  9.9233799E+03;  3.4328403E+00;  0.0000000E+00;  8.5512862E-02;  3.6744469E+04;
  8.4047842E-01;  9.9999998E-03; -1.8064119E-01;2337;  9.9217765E-02;  0.0000000E+00; -1.8795246E-02;  1.0149293E+03;  4.1224492E-01;  1.2360808E+04;3;  5.9889727E+00;  0.0000000E+00;  4.3206528E+01;0;  3.1747594E+00;  9.7580166E+03;  0.0000000E+00;  1.5486286E-04;  1.0000000E+04;  0.0000000E+00;  9.9382012E+03;  2.9924581E+00;  0.0000000E+00;  1.8230127E-01;  2.9206658E+04;
  8.4047139E-01;  9.9999998E-03; -1.6058382E-01;2338;  9.9678800E-02;  0.0000000E+00; -1.4136611E-02;  1.0147807E+03;  4.1224432E-01;  1.2237828E+04;3;  5.6737962E+00;  0.0000000E+00;  3.8854248E+01;0;  3.2438405E+00;  9.7581455E+03;  0.0000000E+00; -1.6507494E-05;  1.0000000E+04;  0.0000000E+00;  9.9351846E+03;  3.0438418E+00;  0.0000000E+00;  1.9999853E-01;  3.0685773E+04;
  8.4046513E-01;  9.9999998E-03; -1.4051701E-01;2339;  1.0066538E-01;  0.0000000E+00; -9.7854054E-03;  1.0147028E+03;  4.1224378E-01;  1.2173278E+04;3;  5.7111883E+00;  0.0000000E+00;  3.3636833E+01;0;  3.2895625E+00;  9.7591240E+03;  0.0000000E+00; -5.8741665E-05;  1.0000000E+04;  0.0000000E+00;  9.9326914E+03;  3.0838218E+00;  0.0000000E+00;  2.0574063E-01;  3.1920219E+04;
  8.4045988E-01;  9.9999998E-03; -1.2044264E-01;2340;  1.0200628E-01;  0.0000000E+00; -5.9819263E-03;  1.0146682E+03;  4.1224334E-01;  1.2144559E+04;3;  6.0130134E+00;  0.0000000E+00;  2.8113853E+01;0;  3.3169858E+00;  9.7603027E+03;  0.0000000E+00; -5.0038001E-05;  1.0000000E+04;  0.0000000E+00;  9.9308428E+03;  3.1205235E+00;  0.0000000E+00;  1.9646248E-01;  3.2854762E+04;
  8.4045553E-01;  9.9999998E-03; -1.0036948E-01;2341;  1.0345598E-01;  0.0000000E+00; -3.0669584E-03;  1.0146493E+03;  4.1224292E-01;  1.2128964E+04;3;  6.4785237E+00;  0.0000000E+00;  2.3084621E+01;0;  3.3328438E+00;  9.7613057E+03;  0.0000000E+00; -3.0677078E-05;  1.0000000E+04;  0.0000000E+00;  9.9294688E+03;  3.1575017E+00;  0.0000000E+00;  1.7534205E-01;  3.3567129E+04;
  8.4045196E-01;  9.9999998E-03; -8.0299214E-02;2342;  1.0483566E-01;  0.0000000E+00; -9.3245320E-04;  1.0146237E+03;  4.1224268E-01;  1.2107843E+04;3;  7.0142846E+00;  0.0000000E+00;  1.8715281E+01;0;  3.3430314E+00;  9.7620146E+03;  0.0000000E+00; -1.6130558E-05;  1.0000000E+04;  0.0000000E+00;  9.9282705E+03;  3.1942096E+00;  0.0000000E+00;  1.4882186E-01;  3.4200012E+04;
  8.4044909E-01;  9.9999998E-03; -6.0229447E-02;2343;  1.0601955E-01;  0.0000000E+00;  4.7423548E-04;  1.0145831E+03;  4.1224211E-01;  1.2074186E+04;3;  7.5357022E+00;  0.0000000E+00;  1.4647345E+01;0;  3.3506818E+00;  9.7624521E+03;  0.0000000E+00; -7.9283318E-06;  1.0000000E+04;  0.0000000E+00;  9.9270410E+03;  3.2278051E+00;  0.0000000E+00;  1.2287654E-01;  3.4842609E+04;
  8.4044701E-01;  9.9999998E-03; -4.0156946E-02;2344;  1.0691778E-01;  0.0000000E+00;  1.0539726E-03;  1.0145341E+03;  4.1224197E-01;  1.2033620E+04;3;  7.9681540E+00;  0.0000000E+00;  1.0322345E+01;0;  3.3564448E+00;  9.7626934E+03;  0.0000000E+00; -3.3904275E-06;  1.0000000E+04;  0.0000000E+00;  9.9258555E+03;  3.2548280E+00;  0.0000000E+00;  1.0161690E-01;  3.5462074E+04;
  8.4044570E-01;  9.9999998E-03; -2.0080084E-02;2345;  1.0747430E-01;  0.0000000E+00;  7.7637378E-04;  1.0144935E+03;  4.1224197E-01;  1.2000063E+04;3;  8.2526102E+00;  0.0000000E+00;  5.3172293E+00;0;  3.3600006E+00;  9.7628086E+03;  0.0000000E+00; -8.5606661E-07;  1.0000000E+04;  0.0000000E+00;  9.9249502E+03;  3.2723143E+00;  0.0000000E+00;  8.7686241E-02;  3.5930395E+04;
  8.6074859E-01;  9.9999998E-03; -1.8063730E-01;2368;  1.6899469E-01;  0.0000000E+00; -2.6279349E-02;  1.0147730E+03;  4.1184479E-01;  1.2228663E+04;3;  1.5515167E+01;  0.0000000E+00;  3.9530296E+01;0;  3.1085773E+00;  9.7734102E+03;  0.0000000E+00;  2.3160716E-04;  1.0000000E+04;  0.0000000E+00;  9.9388125E+03;  2.9258502E+00;  0.0000000E+00;  1.8272704E-01;  2.8854709E+04;
  8.6073589E-01;  9.9999998E-03; -1.6057856E-01;2369;  1.6825220E-01;  0.0000000E+00; -2.1040147E-02;  1.0147042E+03;  4.1184407E-01;  1.2171729E+04;3;  1.4748098E+01;  0.0000000E+00;  3.5216286E+01;0;  3.1576202E+00;  9.7749873E+03;  0.0000000E+00;  7.9381180E-06;  1.0000000E+04;  0.0000000E+00;  9.9358926E+03;  2.9517593E+00;  0.0000000E+00;  2.0586076E-01;  3.0280375E+04;
  8.6072582E-01;  9.9999998E-03; -1.4051059E-01;2370;  1.6877700E-01;  0.0000000E+00; -1.5869711E-02;  1.0146964E+03;  4.1184345E-01;  1.2165218E+04;3;  1.4527132E+01;  0.0000000E+00;  3.0162781E+01;0;  3.1831775E+00;  9.7771709E+03;  0.0000000E+00; -5.3058902E-05;  1.0000000E+04;  0.0000000E+00;  9.9335469E+03;  2.9669459E+00;  0.0000000E+00;  2.1623150E-01;  3.1438008E+04;
  8.6071855E-01;  9.9999998E-03; -1.2043555E-01;2371;  1.7033257E-01;  0.0000000E+00; -1.1096088E-02;  1.0147231E+03;  4.1184306E-01;  1.2187421E+04;3;  1.4739265E+01;  0.0000000E+00;  2.4924595E+01;0;  3.1903872E+00;  9.7793281E+03;  0.0000000E+00; -5.8239479E-05;  1.0000000E+04;  0.0000000E+00;  9.9318877E+03;  2.9802618E+00;  0.0000000E+00;  2.1012539E-01;  3.2272828E+04;
  8.6071348E-01;  9.9999998E-03; -1.0036232E-01;2372;  1.7247494E-01;  0.0000000E+00; -7.1925414E-03;  1.0147562E+03;  4.1184255E-01;  1.2214755E+04;3;  1.5244002E+01;  0.0000000E+00;  2.0270632E+01;0;  3.1867793E+00;  9.7811172E+03;  0.0000000E+00; -3.9806324E-05;  1.0000000E+04;  0.0000000E+00;  9.9307422E+03;  2.9959748E+00;  0.0000000E+00;  1.9080459E-01;  3.2872988E+04;
  8.6070997E-01;  9.9999998E-03; -8.0292568E-02;2373;  1.7479427E-01;  0.0000000E+00; -4.1245967E-03;  1.0147744E+03;  4.1184220E-01;  1.2229756E+04;3;  1.5898267E+01;  0.0000000E+00;  1.6349789E+01;0;  3.1792815E+00;  9.7824453E+03;  0.0000000E+00; -1.8460883E-05;  1.0000000E+04;  0.0000000E+00;  9.9297666E+03;  3.0142455E+00;  0.0000000E+00;  1.6503602E-01;  3.3393844E+04;
  8.6070758E-01;  9.9999998E-03; -6.0223863E-02;2374;  1.7694628E-01;  0.0000000E+00; -1.8511041E-03;  1.0147676E+03;  4.1184190E-01;  1.2224131E+04;3;  1.6568422E+01;  0.0000000E+00;  1.2797244E+01;0;  3.1720622E+00;  9.7833398E+03;  0.0000000E+00; -5.2567011E-06;  1.0000000E+04;  0.0000000E+00;  9.9287422E+03;  3.0328665E+00;  0.0000000E+00;  1.3919571E-01;  3.3936457E+04;
  8.6070591E-01;  9.9999998E-03; -4.0152896E-02;2375;  1.7866357E-01;  0.0000000E+00; -4.5989855E-04;  1.0147435E+03;  4.1184163E-01;  1.2204198E+04;3;  1.7139116E+01;  0.0000000E+00;  9.0488644E+00;0;  3.1666179E+00;  9.7839004E+03;  0.0000000E+00; -3.3960262E-07;  1.0000000E+04;  0.0000000E+00;  9.9277129E+03;  3.0488622E+00;  0.0000000E+00;  1.1775565E-01;  3.4477563E+04;
  8.6070496E-01;  9.9999998E-03; -2.0077944E-02;2376;  1.7976263E-01;  0.0000000E+00;  5.3620282E-05;  1.0147173E+03;  4.1184169E-01;  1.2182588E+04;3;  1.7519844E+01;  0.0000000E+00;  4.7502108E+00;0;  3.1632378E+00;  9.7841992E+03;  0.0000000E+00;  2.5133738E-07;  1.0000000E+04;  0.0000000E+00;  9.9269043E+03;  3.0596070E+00;  0.0000000E+00;  1.0363077E-01;  3.4895941E+04;
  8.8101262E-01;  9.9999998E-03; -1.8062712E-01;2399;  2.3865761E-01;  0.0000000E+00; -3.3286151E-02;  1.0145675E+03;  4.1127044E-01;  1.2054876E+04;3;  2.5128370E+01;  0.0000000E+00;  3.5773106E+01;0;  2.9482422E+00;  9.7956553E+03;  0.0000000E+00;  2.6193639E-04;  1.0000000E+04;  0.0000000E+00;  9.9400225E+03;  2.7655423E+00;  0.0000000E+00;  1.8270001E-01;  2.8207877E+04;
  8.8099283E-01;  9.9999998E-03; -1.6056818E-01;2400;  2.3632883E-01;  0.0000000E+00; -2.7714785E-02;  1.0145746E+03;  4.1126966E-01;  1.2060699E+04;3;  2.4026590E+01;  0.0000000E+00;  3.1430288E+01;0;  2.9806564E+00;  9.7986797E+03;  0.0000000E+00;  1.0540517E-05;  1.0000000E+04;  0.0000000E+00;  9.9371113E+03;  2.7688470E+00;  0.0000000E+00;  2.1180950E-01;  2.9619908E+04;
  8.8097769E-01;  9.9999998E-03; -1.4050025E-01;2401;  2.3592892E-01;  0.0000000E+00; -2.2030126E-02;  1.0146313E+03;  4.1126937E-01;  1.2107758E+04;3;  2.3614450E+01;  0.0000000E+00;  2.6550903E+01;0;  2.9895003E+00;  9.8020322E+03;  0.0000000E+00; -3.8041810E-05;  1.0000000E+04;  0.0000000E+00;  9.9348447E+03;  2.7620518E+00;  0.0000000E+00;  2.2744855E-01;  3.0731994E+04;
  8.8096720E-01;  9.9999998E-03; -1.2042578E-01;2402;  2.3719348E-01;  0.0000000E+00; -1.6630428E-02;  1.0147147E+03;  4.1126880E-01;  1.2176715E+04;3;  2.3755877E+01;  0.0000000E+00;  2.1562216E+01;0;  2.9792893E+00;  9.8051465E+03;  0.0000000E+00; -5.4280372E-05;  1.0000000E+04;  0.0000000E+00;  9.9333379E+03;  2.7537985E+00;  0.0000000E+00;  2.2549076E-01;  3.1488406E+04;
  8.8096040E-01;  9.9999998E-03; -1.0035349E-01;2403;  2.3951796E-01;  0.0000000E+00; -1.2022776E-02;  1.0147994E+03;  4.1126829E-01;  1.2246756E+04;3;  2.4278589E+01;  0.0000000E+00;  1.7233809E+01;0;  2.9580936E+00;  9.8077324E+03;  0.0000000E+00; -4.6928701E-05;  1.0000000E+04;  0.0000000E+00;  9.9323838E+03;  2.7486994E+00;  0.0000000E+00;  2.0939417E-01;  3.1989432E+04;
  8.8095611E-01;  9.9999998E-03; -8.0284983E-02;2404;  2.4230003E-01;  0.0000000E+00; -8.1694154E-03;  1.0148623E+03;  4.1126785E-01;  1.2298843E+04;3;  2.5002228E+01;  0.0000000E+00;  1.3730248E+01;0;  2.9339128E+00;  9.8097295E+03;  0.0000000E+00; -2.6481226E-05;  1.0000000E+04;  0.0000000E+00;  9.9316182E+03;  2.7477543E+00;  0.0000000E+00;  1.8615833E-01;  3.2405088E+04;
  8.8095349E-01;  9.9999998E-03; -6.0217798E-02;2405;  2.4501134E-01;  0.0000000E+00; -5.0123036E-03;  1.0148934E+03;  4.1126755E-01;  1.2324592E+04;3;  2.5759264E+01;  0.0000000E+00;  1.0699726E+01;0;  2.9121995E+00;  9.8111592E+03;  0.0000000E+00; -9.5175565E-06;  1.0000000E+04;  0.0000000E+00;  9.9307871E+03;  2.7498584E+00;  0.0000000E+00;  1.6234115E-01;  3.2850730E+04;
  8.8095182E-01;  9.9999998E-03; -4.0148620E-02;2406;  2.4723627E-01;  0.0000000E+00; -2.6354929E-03;  1.0148969E+03;  4.1126755E-01;  1.2327453E+04;3;  2.6409044E+01;  0.0000000E+00;  7.5780993E+00;0;  2.8956394E+00;  9.8121152E+03;  0.0000000E+00; -1.6584428E-06;  1.0000000E+04;  0.0000000E+00;  9.9299023E+03;  2.7531507E+00;  0.0000000E+00;  1.4248866E-01;  3.3314902E+04;
  8.8095093E-01;  9.9999998E-03; -2.0075724E-02;2407;  2.4868366E-01;  0.0000000E+00; -1.0556496E-03;  1.0148884E+03;  4.1126737E-01;  1.2320449E+04;3;  2.6844030E+01;  0.0000000E+00;  3.9912484E+00;0;  2.8853242E+00;  9.8126563E+03;  0.0000000E+00;  7.4864239E-08;  1.0000000E+04;  0.0000000E+00;  9.9291885E+03;  2.7558939E+00;  0.0000000E+00;  1.2943035E-01;  3.3684242E+04;
  9.0125233E-01;  9.9999998E-03; -1.8060786E-01;2430;  3.0405334E-01;  0.0000000E+00; -3.8495429E-02;  1.0144842E+03;  4.1055363E-01;  1.1980992E+04;3;  3.4605030E+01;  0.0000000E+00;  3.2174587E+01;0;  2.6630845E+00;  9.8266387E+03;  0.0000000E+00;  1.9768401E-04;  1.0000000E+04;  0.0000000E+00;  9.9417793E+03;  2.4786851E+00;  0.0000000E+00;  1.8439935E-01;  2.7291617E+04;
  9.0122598E-01;  9.9999998E-03; -1.6055004E-01;2431;  3.0047274E-01;  0.0000000E+00; -3.2771885E-02;  1.0145594E+03;  4.1055301E-01;  1.2043221E+04;3;  3.3463669E+01;  0.0000000E+00;  2.7866230E+01;0;  2.6799705E+00;  9.8309766E+03;  0.0000000E+00; -1.0824324E-05;  1.0000000E+04;  0.0000000E+00;  9.9388721E+03;  2.4618464E+00;  0.0000000E+00;  2.1812418E-01;  2.8694076E+04;
  9.0120578E-01;  9.9999998E-03; -1.4048369E-01;2432;  2.9923874E-01;  0.0000000E+00; -2.6914714E-02;  1.0146683E+03;  4.1055262E-01;  1.2133255E+04;3;  3.3075146E+01;  0.0000000E+00;  2.3197964E+01;0;  2.6746278E+00;  9.8352793E+03;  0.0000000E+00; -2.2833867E-06;  1.0000000E+04;  0.0000000E+00;  9.9366719E+03;  2.4367630E+00;  0.0000000E+00;  2.3786470E-01;  2.9767951E+04;
  9.0119171E-01;  9.9999998E-03; -1.2041132E-01;2433;  3.0008224E-01;  0.0000000E+00; -2.1316741E-02;  1.0147955E+03;  4.1055223E-01;  1.2238474E+04;3;  3.3281105E+01;  0.0000000E+00;  1.8436117E+01;0;  2.6502154E+00;  9.8391309E+03;  0.0000000E+00; -2.1646663E-05;  1.0000000E+04;  0.0000000E+00;  9.9352852E+03;  2.4106185E+00;  0.0000000E+00;  2.3959675E-01;  3.0458205E+04;
  9.0118241E-01;  9.9999998E-03; -1.0034133E-01;2434;  3.0230519E-01;  0.0000000E+00; -1.6416319E-02;  1.0149203E+03;  4.1055170E-01;  1.2341817E+04;3;  3.3889114E+01;  0.0000000E+00;  1.4375405E+01;0;  2.6147413E+00;  9.8423467E+03;  0.0000000E+00; -3.7392729E-05;  1.0000000E+04;  0.0000000E+00;  9.9344990E+03;  2.3875906E+00;  0.0000000E+00;  2.2715074E-01;  3.0876182E+04;
  9.0117657E-01;  9.9999998E-03; -8.0275163E-02;2435;  3.0519286E-01;  0.0000000E+00; -1.2098136E-02;  1.0150198E+03;  4.1055125E-01;  1.2424156E+04;3;  3.4700947E+01;  0.0000000E+00;  1.1223156E+01;0;  2.5769012E+00;  9.8448916E+03;  0.0000000E+00; -3.1532771E-05;  1.0000000E+04;  0.0000000E+00;  9.9338975E+03;  2.3692806E+00;  0.0000000E+00;  2.0762073E-01;  3.1204021E+04;
  9.0117294E-01;  9.9999998E-03; -6.0210306E-02;2436;  3.0811208E-01;  0.0000000E+00; -8.2522817E-03;  1.0150827E+03;  4.1055110E-01;  1.2476124E+04;3;  3.5537018E+01;  0.0000000E+00;  8.6589136E+00;0;  2.5432332E+00;  9.8467959E+03;  0.0000000E+00; -1.7411245E-05;  1.0000000E+04;  0.0000000E+00;  9.9332227E+03;  2.3558109E+00;  0.0000000E+00;  1.8742226E-01;  3.1568568E+04;
  9.0117073E-01;  9.9999998E-03; -4.0143523E-02;2437;  3.1055835E-01;  0.0000000E+00; -4.9555930E-03;  1.0151118E+03;  4.1055104E-01;  1.2500184E+04;3;  3.6248123E+01;  0.0000000E+00;  6.1274929E+00;0;  2.5174794E+00;  9.8481143E+03;  0.0000000E+00; -6.5765644E-06;  1.0000000E+04;  0.0000000E+00;  9.9324580E+03;  2.3467269E+00;  0.0000000E+00;  1.7075245E-01;  3.1968344E+04;
  9.0116954E-01;  9.9999998E-03; -2.0073127E-02;2438;  3.1216979E-01;  0.0000000E+00; -2.2676035E-03;  1.0151191E+03;  4.1055116E-01;  1.2506298E+04;3;  3.6722424E+01;  0.0000000E+00;  3.2358377E+00;0;  2.5014379E+00;  9.8488887E+03;  0.0000000E+00; -1.3266837E-06;  1.0000000E+04;  0.0000000E+00;  9.9318232E+03;  2.3415136E+00;  0.0000000E+00;  1.5992436E-01;  3.2296691E+04;
  9.2144167E-01;  9.9999998E-03; -1.8057957E-01;2461;  3.6124572E-01;  0.0000000E+00; -4.1547325E-02;  1.0145057E+03;  4.0973222E-01;  1.1992088E+04;3;  4.4536205E+01;  0.0000000E+00;  2.8595186E+01;0;  2.2695801E+00;  9.8643955E+03;  0.0000000E+00;  4.8696627E-05;  1.0000000E+04;  0.0000000E+00;  9.9439736E+03;  2.0800560E+00;  0.0000000E+00;  1.8952422E-01;  2.6152025E+04;
  9.2140454E-01;  9.9999998E-03; -1.6052373E-01;2462;  3.5620585E-01;  0.0000000E+00; -3.5641529E-02;  1.0146350E+03;  4.0973201E-01;  1.2099031E+04;3;  4.3713974E+01;  0.0000000E+00;  2.4685083E+01;0;  2.2704389E+00;  9.8697480E+03;  0.0000000E+00;  9.4173420E-06;  1.0000000E+04;  0.0000000E+00;  9.9411064E+03;  2.0447774E+00;  0.0000000E+00;  2.2566144E-01;  2.7526965E+04;
  9.2137563E-01;  9.9999998E-03; -1.4046009E-01;2463;  3.5375091E-01;  0.0000000E+00; -2.9819885E-02;  1.0147775E+03;  4.0973157E-01;  1.2216913E+04;3;  4.3591949E+01;  0.0000000E+00;  2.0302954E+01;0;  2.2526245E+00;  9.8746338E+03;  0.0000000E+00;  9.7933211E-05;  1.0000000E+04;  0.0000000E+00;  9.9389902E+03;  2.0052519E+00;  0.0000000E+00;  2.4737272E-01;  2.8552566E+04;
  9.2135435E-01;  9.9999998E-03; -1.2039124E-01;2464;  3.5355502E-01;  0.0000000E+00; -2.4370421E-02;  1.0149294E+03;  4.0973136E-01;  1.2342477E+04;3;  4.4011497E+01;  0.0000000E+00;  1.5781953E+01;0;  2.2173657E+00;  9.8788545E+03;  0.0000000E+00;  6.7076886E-05;  1.0000000E+04;  0.0000000E+00;  9.9377266E+03;  1.9659568E+00;  0.0000000E+00;  2.5140905E-01;  2.9179295E+04;
  9.2133886E-01;  9.9999998E-03; -1.0032500E-01;2465;  3.5487634E-01;  0.0000000E+00; -1.9578675E-02;  1.0150762E+03;  4.0973115E-01;  1.2463900E+04;3;  4.4778389E+01;  0.0000000E+00;  1.1951478E+01;0;  2.1719046E+00;  9.8823691E+03;  0.0000000E+00;  1.1370331E-05;  1.0000000E+04;  0.0000000E+00;  9.9370645E+03;  1.9297378E+00;  0.0000000E+00;  2.4216665E-01;  2.9526941E+04;
  9.2132771E-01;  9.9999998E-03; -8.0262467E-02;2466;  3.5700923E-01;  0.0000000E+00; -1.5181925E-02;  1.0151965E+03;  4.0973097E-01;  1.2563346E+04;3;  4.5703903E+01;  0.0000000E+00;  9.0779390E+00;0;  2.1249599E+00;  9.8851895E+03;  0.0000000E+00; -1.4242931E-05;  1.0000000E+04;  0.0000000E+00;  9.9365986E+03;  1.8982478E+00;  0.0000000E+00;  2.2671199E-01;  2.9784461E+04;
  9.2132002E-01;  9.9999998E-03; -6.0200997E-02;2467;  3.5935032E-01;  0.0000000E+00; -1.0970874E-02;  1.0152791E+03;  4.0973061E-01;  1.2631547E+04;3;  4.6620083E+01;  0.0000000E+00;  6.8891597E+00;0;  2.0835602E+00;  9.8873564E+03;  0.0000000E+00; -1.5272690E-05;  1.0000000E+04;  0.0000000E+00;  9.9360439E+03;  1.8725632E+00;  0.0000000E+00;  2.1099699E-01;  3.0084863E+04;
  9.2131501E-01;  9.9999998E-03; -4.0137377E-02;2468;  3.6140305E-01;  0.0000000E+00; -6.9931350E-03;  1.0153234E+03;  4.0973070E-01;  1.2668211E+04;3;  4.7387070E+01;  0.0000000E+00;  4.8528385E+00;0;  2.0520012E+00;  9.8888975E+03;  0.0000000E+00; -8.2142724E-06;  1.0000000E+04;  0.0000000E+00;  9.9353682E+03;  1.8535204E+00;  0.0000000E+00;  1.9848081E-01;  3.0433266E+04;
  9.2131221E-01;  9.9999998E-03; -2.0070057E-02;2469;  3.6279413E-01;  0.0000000E+00; -3.3604736E-03;  1.0153409E+03;  4.0973055E-01;  1.2682700E+04;3;  4.7895660E+01;  0.0000000E+00;  2.5658929E+00;0;  2.0324121E+00;  9.8898154E+03;  0.0000000E+00; -2.1376145E-06;  1.0000000E+04;  0.0000000E+00;  9.9347891E+03;  1.8417959E+00;  0.0000000E+00;  1.9061603E-01;  3.0728326E+04;
  9.4153053E-01;  9.9999998E-03; -1.8054685E-01;2492;  4.0061015E-01;  0.0000000E+00; -4.3280713E-02;  1.0144619E+03;  4.0884730E-01;  1.1947015E+04;3;  5.5433670E+01;  0.0000000E+00;  2.5082853E+01;0;  1.8215363E+00;  9.9038252E+03;  0.0000000E+00; -3.7825201E-05;  1.0000000E+04;  0.0000000E+00;  9.9464824E+03;  1.6230838E+00;  0.0000000E+00;  1.9845247E-01;  2.4828428E+04;
  9.4148713E-01;  9.9999998E-03; -1.6049232E-01;2493;  3.9487386E-01;  0.0000000E+00; -3.6856599E-02;  1.0146261E+03;  4.0884724E-01;  1.2082742E+04;3;  5.5170292E+01;  0.0000000E+00;  2.1928648E+01;0;  1.8063527E+00;  9.9097939E+03;  0.0000000E+00;  1.5672723E-04;  1.0000000E+04;  0.0000000E+00;  9.9436973E+03;  1.5713731E+00;  0.0000000E+00;  2.3497958E-01;  2.6153592E+04;
  9.4145226E-01;  9.9999998E-03; -1.4043166E-01;2494;  3.9135927E-01;  0.0000000E+00; -3.1054670E-02;  1.0147816E+03;  4.0884715E-01;  1.2211177E+04;3;  5.5482941E+01;  0.0000000E+00;  1.7925457E+01;0;  1.7780855E+00;  9.9148350E+03;  0.0000000E+00;  2.8412938E-04;  1.0000000E+04;  0.0000000E+00;  9.9416846E+03;  1.5214564E+00;  0.0000000E+00;  2.5662911E-01;  2.7118896E+04;
  9.4142491E-01;  9.9999998E-03; -1.2036714E-01;2495;  3.8974583E-01;  0.0000000E+00; -2.5923872E-02;  1.0149371E+03;  4.0884709E-01;  1.2339610E+04;3;  5.6193264E+01;  0.0000000E+00;  1.3689866E+01;0;  1.7357821E+00;  9.9190205E+03;  0.0000000E+00;  2.1092626E-04;  1.0000000E+04;  0.0000000E+00;  9.9405352E+03;  1.4743389E+00;  0.0000000E+00;  2.6144323E-01;  2.7683180E+04;
  9.4140369E-01;  9.9999998E-03; -1.0030546E-01;2496;  3.8944095E-01;  0.0000000E+00; -2.1482415E-02;  1.0150847E+03;  4.0884706E-01;  1.2461538E+04;3;  5.7130096E+01;  0.0000000E+00;  1.0076930E+01;0;  1.6853149E+00;  9.9224531E+03;  0.0000000E+00;  1.0041244E-04;  1.0000000E+04;  0.0000000E+00;  9.9399912E+03;  1.4308108E+00;  0.0000000E+00;  2.5450405E-01;  2.7970639E+04;
  9.4138747E-01;  9.9999998E-03; -8.0247201E-02;2497;  3.8989812E-01;  0.0000000E+00; -1.7265044E-02;  1.0152084E+03;  4.0884697E-01;  1.2563868E+04;3;  5.8144058E+01;  0.0000000E+00;  7.4161096E+00;0;  1.6347172E+00;  9.9252344E+03;  0.0000000E+00;  3.1895979E-05;  1.0000000E+04;  0.0000000E+00;  9.9396289E+03;  1.3919475E+00;  0.0000000E+00;  2.4276978E-01;  2.8170811E+04;
  9.4137543E-01;  9.9999998E-03; -6.0189631E-02;2498;  3.9064988E-01;  0.0000000E+00; -1.2938077E-02;  1.0152952E+03;  4.0884694E-01;  1.2635469E+04;3;  5.9105209E+01;  0.0000000E+00;  5.4983463E+00;0;  1.5907704E+00;  9.9274014E+03;  0.0000000E+00;  4.0873015E-06;  1.0000000E+04;  0.0000000E+00;  9.9391650E+03;  1.3592281E+00;  0.0000000E+00;  2.3154223E-01;  2.8417910E+04;
  9.4136715E-01;  9.9999998E-03; -4.0129747E-02;2499;  3.9138833E-01;  0.0000000E+00; -8.5275816E-03;  1.0153449E+03;  4.0884694E-01;  1.2676540E+04;3;  5.9889637E+01;  0.0000000E+00;  3.8327188E+00;0;  1.5576415E+00;  9.9289678E+03;  0.0000000E+00; -2.1360067E-06;  1.0000000E+04;  0.0000000E+00;  9.9385703E+03;  1.3343122E+00;  0.0000000E+00;  2.2332926E-01;  2.8721285E+04;
  9.4136232E-01;  9.9999998E-03; -2.0066181E-02;2500;  3.9190072E-01;  0.0000000E+00; -4.1979966E-03;  1.0153661E+03;  4.0884697E-01;  1.2694071E+04;3;  6.0405384E+01;  0.0000000E+00;  2.0223451E+00;0;  1.5372578E+00;  9.9299150E+03;  0.0000000E+00; -1.0413602E-06;  1.0000000E+04;  0.0000000E+00;  9.9380381E+03;  1.3186877E+00;  0.0000000E+00;  2.1857011E-01;  2.8985373E+04;
  9.6156377E-01;  9.9999998E-03; -1.8051466E-01;2523;  4.2478356E-01;  0.0000000E+00; -4.5347203E-02;  1.0141653E+03;  4.0793753E-01;  1.1690387E+04;3;  6.6643013E+01;  0.0000000E+00;  2.1986790E+01;0;  1.3807383E+00;  9.9395146E+03;  0.0000000E+00;  4.9422786E-05;  1.0000000E+04;  0.0000000E+00;  9.9492188E+03;  1.1708260E+00;  0.0000000E+00;  2.0991230E-01;  2.3332057E+04;
  9.6151745E-01;  9.9999998E-03; -1.6046126E-01;2524;  4.1854089E-01;  0.0000000E+00; -3.8343109E-02;  1.0143449E+03;  4.0793741E-01;  1.1838581E+04;3;  6.7028236E+01;  0.0000000E+00;  1.9435318E+01;0;  1.3519380E+00;  9.9457021E+03;  0.0000000E+00;  3.9171000E-04;  1.0000000E+04;  0.0000000E+00;  9.9465342E+03;  1.1063443E+00;  0.0000000E+00;  2.4559361E-01;  2.4595605E+04;
  9.6147901E-01;  9.9999998E-03; -1.4040339E-01;2525;  4.1389596E-01;  0.0000000E+00; -3.2424822E-02;  1.0144958E+03;  4.0793747E-01;  1.1963059E+04;3;  6.7731827E+01;  0.0000000E+00;  1.5879382E+01;0;  1.3165590E+00;  9.9505625E+03;  0.0000000E+00;  4.7365914E-04;  1.0000000E+04;  0.0000000E+00;  9.9446250E+03;  1.0505377E+00;  0.0000000E+00;  2.6602128E-01;  2.5500553E+04;
  9.6144766E-01;  9.9999998E-03; -1.2034309E-01;2526;  4.1059902E-01;  0.0000000E+00; -2.7537694E-02;  1.0146379E+03;  4.0793765E-01;  1.2080449E+04;3;  6.8556046E+01;  0.0000000E+00;  1.1963112E+01;0;  1.2715468E+00;  9.9543936E+03;  0.0000000E+00;  3.3750513E-04;  1.0000000E+04;  0.0000000E+00;  9.9435791E+03;  1.0009396E+00;  0.0000000E+00;  2.7060717E-01;  2.6011678E+04;
  9.6142256E-01;  9.9999998E-03; -1.0028566E-01;2527;  4.0834215E-01;  0.0000000E+00; -2.3374073E-02;  1.0147714E+03;  4.0793771E-01;  1.2190654E+04;3;  6.9373932E+01;  0.0000000E+00;  8.5483894E+00;0;  1.2211243E+00;  9.9574707E+03;  0.0000000E+00;  1.8019372E-04;  1.0000000E+04;  0.0000000E+00;  9.9431143E+03;  9.5603150E-01;  0.0000000E+00;  2.6509282E-01;  2.6252215E+04;
  9.6140277E-01;  9.9999998E-03; -8.0231242E-02;2528;  4.0679300E-01;  0.0000000E+00; -1.9252352E-02;  1.0148841E+03;  4.0793774E-01;  1.2283638E+04;3;  7.0065468E+01;  0.0000000E+00;  6.0325203E+00;0;  1.1721514E+00;  9.9599561E+03;  0.0000000E+00;  7.7130731E-05;  1.0000000E+04;  0.0000000E+00;  9.9428369E+03;  9.1585439E-01;  0.0000000E+00;  2.5629702E-01;  2.6406258E+04;
  9.6138787E-01;  9.9999998E-03; -6.0177378E-02;2529;  4.0576535E-01;  0.0000000E+00; -1.4777798E-02;  1.0149639E+03;  4.0793782E-01;  1.2349467E+04;3;  7.0632210E+01;  0.0000000E+00;  4.2978115E+00;0;  1.1305623E+00;  9.9619121E+03;  0.0000000E+00;  2.4939351E-05;  1.0000000E+04;  0.0000000E+00;  9.9424521E+03;  8.8170069E-01;  0.0000000E+00;  2.4886167E-01;  2.6605666E+04;
  9.6137744E-01;  9.9999998E-03; -4.0121380E-02;2530;  4.0509406E-01;  0.0000000E+00; -9.9659991E-03;  1.0150101E+03;  4.0793794E-01;  1.2387646E+04;3;  7.1000183E+01;  0.0000000E+00;  2.9164302E+00;0;  1.0998120E+00;  9.9633369E+03;  0.0000000E+00;  4.6156083E-06;  1.0000000E+04;  0.0000000E+00;  9.9419355E+03;  8.5544968E-01;  0.0000000E+00;  2.4436240E-01;  2.6863766E+04;
  9.6137136E-01;  9.9999998E-03; -2.0061994E-02;2531;  4.0473467E-01;  0.0000000E+00; -5.0088665E-03;  1.0150302E+03;  4.0793777E-01;  1.2404276E+04;3;  7.1271866E+01;  0.0000000E+00;  1.5057913E+00;0;  1.0811826E+00;  9.9642041E+03;  0.0000000E+00;  1.2632292E-07;  1.0000000E+04;  0.0000000E+00;  9.9414609E+03;  8.3888668E-01;  0.0000000E+00;  2.4229595E-01;  2.7093867E+04;
  9.8156899E-01;  9.9999998E-03; -1.8048556E-01;2554;  4.3560132E-01;  0.0000000E+00; -4.9252607E-02;  1.0135249E+03;  4.0703735E-01;  1.1146784E+04;3;  7.3896568E+01;  0.0000000E+00;  1.7756765E+01;0;  9.9573290E-01;  9.9679424E+03;  0.0000000E+00;  1.8765600E-04;  1.0000000E+04;  0.0000000E+00;  9.9521826E+03;  7.7451903E-01;  0.0000000E+00;  2.2121385E-01;  2.1652986E+04;
  9.8152059E-01;  9.9999998E-03; -1.6043414E-01;2555;  4.2878082E-01;  0.0000000E+00; -4.1805737E-02;  1.0137039E+03;  4.0703750E-01;  1.1294297E+04;3;  7.4537964E+01;  0.0000000E+00;  1.5744930E+01;0;  9.5837998E-01;  9.9740586E+03;  0.0000000E+00;  5.1943056E-04;  1.0000000E+04;  0.0000000E+00;  9.9495811E+03;  7.0267743E-01;  0.0000000E+00;  2.5570253E-01;  2.2857311E+04;
  9.8147994E-01;  9.9999998E-03; -1.4037868E-01;2556;  4.2325792E-01;  0.0000000E+00; -3.5489056E-02;  1.0138392E+03;  4.0703776E-01;  1.1405846E+04;3;  7.5298492E+01;  0.0000000E+00;  1.2741521E+01;0;  9.2038774E-01;  9.9785508E+03;  0.0000000E+00;  5.1420089E-04;  1.0000000E+04;  0.0000000E+00;  9.9477383E+03;  6.4554483E-01;  0.0000000E+00;  2.7484292E-01;  2.3717131E+04;
  9.8144656E-01;  9.9999998E-03; -1.2032168E-01;2557;  4.1888490E-01;  0.0000000E+00; -3.0354032E-02;  1.0139594E+03;  4.0703791E-01;  1.1505008E+04;3;  7.5900818E+01;  0.0000000E+00;  9.3639116E+00;0;  8.7686568E-01;  9.9819160E+03;  0.0000000E+00;  3.4983133E-04;  1.0000000E+04;  0.0000000E+00;  9.9467383E+03;  5.9783596E-01;  0.0000000E+00;  2.7902973E-01;  2.4196807E+04;
  9.8141950E-01;  9.9999998E-03; -1.0026756E-01;2558;  4.1546822E-01;  0.0000000E+00; -2.5942644E-02;  1.0140712E+03;  4.0703806E-01;  1.1597191E+04;3;  7.6387619E+01;  0.0000000E+00;  6.3717675E+00;0;  8.3050001E-01;  9.9845332E+03;  0.0000000E+00;  1.9131746E-04;  1.0000000E+04;  0.0000000E+00;  9.9463154E+03;  5.5605668E-01;  0.0000000E+00;  2.7444333E-01;  2.4411730E+04;
  9.8139805E-01;  9.9999998E-03; -8.0216393E-02;2559;  4.1278991E-01;  0.0000000E+00; -2.1519834E-02;  1.0141666E+03;  4.0703830E-01;  1.1675811E+04;3;  7.6480179E+01;  0.0000000E+00;  4.2361898E+00;0;  7.8688437E-01;  9.9866260E+03;  0.0000000E+00;  8.4582716E-05;  1.0000000E+04;  0.0000000E+00;  9.9460918E+03;  5.1914513E-01;  0.0000000E+00;  2.6773924E-01;  2.4534768E+04;
  9.8138177E-01;  9.9999998E-03; -6.0165763E-02;2560;  4.1079175E-01;  0.0000000E+00; -1.6632171E-02;  1.0142347E+03;  4.0703827E-01;  1.1731926E+04;3;  7.6613152E+01;  0.0000000E+00;  2.8604336E+00;0;  7.5088847E-01;  9.9882725E+03;  0.0000000E+00;  2.5049341E-05;  1.0000000E+04;  0.0000000E+00;  9.9457822E+03;  4.8785806E-01;  0.0000000E+00;  2.6303038E-01;  2.4692525E+04;
  9.8137033E-01;  9.9999998E-03; -4.0113173E-02;2561;  4.0939108E-01;  0.0000000E+00; -1.1253189E-02;  1.0142734E+03;  4.0703836E-01;  1.1763866E+04;3;  7.6512619E+01;  0.0000000E+00;  1.9221504E+00;0;  7.2499621E-01;  9.9894736E+03;  0.0000000E+00;  1.6187566E-06;  1.0000000E+04;  0.0000000E+00;  9.9453467E+03;  4.6381646E-01;  0.0000000E+00;  2.6117977E-01;  2.4903359E+04;
  9.8136353E-01;  9.9999998E-03; -2.0057620E-02;2562;  4.0856931E-01;  0.0000000E+00; -5.6517222E-03;  1.0142903E+03;  4.0703848E-01;  1.1777825E+04;3;  7.6399971E+01;  0.0000000E+00;  9.9487168E-01;0;  7.0965642E-01;  9.9902109E+03;  0.0000000E+00; -1.3360253E-06;  1.0000000E+04;  0.0000000E+00;  9.9449414E+03;  4.4864589E-01;  0.0000000E+00;  2.6101053E-01;  2.5094547E+04;
  1.0015621E+00;  9.9999998E-03; -1.8045631E-01;2585;  4.3987671E-01;  0.0000000E+00; -5.2333288E-02;  1.0125689E+03;  4.0617612E-01;  1.0340239E+04;3;  7.8136215E+01;  0.0000000E+00;  1.3365588E+01;0;  6.9019473E-01;  9.9881680E+03;  0.0000000E+00; -5.5993639E-04;  1.0000000E+04;  0.0000000E+00;  9.9553701E+03;  4.6118450E-01;  0.0000000E+00;  2.2901021E-01;  1.9788049E+04;
  1.0015119E+00;  9.9999998E-03; -1.6040875E-01;2586;  4.3244976E-01;  0.0000000E+00; -4.4833239E-02;  1.0127380E+03;  4.0617633E-01;  1.0479359E+04;3;  7.8632141E+01;  0.0000000E+00;  1.1942234E+01;0;  6.5069401E-01;  9.9940322E+03;  0.0000000E+00;  3.5812226E-04;  1.0000000E+04;  0.0000000E+00;  9.9528320E+03;  3.8802898E-01;  0.0000000E+00;  2.6266503E-01;  2.0938242E+04;
  1.0014693E+00;  9.9999998E-03; -1.4035676E-01;2587;  4.2629945E-01;  0.0000000E+00; -3.8254760E-02;  1.0128544E+03;  4.0617666E-01;  1.0575223E+04;3;  7.9110252E+01;  0.0000000E+00;  9.6178131E+00;0;  6.1454940E-01;  9.9981543E+03;  0.0000000E+00;  3.2070660E-04;  1.0000000E+04;  0.0000000E+00;  9.9509990E+03;  3.3329469E-01;  0.0000000E+00;  2.8125468E-01;  2.1774324E+04;
  1.0014343E+00;  9.9999998E-03; -1.2030339E-01;2588;  4.2127621E-01;  0.0000000E+00; -3.2725789E-02;  1.0129526E+03;  4.0617678E-01;  1.0655975E+04;3;  7.9405922E+01;  0.0000000E+00;  6.9779668E+00;0;  5.7564521E-01;  1.0001111E+04;  0.0000000E+00;  2.2230744E-04;  1.0000000E+04;  0.0000000E+00;  9.9499756E+03;  2.9000980E-01;  0.0000000E+00;  2.8563544E-01;  2.2251852E+04;
  1.0014061E+00;  9.9999998E-03; -1.0025219E-01;2589;  4.1721404E-01;  0.0000000E+00; -2.7800307E-02;  1.0130439E+03;  4.0617719E-01;  1.0731228E+04;3;  7.9600159E+01;  0.0000000E+00;  4.7312746E+00;0;  5.3552079E-01;  1.0003348E+04;  0.0000000E+00;  1.3150643E-04;  1.0000000E+04;  0.0000000E+00;  9.9495342E+03;  2.5349057E-01;  0.0000000E+00;  2.8203025E-01;  2.2470326E+04;
  1.0013837E+00;  9.9999998E-03; -8.0203667E-02;2590;  4.1389796E-01;  0.0000000E+00; -2.3045471E-02;  1.0131221E+03;  4.0617728E-01;  1.0795491E+04;3;  7.9441727E+01;  0.0000000E+00;  3.0469520E+00;0;  4.9877834E-01;  1.0005100E+04;  0.0000000E+00;  5.6128079E-05;  1.0000000E+04;  0.0000000E+00;  9.9493184E+03;  2.2193085E-01;  0.0000000E+00;  2.7684751E-01;  2.2584682E+04;
  1.0013663E+00;  9.9999998E-03; -6.0155574E-02;2591;  4.1131970E-01;  0.0000000E+00; -1.7879788E-02;  1.0131784E+03;  4.0617740E-01;  1.0841800E+04;3;  7.9174408E+01;  0.0000000E+00;  1.9025240E+00;0;  4.6937633E-01;  1.0006459E+04;  0.0000000E+00;  5.8397081E-06;  1.0000000E+04;  0.0000000E+00;  9.9490596E+03;  1.9554149E-01;  0.0000000E+00;  2.7383485E-01;  2.2712582E+04;
  1.0013539E+00;  9.9999998E-03; -4.0105924E-02;2592;  4.0948626E-01;  0.0000000E+00; -1.2200082E-02;  1.0132105E+03;  4.0617749E-01;  1.0868294E+04;3;  7.8967163E+01;  0.0000000E+00;  1.2085876E+00;0;  4.4891232E-01;  1.0007450E+04;  0.0000000E+00; -1.0580479E-05;  1.0000000E+04;  0.0000000E+00;  9.9487080E+03;  1.7544468E-01;  0.0000000E+00;  2.7346766E-01;  2.2878201E+04;
  1.0013465E+00;  9.9999998E-03; -2.0053850E-02;2593;  4.0842381E-01;  0.0000000E+00; -6.1864783E-03;  1.0132242E+03;  4.0617761E-01;  1.0879581E+04;3;  7.8829773E+01;  0.0000000E+00;  6.0747308E-01;0;  4.3712091E-01;  1.0008055E+04;  0.0000000E+00; -5.2871555E-06;  1.0000000E+04;  0.0000000E+00;  9.9483818E+03;  1.6283388E-01;  0.0000000E+00;  2.7428705E-01;  2.3028107E+04;
  1.0215490E+00;  9.9999998E-03; -1.8042903E-01;2616;  4.4106123E-01;  0.0000000E+00; -5.4298628E-02;  1.0114065E+03;  4.0537658E-01;  9.3612578E+03;3;  8.0738022E+01;  0.0000000E+00;  1.0523575E+01;0;  4.6423584E-01;  1.0001207E+04;  0.0000000E+00; -8.5222749E-03;  1.0000000E+04;  0.0000000E+00;  9.9587275E+03;  2.3334461E-01;  0.0000000E+00;  2.3089124E-01;  1.7777654E+04;
  1.0214965E+00;  9.9999998E-03; -1.6038376E-01;2617;  4.3284822E-01;  0.0000000E+00; -4.6849959E-02;  1.0115628E+03;  4.0537688E-01;  9.4895879E+03;3;  8.0889297E+01;  0.0000000E+00;  9.2382298E+00;0;  4.2817503E-01;  1.0006726E+04;  0.0000000E+00; -3.6521512E-04;  1.0000000E+04;  0.0000000E+00;  9.9562891E+03;  1.6427901E-01;  0.0000000E+00;  2.6389602E-01;  1.8852758E+04;
  1.0214522E+00;  9.9999998E-03; -1.4033508E-01;2618;  4.2619717E-01;  0.0000000E+00; -4.0005624E-02;  1.0116638E+03;  4.0537709E-01;  9.5725137E+03;3;  8.1221031E+01;  0.0000000E+00;  7.4885674E+00;0;  3.9704609E-01;  1.0010585E+04;  0.0000000E+00; -5.5762648E-05;  1.0000000E+04;  0.0000000E+00;  9.9544238E+03;  1.1411753E-01;  0.0000000E+00;  2.8292856E-01;  1.9677244E+04;
  1.0214158E+00;  9.9999998E-03; -1.2028494E-01;2619;  4.2068040E-01;  0.0000000E+00; -3.3994380E-02;  1.0117466E+03;  4.0537751E-01;  9.6404600E+03;3;  8.1417587E+01;  0.0000000E+00;  5.4965124E+00;0;  3.6425805E-01;  1.0013321E+04;  0.0000000E+00;  1.7992144E-05;  1.0000000E+04;  0.0000000E+00;  9.9533125E+03;  7.5724103E-02;  0.0000000E+00;  2.8853396E-01;  2.0178561E+04;
  1.0213866E+00;  9.9999998E-03; -1.0023618E-01;2620;  4.1614786E-01;  0.0000000E+00; -2.8604943E-02;  1.0118229E+03;  4.0537772E-01;  9.7032119E+03;3;  8.1204483E+01;  0.0000000E+00;  3.6212094E+00;0;  3.3074215E-01;  1.0015364E+04;  0.0000000E+00;  5.3211596E-05;  1.0000000E+04;  0.0000000E+00;  9.9527783E+03;  4.4255130E-02;  0.0000000E+00;  2.8648701E-01;  2.0431574E+04;
  1.0213633E+00;  9.9999998E-03; -8.0189943E-02;2621;  4.1245365E-01;  0.0000000E+00; -2.3302071E-02;  1.0118887E+03;  4.0537801E-01;  9.7571523E+03;3;  8.1013649E+01;  0.0000000E+00;  2.2807462E+00;0;  3.0052745E-01;  1.0016929E+04;  0.0000000E+00;  2.9903726E-05;  1.0000000E+04;  0.0000000E+00;  9.9525078E+03;  1.7774293E-02;  0.0000000E+00;  2.8275317E-01;  2.0565346E+04;
  1.0213453E+00;  9.9999998E-03; -6.0144689E-02;2622;  4.0955654E-01;  0.0000000E+00; -1.7857641E-02;  1.0119364E+03;  4.0537801E-01;  9.7964092E+03;3;  8.0713768E+01;  0.0000000E+00;  1.5462894E+00;0;  2.7696425E-01;  1.0018115E+04;  0.0000000E+00; -7.4900936E-06;  1.0000000E+04;  0.0000000E+00;  9.9522598E+03; -3.8358672E-03;  0.0000000E+00;  2.8080010E-01;  2.0682850E+04;
  1.0213321E+00;  9.9999998E-03; -4.0098336E-02;2623;  4.0744951E-01;  0.0000000E+00; -1.2164251E-02;  1.0119644E+03;  4.0537819E-01;  9.8194180E+03;3;  8.0365013E+01;  0.0000000E+00;  9.6444160E-01;0;  2.6104629E-01;  1.0018952E+04;  0.0000000E+00; -1.9344989E-05;  1.0000000E+04;  0.0000000E+00;  9.9519766E+03; -1.9974006E-02;  0.0000000E+00;  2.8102028E-01;  2.0813307E+04;
  1.0213243E+00;  9.9999998E-03; -2.0049881E-02;2624;  4.0617257E-01;  0.0000000E+00; -6.1423746E-03;  1.0119771E+03;  4.0537828E-01;  9.8297998E+03;3;  8.0066605E+01;  0.0000000E+00;  5.0528198E-01;0;  2.5210324E-01;  1.0019456E+04;  0.0000000E+00; -8.3090199E-06;  1.0000000E+04;  0.0000000E+00;  9.9517217E+03; -2.9968869E-02;  0.0000000E+00;  2.8207210E-01;  2.0925576E+04;
  1.0415323E+00;  9.9999998E-03; -1.8040055E-01;2647;  4.4052386E-01;  0.0000000E+00; -5.4377582E-02;  1.0101705E+03;  4.0465465E-01;  8.3199297E+03;3;  8.2049194E+01;  0.0000000E+00;  8.2653122E+00;0;  3.0349094E-01;  1.0008979E+04;  0.0000000E+00; -4.0575847E-02;  1.0000000E+04;  0.0000000E+00;  9.9621289E+03;  7.7516727E-02;  0.0000000E+00;  2.2597422E-01;  1.5702574E+04;
  1.0414765E+00;  9.9999998E-03; -1.6035882E-01;2648;  4.3168813E-01;  0.0000000E+00; -4.7425810E-02;  1.0103140E+03;  4.0465489E-01;  8.4373311E+03;3;  8.2295265E+01;  0.0000000E+00;  7.4265423E+00;0;  2.7431095E-01;  1.0014037E+04;  0.0000000E+00; -4.7206837E-03;  1.0000000E+04;  0.0000000E+00;  9.9599004E+03;  1.6524987E-02;  0.0000000E+00;  2.5778595E-01;  1.6648303E+04;
  1.0414301E+00;  9.9999998E-03; -1.4031464E-01;2649;  4.2445749E-01;  0.0000000E+00; -4.0714096E-02;  1.0104089E+03;  4.0465495E-01;  8.5150293E+03;3;  8.2493988E+01;  0.0000000E+00;  6.2186537E+00;0;  2.4940489E-01;  1.0017796E+04;  0.0000000E+00; -5.0016353E-04;  1.0000000E+04;  0.0000000E+00;  9.9580273E+03; -2.8489640E-02;  0.0000000E+00;  2.7789453E-01;  1.7446906E+04;
  1.0413921E+00;  9.9999998E-03; -1.2026766E-01;2650;  4.1850665E-01;  0.0000000E+00; -3.4410387E-02;  1.0104852E+03;  4.0465522E-01;  8.5775029E+03;3;  8.2634537E+01;  0.0000000E+00;  4.7599096E+00;0;  2.2264028E-01;  1.0020537E+04;  0.0000000E+00; -1.9605165E-04;  1.0000000E+04;  0.0000000E+00;  9.9567871E+03; -6.3160688E-02;  0.0000000E+00;  2.8580096E-01;  1.7983242E+04;
  1.0413616E+00;  9.9999998E-03; -1.0022162E-01;2651;  4.1353142E-01;  0.0000000E+00; -2.8573005E-02;  1.0105540E+03;  4.0465549E-01;  8.6339189E+03;3;  8.2486023E+01;  0.0000000E+00;  3.4095321E+00;0;  1.9485807E-01;  1.0022604E+04;  0.0000000E+00; -6.3544494E-06;  1.0000000E+04;  0.0000000E+00;  9.9560889E+03; -9.1365837E-02;  0.0000000E+00;  2.8622392E-01;  1.8294625E+04;
  1.0413374E+00;  9.9999998E-03; -8.0177434E-02;2652;  4.0945843E-01;  0.0000000E+00; -2.3090694E-02;  1.0106129E+03;  4.0465569E-01;  8.6820361E+03;3;  8.1900124E+01;  0.0000000E+00;  2.3868728E+00;0;  1.6981356E-01;  1.0024157E+04;  0.0000000E+00;  3.3383138E-05;  1.0000000E+04;  0.0000000E+00;  9.9556943E+03; -1.1456691E-01;  0.0000000E+00;  2.8438047E-01;  1.8475805E+04;
  1.0413187E+00;  9.9999998E-03; -6.0134299E-02;2653;  4.0631485E-01;  0.0000000E+00; -1.7601665E-02;  1.0106559E+03;  4.0465587E-01;  8.7173691E+03;3;  8.1491959E+01;  0.0000000E+00;  1.5108505E+00;0;  1.5049362E-01;  1.0025300E+04;  0.0000000E+00;  6.8109007E-06;  1.0000000E+04;  0.0000000E+00;  9.9554053E+03; -1.3292655E-01;  0.0000000E+00;  2.8342018E-01;  1.8607754E+04;
  1.0413049E+00;  9.9999998E-03; -4.0090527E-02;2654;  4.0407920E-01;  0.0000000E+00; -1.1753185E-02;  1.0106829E+03;  4.0465596E-01;  8.7393340E+03;3;  8.1184013E+01;  0.0000000E+00;  9.6174473E-01;0;  1.3760838E-01;  1.0026081E+04;  0.0000000E+00; -1.1838064E-05;  1.0000000E+04;  0.0000000E+00;  9.9551523E+03; -1.4624766E-01;  0.0000000E+00;  2.8385603E-01;  1.8721605E+04;
  1.0412966E+00;  9.9999998E-03; -2.0045688E-02;2655;  4.0275827E-01;  0.0000000E+00; -5.8199442E-03;  1.0106959E+03;  4.0465593E-01;  8.7500752E+03;3;  8.1054939E+01;  0.0000000E+00;  5.2253127E-01;0;  1.3043861E-01;  1.0026545E+04;  0.0000000E+00; -6.6820367E-06;  1.0000000E+04;  0.0000000E+00;  9.9549512E+03; -1.5432619E-01;  0.0000000E+00;  2.8476480E-01;  1.8807363E+04;
  1.0615126E+00;  9.9999998E-03; -1.8036959E-01;2678;  4.3889782E-01;  0.0000000E+00; -5.3086340E-02;  1.0089700E+03;  4.0401894E-01;  7.3062080E+03;3;  8.3302490E+01;  0.0000000E+00;  6.2449336E+00;0;  1.8990800E-01;  1.0013352E+04;  0.0000000E+00; -1.2479191E-01;  1.0000000E+04;  0.0000000E+00;  9.9653838E+03; -2.5309427E-02;  0.0000000E+00;  2.1521743E-01;  1.3675488E+04;
  1.0614530E+00;  9.9999998E-03; -1.6033258E-01;2679;  4.2923912E-01;  0.0000000E+00; -4.6709705E-02;  1.0091014E+03;  4.0401924E-01;  7.4133193E+03;3;  8.3258080E+01;  0.0000000E+00;  5.8811150E+00;0;  1.6845396E-01;  1.0017786E+04;  0.0000000E+00; -2.2241926E-02;  1.0000000E+04;  0.0000000E+00;  9.9635479E+03; -7.5905554E-02;  0.0000000E+00;  2.4435951E-01;  1.4413466E+04;
  1.0614039E+00;  9.9999998E-03; -1.4029302E-01;2680;  4.2136922E-01;  0.0000000E+00; -4.0350255E-02;  1.0091991E+03;  4.0401947E-01;  7.4930317E+03;3;  8.3419670E+01;  0.0000000E+00;  5.2292261E+00;0;  1.4916527E-01;  1.0021503E+04;  0.0000000E+00; -1.3060727E-03;  1.0000000E+04;  0.0000000E+00;  9.9617676E+03; -1.1616063E-01;  0.0000000E+00;  2.6532590E-01;  1.5138786E+04;
  1.0613638E+00;  9.9999998E-03; -1.2025086E-01;2681;  4.1491494E-01;  0.0000000E+00; -3.4109823E-02;  1.0092797E+03;  4.0401977E-01;  7.5586494E+03;3;  8.3388245E+01;  0.0000000E+00;  4.2980280E+00;0;  1.2716945E-01;  1.0024456E+04;  0.0000000E+00; -4.3479493E-04;  1.0000000E+04;  0.0000000E+00;  9.9604111E+03; -1.4908107E-01;  0.0000000E+00;  2.7625051E-01;  1.5697533E+04;
  1.0613319E+00;  9.9999998E-03; -1.0020793E-01;2682;  4.0964478E-01;  0.0000000E+00; -2.8216194E-02;  1.0093492E+03;  4.0401980E-01;  7.6154170E+03;3;  8.3123436E+01;  0.0000000E+00;  3.4042814E+00;0;  1.0369170E-01;  1.0026729E+04;  0.0000000E+00; -8.4052343E-05;  1.0000000E+04;  0.0000000E+00;  9.9595176E+03; -1.7639330E-01;  0.0000000E+00;  2.8008500E-01;  1.6073196E+04;
  1.0613066E+00;  9.9999998E-03; -8.0165841E-02;2683;  4.0537405E-01;  0.0000000E+00; -2.2581711E-02;  1.0094063E+03;  4.0402001E-01;  7.6618799E+03;3;  8.2836235E+01;  0.0000000E+00;  2.4777849E+00;0;  8.2235917E-02;  1.0028440E+04;  0.0000000E+00;  4.3768596E-05;  1.0000000E+04;  0.0000000E+00;  9.9589414E+03; -1.9865848E-01;  0.0000000E+00;  2.8089440E-01;  1.6319133E+04;
  1.0612870E+00;  9.9999998E-03; -6.0124595E-02;2684;  4.0199262E-01;  0.0000000E+00; -1.7052067E-02;  1.0094485E+03;  4.0402022E-01;  7.6963887E+03;3;  8.2482880E+01;  0.0000000E+00;  1.7235872E+00;0;  6.5498486E-02;  1.0029673E+04;  0.0000000E+00;  4.1782718E-05;  1.0000000E+04;  0.0000000E+00;  9.9585449E+03; -2.1584217E-01;  0.0000000E+00;  2.8134066E-01;  1.6488406E+04;
  1.0612729E+00;  9.9999998E-03; -4.0083528E-02;2685;  3.9955437E-01;  0.0000000E+00; -1.1499610E-02;  1.0094754E+03;  4.0402028E-01;  7.7182637E+03;3;  8.2243233E+01;  0.0000000E+00;  1.0491297E+00;0;  5.4205999E-02;  1.0030494E+04;  0.0000000E+00;  1.2351388E-05;  1.0000000E+04;  0.0000000E+00;  9.9582607E+03; -2.2795807E-01;  0.0000000E+00;  2.8216407E-01;  1.6608752E+04;
  1.0612642E+00;  9.9999998E-03; -2.0041944E-02;2686;  3.9812154E-01;  0.0000000E+00; -5.8132582E-03;  1.0094897E+03;  4.0402025E-01;  7.7300298E+03;3;  8.2098839E+01;  0.0000000E+00;  4.6705747E-01;0;  4.7862455E-02;  1.0030958E+04;  0.0000000E+00;  4.8907606E-07;  1.0000000E+04;  0.0000000E+00;  9.9580771E+03; -2.3513813E-01;  0.0000000E+00;  2.8300059E-01;  1.6685188E+04;
  1.0814914E+00;  9.9999998E-03; -1.8033549E-01;2709;  4.3654647E-01;  0.0000000E+00; -5.0480623E-02;  1.0078729E+03;  4.0347320E-01;  6.3758413E+03;3;  8.4562317E+01;  0.0000000E+00;  4.6094871E+00;0;  1.0821650E-01;  1.0015689E+04;  0.0000000E+00; -3.0330718E-01;  1.0000000E+04;  0.0000000E+00;  9.9682998E+03; -9.2709102E-02;  0.0000000E+00;  2.0092560E-01;  1.1833112E+04;
  1.0814278E+00;  9.9999998E-03; -1.6030575E-01;2710;  4.2591655E-01;  0.0000000E+00; -4.5201533E-02;  1.0079877E+03;  4.0347371E-01;  6.4689463E+03;3;  8.4025322E+01;  0.0000000E+00;  4.7492619E+00;0;  9.3658090E-02;  1.0019245E+04;  0.0000000E+00; -7.8779854E-02;  1.0000000E+04;  0.0000000E+00;  9.9670088E+03; -1.3181069E-01;  0.0000000E+00;  2.2546878E-01;  1.2272065E+04;
  1.0813749E+00;  9.9999998E-03; -1.4027095E-01;2711;  4.1724971E-01;  0.0000000E+00; -3.9579038E-02;  1.0080923E+03;  4.0347394E-01;  6.5538262E+03;3;  8.4003738E+01;  0.0000000E+00;  4.2754908E+00;0;  7.8600585E-02;  1.0022826E+04;  0.0000000E+00; -7.8393789E-03;  1.0000000E+04;  0.0000000E+00;  9.9655029E+03; -1.6742873E-01;  0.0000000E+00;  2.4602932E-01;  1.2852746E+04;
  1.0813327E+00;  9.9999998E-03; -1.2023400E-01;2712;  4.1027558E-01;  0.0000000E+00; -3.3738878E-02;  1.0081857E+03;  4.0347403E-01;  6.6295137E+03;3;  8.4014793E+01;  0.0000000E+00;  3.7341495E+00;0;  5.9731081E-02;  1.0026074E+04;  0.0000000E+00; -7.6872116E-04;  1.0000000E+04;  0.0000000E+00;  9.9641230E+03; -2.0016642E-01;  0.0000000E+00;  2.5989750E-01;  1.3391710E+04;
  1.0812987E+00;  9.9999998E-03; -1.0019471E-01;2713;  4.0460342E-01;  0.0000000E+00; -2.7882382E-02;  1.0082642E+03;  4.0347406E-01;  6.6932134E+03;3;  8.3854851E+01;  0.0000000E+00;  3.0456302E+00;0;  3.9085880E-02;  1.0028699E+04;  0.0000000E+00; -2.7394175E-04;  1.0000000E+04;  0.0000000E+00;  9.9630596E+03; -2.2861837E-01;  0.0000000E+00;  2.6770425E-01;  1.3811731E+04;
  1.0812720E+00;  9.9999998E-03; -8.0155142E-02;2714;  3.9999443E-01;  0.0000000E+00; -2.2122080E-02;  1.0083259E+03;  4.0347427E-01;  6.7431875E+03;3;  8.3596397E+01;  0.0000000E+00;  2.3952897E+00;0;  1.9872844E-02;  1.0030696E+04;  0.0000000E+00; -1.5500642E-05;  1.0000000E+04;  0.0000000E+00;  9.9622852E+03; -2.5201610E-01;  0.0000000E+00;  2.7188894E-01;  1.4119054E+04;
  1.0812515E+00;  9.9999998E-03; -6.0115878E-02;2715;  3.9637589E-01;  0.0000000E+00; -1.6483111E-02;  1.0083700E+03;  4.0347427E-01;  6.7790527E+03;3;  8.3321548E+01;  0.0000000E+00;  1.7323339E+00;0;  4.4794977E-03;  1.0032119E+04;  0.0000000E+00;  5.2254280E-05;  1.0000000E+04;  0.0000000E+00;  9.9617393E+03; -2.6992869E-01;  0.0000000E+00;  2.7440819E-01;  1.4336572E+04;
  1.0812368E+00;  9.9999998E-03; -4.0077124E-02;2716;  3.9377737E-01;  0.0000000E+00; -1.0989905E-02;  1.0083989E+03;  4.0347451E-01;  6.8024507E+03;3;  8.3097260E+01;  0.0000000E+00;  1.0829595E+00;0; -6.1941445E-03;  1.0033058E+04;  0.0000000E+00;  3.4729594E-05;  1.0000000E+04;  0.0000000E+00;  9.9613740E+03; -2.8235731E-01;  0.0000000E+00;  2.7616316E-01;  1.4482264E+04;
  1.0812278E+00;  9.9999998E-03; -2.0038622E-02;2717;  3.9224085E-01;  0.0000000E+00; -5.5474141E-03;  1.0084147E+03;  4.0347448E-01;  6.8153125E+03;3;  8.2983253E+01;  0.0000000E+00;  4.9428925E-01;0; -1.2307525E-02;  1.0033585E+04;  0.0000000E+00;  8.9901314E-06;  1.0000000E+04;  0.0000000E+00;  9.9611572E+03; -2.8960702E-01;  0.0000000E+00;  2.7729949E-01;  1.4566575E+04;
  1.1014715E+00;  9.9999998E-03; -1.8029980E-01;2739;  4.3384966E-01;  0.0000000E+00; -4.6581484E-02;  1.0069095E+03;  4.0301543E-01;  5.5534185E+03;3;  8.6129181E+01;  0.0000000E+00;  3.2195978E+00;0;  4.7940820E-02;  1.0016827E+04;  0.0000000E+00; -6.2761694E-01;  1.0000000E+04;  0.0000000E+00;  9.9707295E+03; -1.3786720E-01;  0.0000000E+00;  1.8580802E-01;  1.0348697E+04;
  1.1014022E+00;  9.9999998E-03; -1.6027474E-01;2740;  4.2214271E-01;  0.0000000E+00; -4.2535394E-02;  1.0069985E+03;  4.0301600E-01;  5.6251602E+03;3;  8.4694260E+01;  0.0000000E+00;  3.5459683E+00;0;  3.9046794E-02;  1.0019247E+04;  0.0000000E+00; -2.2100455E-01;  1.0000000E+04;  0.0000000E+00;  9.9700566E+03; -1.6521606E-01;  0.0000000E+00;  2.0426285E-01;  1.0358306E+04;
  1.1013458E+00;  9.9999998E-03; -1.4024788E-01;2741;  4.1252953E-01;  0.0000000E+00; -3.8180225E-02;  1.0071031E+03;  4.0301612E-01;  5.7094258E+03;3;  8.4437950E+01;  0.0000000E+00;  3.3761117E+00;0;  2.7291134E-02;  1.0022389E+04;  0.0000000E+00; -4.3379109E-02;  1.0000000E+04;  0.0000000E+00;  9.9689873E+03; -1.9525646E-01;  0.0000000E+00;  2.2254759E-01;  1.0719328E+04;
  1.1012999E+00;  9.9999998E-03; -1.2021611E-01;2742;  4.0477875E-01;  0.0000000E+00; -3.3071101E-02;  1.0072120E+03;  4.0301612E-01;  5.7970234E+03;3;  8.4422096E+01;  0.0000000E+00;  3.0345581E+00;0;  1.0542452E-02;  1.0025784E+04;  0.0000000E+00; -3.4953021E-03;  1.0000000E+04;  0.0000000E+00;  9.9677637E+03; -2.2751877E-01;  0.0000000E+00;  2.3806122E-01;  1.1170492E+04;
  1.1012638E+00;  9.9999998E-03; -1.0018172E-01;2743;  3.9853448E-01;  0.0000000E+00; -2.7540384E-02;  1.0073070E+03;  4.0301621E-01;  5.8734834E+03;3;  8.4323654E+01;  0.0000000E+00;  2.6128342E+00;0; -8.4377676E-03;  1.0028811E+04;  0.0000000E+00; -6.3078164E-04;  1.0000000E+04;  0.0000000E+00;  9.9666299E+03; -2.5800678E-01;  0.0000000E+00;  2.4956901E-01;  1.1589364E+04;
  1.1012353E+00;  9.9999998E-03; -8.0144867E-02;2744;  3.9348581E-01;  0.0000000E+00; -2.1759722E-02;  1.0073802E+03;  4.0301642E-01;  5.9323911E+03;3;  8.4104919E+01;  0.0000000E+00;  2.1204760E+00;0; -2.6375055E-02;  1.0031189E+04;  0.0000000E+00; -2.2697907E-04;  1.0000000E+04;  0.0000000E+00;  9.9657119E+03; -2.8378141E-01;  0.0000000E+00;  2.5740635E-01;  1.1930765E+04;
  1.1012137E+00;  9.9999998E-03; -6.0107879E-02;2745;  3.8956529E-01;  0.0000000E+00; -1.6040929E-02;  1.0074316E+03;  4.0301645E-01;  5.9737466E+03;3;  8.3890068E+01;  0.0000000E+00;  1.5950384E+00;0; -4.1137576E-02;  1.0032914E+04;  0.0000000E+00; -3.0928593E-05;  1.0000000E+04;  0.0000000E+00;  9.9650127E+03; -3.0371562E-01;  0.0000000E+00;  2.6257804E-01;  1.2187765E+04;
  1.1011983E+00;  9.9999998E-03; -4.0071320E-02;2746;  3.8680425E-01;  0.0000000E+00; -1.0571587E-02;  1.0074645E+03;  4.0301657E-01;  6.0002334E+03;3;  8.3702156E+01;  0.0000000E+00;  1.0087687E+00;0; -5.1663280E-02;  1.0034041E+04;  0.0000000E+00;  1.8403263E-05;  1.0000000E+04;  0.0000000E+00;  9.9645381E+03; -3.1757066E-01;  0.0000000E+00;  2.6590738E-01;  1.2363587E+04;
  1.1011891E+00;  9.9999998E-03; -2.0035548E-02;2747;  3.8518858E-01;  0.0000000E+00; -5.3312480E-03;  1.0074824E+03;  4.0301666E-01;  6.0146313E+03;3;  8.3579941E+01;  0.0000000E+00;  4.7286445E-01;0; -5.7797194E-02;  1.0034679E+04;  0.0000000E+00;  9.1217535E-06;  1.0000000E+04;  0.0000000E+00;  9.9642627E+03; -3.2562804E-01;  0.0000000E+00;  2.6783085E-01;  1.2464916E+04;
  1.1214550E+00;  9.9999998E-03; -1.8026373E-01;2768;  4.3112010E-01;  0.0000000E+00; -4.1974597E-02;  1.0060940E+03;  4.0264031E-01;  4.8494551E+03;3;  8.8650742E+01;  0.0000000E+00;  1.6923509E+00;0;  2.3724139E-03;  1.0017338E+04;  0.0000000E+00; -1.1610498E+00;  1.0000000E+04;  0.0000000E+00;  9.9726328E+03; -1.6995777E-01;  0.0000000E+00;  1.7233019E-01;  9.4578936E+03;
  1.1213790E+00;  9.9999998E-03; -1.6024168E-01;2769;  4.1823283E-01;  0.0000000E+00; -3.8807377E-02;  1.0061451E+03;  4.0264079E-01;  4.8903623E+03;3;  8.5852623E+01;  0.0000000E+00;  2.2787380E+00;0; -2.1229237E-03;  1.0018463E+04;  0.0000000E+00; -5.2776676E-01;  1.0000000E+04;  0.0000000E+00;  9.9724971E+03; -1.8633927E-01;  0.0000000E+00;  1.8421635E-01;  8.8365615E+03;
  1.1213179E+00;  9.9999998E-03; -1.4022051E-01;2770;  4.0767249E-01;  0.0000000E+00; -3.5543364E-02;  1.0062333E+03;  4.0264076E-01;  4.9607373E+03;3;  8.4846344E+01;  0.0000000E+00;  2.4844272E+00;0; -1.0320514E-02;  1.0020758E+04;  0.0000000E+00; -1.6711308E-01;  1.0000000E+04;  0.0000000E+00;  9.9719502E+03; -2.0886566E-01;  0.0000000E+00;  1.9854514E-01;  8.8673359E+03;
  1.1212683E+00;  9.9999998E-03; -1.2019604E-01;2771;  3.9884934E-01;  0.0000000E+00; -3.1572007E-02;  1.0063468E+03;  4.0264112E-01;  5.0511963E+03;3;  8.4619843E+01;  0.0000000E+00;  2.3379841E+00;0; -2.4535164E-02;  1.0023882E+04;  0.0000000E+00; -3.1612385E-02;  1.0000000E+04;  0.0000000E+00;  9.9710850E+03; -2.3796654E-01;  0.0000000E+00;  2.1343137E-01;  9.1560332E+03;
  1.1212291E+00;  9.9999998E-03; -1.0016691E-01;2772;  3.9186582E-01;  0.0000000E+00; -2.6779532E-02;  1.0064588E+03;  4.0264106E-01;  5.1403975E+03;3;  8.4444839E+01;  0.0000000E+00;  2.0709639E+00;0; -4.1993156E-02;  1.0027127E+04;  0.0000000E+00; -3.1498184E-03;  1.0000000E+04;  0.0000000E+00;  9.9700732E+03; -2.6905471E-01;  0.0000000E+00;  2.2706155E-01;  9.5075332E+03;
  1.1211985E+00;  9.9999998E-03; -8.0134496E-02;2773;  3.8623694E-01;  0.0000000E+00; -2.1267518E-02;  1.0065504E+03;  4.0264121E-01;  5.2134473E+03;3;  8.4280678E+01;  0.0000000E+00;  1.8009373E+00;0; -5.9172750E-02;  1.0029906E+04;  0.0000000E+00; -5.8317045E-04;  1.0000000E+04;  0.0000000E+00;  9.9691250E+03; -2.9717821E-01;  0.0000000E+00;  2.3800546E-01;  9.8368242E+03;
  1.1211754E+00;  9.9999998E-03; -6.0100149E-02;2774;  3.8195708E-01;  0.0000000E+00; -1.5641054E-02;  1.0066157E+03;  4.0264130E-01;  5.2654141E+03;3;  8.4086929E+01;  0.0000000E+00;  1.3817658E+00;0; -7.3633417E-02;  1.0031993E+04;  0.0000000E+00; -2.4161287E-04;  1.0000000E+04;  0.0000000E+00;  9.9683438E+03; -3.1957316E-01;  0.0000000E+00;  2.4593975E-01;  1.0104996E+04;
  1.1211594E+00;  9.9999998E-03; -4.0066283E-02;2775;  3.7905458E-01;  0.0000000E+00; -1.0416221E-02;  1.0066575E+03;  4.0264118E-01;  5.2987651E+03;3;  8.3954460E+01;  0.0000000E+00;  8.6215973E-01;0; -8.4147125E-02;  1.0033395E+04;  0.0000000E+00; -6.8618159E-05;  1.0000000E+04;  0.0000000E+00;  9.9677803E+03; -3.3540088E-01;  0.0000000E+00;  2.5125375E-01;  1.0297803E+04;
  1.1211499E+00;  9.9999998E-03; -2.0032980E-02;2776;  3.7728646E-01;  0.0000000E+00; -5.2068573E-03;  1.0066803E+03;  4.0264115E-01;  5.3169155E+03;3;  8.3838821E+01;  0.0000000E+00;  4.3198508E-01;0; -9.0352207E-02;  1.0034188E+04;  0.0000000E+00; -1.0279632E-05;  1.0000000E+04;  0.0000000E+00;  9.9674424E+03; -3.4469488E-01;  0.0000000E+00;  2.5434268E-01;  1.0412423E+04;
  1.1414427E+00;  9.9999998E-03; -1.8022983E-01;2796;  4.2845681E-01;  0.0000000E+00; -3.7076220E-02;  1.0054326E+03;  4.0233955E-01;  4.2675308E+03;3;  9.2719505E+01;  0.0000000E+00;  2.1387221E-01;0; -3.2865345E-02;  1.0017646E+04;  0.0000000E+00; -1.9496222E+00;  1.0000000E+04;  0.0000000E+00;  9.9741191E+03; -1.9482270E-01;  0.0000000E+00;  1.6195735E-01;  9.3486113E+03;
  1.1413606E+00;  9.9999998E-03; -1.6020894E-01;2797;  4.1471964E-01;  0.0000000E+00; -3.4293495E-02;  1.0054394E+03;  4.0233967E-01;  4.2731255E+03;3;  8.7827271E+01;  0.0000000E+00;  1.0781845E+00;0; -3.4927681E-02;  1.0017561E+04;  0.0000000E+00; -1.0935131E+00;  1.0000000E+04;  0.0000000E+00;  9.9743145E+03; -2.0278524E-01;  0.0000000E+00;  1.6785756E-01;  7.9590254E+03;
  1.1412932E+00;  9.9999998E-03; -1.4019041E-01;2798;  4.0292805E-01;  0.0000000E+00; -3.1800166E-02;  1.0054915E+03;  4.0233999E-01;  4.3142637E+03;3;  8.5721390E+01;  0.0000000E+00;  1.4152088E+00;0; -3.8806766E-02;  1.0018671E+04;  0.0000000E+00; -4.8256651E-01;  1.0000000E+04;  0.0000000E+00;  9.9742236E+03; -2.1631770E-01;  0.0000000E+00;  1.7751093E-01;  7.4386353E+03;
  1.1412396E+00;  9.9999998E-03; -1.2017196E-01;2799;  3.9327136E-01;  0.0000000E+00; -2.8930627E-02;  1.0055873E+03;  4.0234008E-01;  4.3897339E+03;3;  8.4784447E+01;  0.0000000E+00;  1.6251389E+00;0; -4.8798651E-02;  1.0020987E+04;  0.0000000E+00; -1.5936954E-01;  1.0000000E+04;  0.0000000E+00;  9.9738164E+03; -2.3839675E-01;  0.0000000E+00;  1.8959810E-01;  7.4578833E+03;
  1.1411966E+00;  9.9999998E-03; -1.0014946E-01;2800;  3.8512582E-01;  0.0000000E+00; -2.5104726E-02;  1.0057017E+03;  4.0234002E-01;  4.4797856E+03;3;  8.4449257E+01;  0.0000000E+00;  1.5396870E+00;0; -6.3319787E-02;  1.0023939E+04;  0.0000000E+00; -3.7243832E-02;  1.0000000E+04;  0.0000000E+00;  9.9731465E+03; -2.6603931E-01;  0.0000000E+00;  2.0271952E-01;  7.6712905E+03;
  1.1411635E+00;  9.9999998E-03; -8.0122113E-02;2801;  3.7885347E-01;  0.0000000E+00; -2.0390196E-02;  1.0058081E+03;  4.0234017E-01;  4.5634419E+03;3;  8.4190506E+01;  0.0000000E+00;  1.3359032E+00;0; -7.9001978E-02;  1.0026850E+04;  0.0000000E+00; -5.7079750E-03;  1.0000000E+04;  0.0000000E+00;  9.9723594E+03; -2.9397032E-01;  0.0000000E+00;  2.1496834E-01;  7.9296138E+03;
  1.1411389E+00;  9.9999998E-03; -6.0092032E-02;2802;  3.7414229E-01;  0.0000000E+00; -1.5211876E-02;  1.0058910E+03;  4.0234014E-01;  4.6286216E+03;3;  8.4077827E+01;  0.0000000E+00;  1.0388379E+00;0; -9.2978820E-02;  1.0029250E+04;  0.0000000E+00; -7.3200581E-04;  1.0000000E+04;  0.0000000E+00;  9.9716211E+03; -3.1788823E-01;  0.0000000E+00;  2.2490941E-01;  8.1676982E+03;
  1.1411220E+00;  9.9999998E-03; -4.0061176E-02;2803;  3.7097326E-01;  0.0000000E+00; -1.0200979E-02;  1.0059471E+03;  4.0234017E-01;  4.6727949E+03;3;  8.3934753E+01;  0.0000000E+00;  6.9584721E-01;0; -1.0341616E-01;  1.0030952E+04;  0.0000000E+00; -2.0791628E-04;  1.0000000E+04;  0.0000000E+00;  9.9710430E+03; -3.3546495E-01;  0.0000000E+00;  2.3204879E-01;  8.3514033E+03;
  1.1411120E+00;  9.9999998E-03; -2.0030510E-02;2804;  3.6904049E-01;  0.0000000E+00; -5.0747544E-03;  1.0059781E+03;  4.0234008E-01;  4.6971821E+03;3;  8.3826607E+01;  0.0000000E+00;  3.5575750E-01;0; -1.0965456E-01;  1.0031933E+04;  0.0000000E+00; -4.7402402E-05;  1.0000000E+04;  0.0000000E+00;  9.9706816E+03; -3.4599510E-01;  0.0000000E+00;  2.3634054E-01;  8.4651084E+03;
  1.1614362E+00;  9.9999998E-03; -1.8020180E-01;2823;  4.2565829E-01;  0.0000000E+00; -3.1906758E-02;  1.0049128E+03;  4.0210336E-01;  3.7955093E+03;3;  9.9244766E+01;  0.0000000E+00; -8.9027828E-01;0; -6.0830668E-02;  1.0017828E+04;  0.0000000E+00; -2.9623926E+00;  1.0000000E+04;  0.0000000E+00;  9.9753359E+03; -2.1460162E-01;  0.0000000E+00;  1.5377095E-01;  9.8195781E+03;
  1.1613485E+00;  9.9999998E-03; -1.6017982E-01;2824;  4.1189700E-01;  0.0000000E+00; -2.9722374E-02;  1.0048934E+03;  4.0210375E-01;  3.7808083E+03;3;  9.1787666E+01;  0.0000000E+00; -1.1943259E-01;0; -6.2863424E-02;  1.0017102E+04;  0.0000000E+00; -1.9750391E+00;  1.0000000E+04;  0.0000000E+00;  9.9756484E+03; -2.1924619E-01;  0.0000000E+00;  1.5638277E-01;  7.9377769E+03;
  1.1612744E+00;  9.9999998E-03; -1.4016131E-01;2825;  3.9894971E-01;  0.0000000E+00; -2.7384836E-02;  1.0048972E+03;  4.0210402E-01;  3.7839255E+03;3;  8.7653923E+01;  0.0000000E+00;  4.8826885E-01;0; -6.3250840E-02;  1.0016963E+04;  0.0000000E+00; -1.1021434E+00;  1.0000000E+04;  0.0000000E+00;  9.9758438E+03; -2.2468399E-01;  0.0000000E+00;  1.6143315E-01;  6.6748921E+03;
  1.1612149E+00;  9.9999998E-03; -1.2014492E-01;2826;  3.8803712E-01;  0.0000000E+00; -2.5131203E-02;  1.0049513E+03;  4.0210402E-01;  3.8259575E+03;3;  8.5709587E+01;  0.0000000E+00;  7.2821045E-01;0; -6.7448586E-02;  1.0018028E+04;  0.0000000E+00; -5.0909191E-01;  1.0000000E+04;  0.0000000E+00;  9.9758535E+03; -2.3700607E-01;  0.0000000E+00;  1.6955748E-01;  6.1965625E+03;
  1.1611685E+00;  9.9999998E-03; -1.0012803E-01;2827;  3.7915504E-01;  0.0000000E+00; -2.2330917E-02;  1.0050426E+03;  4.0210396E-01;  3.8966877E+03;3;  8.4644676E+01;  0.0000000E+00;  9.9714667E-01;0; -7.6730147E-02;  1.0020083E+04;  0.0000000E+00; -1.9282690E-01;  1.0000000E+04;  0.0000000E+00;  9.9756152E+03; -2.5652647E-01;  0.0000000E+00;  1.7979632E-01;  6.1672988E+03;
  1.1611322E+00;  9.9999998E-03; -8.0107078E-02;2828;  3.7189609E-01;  0.0000000E+00; -1.8626733E-02;  1.0051448E+03;  4.0210402E-01;  3.9758618E+03;3;  8.4180260E+01;  0.0000000E+00;  8.9445764E-01;0; -8.8828996E-02;  1.0022556E+04;  0.0000000E+00; -5.8833357E-02;  1.0000000E+04;  0.0000000E+00;  9.9751768E+03; -2.7952507E-01;  0.0000000E+00;  1.9069608E-01;  6.2951885E+03;
  1.1611055E+00;  9.9999998E-03; -6.0081981E-02;2829;  3.6674494E-01;  0.0000000E+00; -1.4365525E-02;  1.0052356E+03;  4.0210393E-01;  4.0460686E+03;3;  8.3958000E+01;  0.0000000E+00;  6.7595261E-01;0; -1.0078567E-01;  1.0024883E+04;  0.0000000E+00; -1.3431863E-02;  1.0000000E+04;  0.0000000E+00;  9.9746641E+03; -3.0143970E-01;  0.0000000E+00;  2.0065403E-01;  6.4561411E+03;
  1.1610875E+00;  9.9999998E-03; -4.0055163E-02;2830;  3.6316264E-01;  0.0000000E+00; -9.7352844E-03;  1.0053032E+03;  4.0210396E-01;  4.0983730E+03;3;  8.3808968E+01;  0.0000000E+00;  4.8700029E-01;0; -1.1038850E-01;  1.0026705E+04;  0.0000000E+00; -2.1499302E-03;  1.0000000E+04;  0.0000000E+00;  9.9742021E+03; -3.1889987E-01;  0.0000000E+00;  2.0851137E-01;  6.5979922E+03;
  1.1610770E+00;  9.9999998E-03; -2.0027712E-02;2831;  3.6106017E-01;  0.0000000E+00; -4.8966189E-03;  1.0053439E+03;  4.0210396E-01;  4.1299204E+03;3;  8.3688484E+01;  0.0000000E+00;  2.4200410E-01;0; -1.1638002E-01;  1.0027831E+04;  0.0000000E+00; -1.5635595E-04;  1.0000000E+04;  0.0000000E+00;  9.9738838E+03; -3.2988551E-01;  0.0000000E+00;  2.1350549E-01;  6.6920801E+03;
  1.1814396E+00;  9.9999998E-03; -1.8018422E-01;2849;  4.2212015E-01;  0.0000000E+00; -2.6432620E-02;  1.0044526E+03;  4.0192211E-01;  3.3680859E+03;3;  1.0896370E+02;  0.0000000E+00; -1.4954921E+00;0; -8.1868455E-02;  1.0016849E+04;  0.0000000E+00; -4.0186081E+00;  1.0000000E+04;  0.0000000E+00;  9.9761855E+03; -2.2550777E-01;  0.0000000E+00;  1.4363931E-01;  1.0174312E+04;
  1.1813446E+00;  9.9999998E-03; -1.6015887E-01;2850;  4.0922236E-01;  0.0000000E+00; -2.5045583E-02;  1.0044866E+03;  4.0192202E-01;  3.3941648E+03;3;  9.8567108E+01;  0.0000000E+00; -9.3792862E-01;0; -8.6982146E-02;  1.0017047E+04;  0.0000000E+00; -3.1053498E+00;  1.0000000E+04;  0.0000000E+00;  9.9766338E+03; -2.3536047E-01;  0.0000000E+00;  1.4837833E-01;  8.4718545E+03;
  1.1812627E+00;  9.9999998E-03; -1.4013712E-01;2851;  3.9580008E-01;  0.0000000E+00; -2.2944108E-02;  1.0044671E+03;  4.0192249E-01;  3.3797908E+03;3;  9.1924980E+01;  0.0000000E+00; -3.5277417E-01;0; -8.7598190E-02;  1.0016253E+04;  0.0000000E+00; -2.0676458E+00;  1.0000000E+04;  0.0000000E+00;  9.9770166E+03; -2.3805279E-01;  0.0000000E+00;  1.5045460E-01;  6.7390518E+03;
  1.1811968E+00;  9.9999998E-03; -1.2011984E-01;2852;  3.8376376E-01;  0.0000000E+00; -2.0821212E-02;  1.0044666E+03;  4.0192258E-01;  3.3796013E+03;3;  8.8138237E+01;  0.0000000E+00;  3.8538866E-02;0; -8.6780503E-02;  1.0015951E+04;  0.0000000E+00; -1.1915705E+00;  1.0000000E+04;  0.0000000E+00;  9.9772979E+03; -2.4126743E-01;  0.0000000E+00;  1.5448692E-01;  5.5915405E+03;
  1.1811453E+00;  9.9999998E-03; -1.0010449E-01;2853;  3.7382874E-01;  0.0000000E+00; -1.8523574E-02;  1.0045084E+03;  4.0192258E-01;  3.4114685E+03;3;  8.5890938E+01;  0.0000000E+00;  3.0160815E-01;0; -8.9136630E-02;  1.0016634E+04;  0.0000000E+00; -5.9209460E-01;  1.0000000E+04;  0.0000000E+00;  9.9774463E+03; -2.4967752E-01;  0.0000000E+00;  1.6054089E-01;  5.1017505E+03;
  1.1811060E+00;  9.9999998E-03; -8.0088608E-02;2854;  3.6614388E-01;  0.0000000E+00; -1.5901245E-02;  1.0045788E+03;  4.0192264E-01;  3.4649395E+03;3;  8.4678612E+01;  0.0000000E+00;  4.8473820E-01;0; -9.5163882E-02;  1.0018062E+04;  0.0000000E+00; -2.5040773E-01;  1.0000000E+04;  0.0000000E+00;  9.9774229E+03; -2.6304722E-01;  0.0000000E+00;  1.6788334E-01;  4.9978745E+03;
  1.1810770E+00;  9.9999998E-03; -6.0069572E-02;2855;  3.6029026E-01;  0.0000000E+00; -1.2683284E-02;  1.0046560E+03;  4.0192249E-01;  3.5234243E+03;3;  8.4159470E+01;  0.0000000E+00;  3.2471383E-01;0; -1.0293202E-01;  1.0019762E+04;  0.0000000E+00; -8.6042725E-02;  1.0000000E+04;  0.0000000E+00;  9.9772646E+03; -2.7829427E-01;  0.0000000E+00;  1.7536224E-01;  5.0361821E+03;
  1.1810577E+00;  9.9999998E-03; -4.0047634E-02;2856;  3.5635659E-01;  0.0000000E+00; -8.8332621E-03;  1.0047217E+03;  4.0192273E-01;  3.5732124E+03;3;  8.3820480E+01;  0.0000000E+00;  2.6789439E-01;0; -1.1011654E-01;  1.0021286E+04;  0.0000000E+00; -2.1896774E-02;  1.0000000E+04;  0.0000000E+00;  9.9770488E+03; -2.9200041E-01;  0.0000000E+00;  1.8188387E-01;  5.1060156E+03;
  1.1810465E+00;  9.9999998E-03; -2.0024078E-02;2857;  3.5406557E-01;  0.0000000E+00; -4.5103445E-03;  1.0047650E+03;  4.0192258E-01;  3.6060977E+03;3;  8.3694656E+01;  0.0000000E+00;  1.3994126E-01;0; -1.1501111E-01;  1.0022322E+04;  0.0000000E+00; -3.0170234E-03;  1.0000000E+04;  0.0000000E+00;  9.9768750E+03; -3.0135819E-01;  0.0000000E+00;  1.8634708E-01;  5.1614961E+03;
  1.2014483E+00;  9.9999998E-03; -1.8017590E-01;2873;  4.1759771E-01;  0.0000000E+00; -2.1527560E-02;  1.0039207E+03;  4.0178561E-01;  2.8889153E+03;3;  1.2295415E+02;  0.0000000E+00; -1.7747927E+00;0; -8.7876260E-02;  1.0012625E+04;  0.0000000E+00; -4.5960169E+00;  1.0000000E+04;  0.0000000E+00;  9.9766025E+03; -2.1685104E-01;  0.0000000E+00;  1.2897478E-01;  9.3448975E+03;
  1.2013551E+00;  9.9999998E-03; -1.6015129E-01;2874;  4.0607885E-01;  0.0000000E+00; -2.0354215E-02;  1.0040890E+03;  4.0178567E-01;  3.0133501E+03;3;  1.0938213E+02;  0.0000000E+00; -1.1338141E+00;0; -1.0279785E-01;  1.0015553E+04;  0.0000000E+00; -4.2452030E+00;  1.0000000E+04;  0.0000000E+00;  9.9770137E+03; -2.4258028E-01;  0.0000000E+00;  1.3978243E-01;  8.7790449E+03;
  1.2012627E+00;  9.9999998E-03; -1.4012437E-01;2875;  3.9314258E-01;  0.0000000E+00; -1.8835643E-02;  1.0041595E+03;  4.0178579E-01;  3.0657678E+03;3;  9.9750450E+01;  0.0000000E+00; -8.8431001E-01;0; -1.0952771E-01;  1.0016152E+04;  0.0000000E+00; -3.2435336E+00;  1.0000000E+04;  0.0000000E+00;  9.9778008E+03; -2.5252137E-01;  0.0000000E+00;  1.4299366E-01;  7.1894722E+03;
  1.2011867E+00;  9.9999998E-03; -1.2010147E-01;2876;  3.8018471E-01;  0.0000000E+00; -1.6529644E-02;  1.0041471E+03;  4.0178594E-01;  3.0568779E+03;3;  9.3230537E+01;  0.0000000E+00; -4.8992810E-01;0; -1.1039641E-01;  1.0015299E+04;  0.0000000E+00; -2.1727114E+00;  1.0000000E+04;  0.0000000E+00;  9.9783877E+03; -2.5380442E-01;  0.0000000E+00;  1.4340800E-01;  5.6507915E+03;
  1.2011291E+00;  9.9999998E-03; -1.0008428E-01;2877;  3.6958525E-01;  0.0000000E+00; -1.4467281E-02;  1.0041302E+03;  4.0178603E-01;  3.0447412E+03;3;  8.9113037E+01;  0.0000000E+00; -1.4417459E-01;0; -1.0702422E-01;  1.0014539E+04;  0.0000000E+00; -1.2789021E+00;  1.0000000E+04;  0.0000000E+00;  9.9787979E+03; -2.5221747E-01;  0.0000000E+00;  1.4519325E-01;  4.6075254E+03;
  1.2010856E+00;  9.9999998E-03; -8.0069557E-02;2878;  3.6111882E-01;  0.0000000E+00; -1.2267805E-02;  1.0041448E+03;  4.0178609E-01;  3.0556543E+03;3;  8.6782486E+01;  0.0000000E+00; -4.6465006E-02;0; -1.0593987E-01;  1.0014513E+04;  0.0000000E+00; -6.4788520E-01;  1.0000000E+04;  0.0000000E+00;  9.9791094E+03; -2.5374621E-01;  0.0000000E+00;  1.4780635E-01;  4.1052300E+03;
  1.2010543E+00;  9.9999998E-03; -6.0055073E-02;2879;  3.5508165E-01;  0.0000000E+00; -1.0064470E-02;  1.0041830E+03;  4.0178615E-01;  3.0839167E+03;3;  8.5418861E+01;  0.0000000E+00;  5.7842210E-02;0; -1.0755248E-01;  1.0015079E+04;  0.0000000E+00; -2.7192897E-01;  1.0000000E+04;  0.0000000E+00;  9.9793037E+03; -2.5863817E-01;  0.0000000E+00;  1.5108569E-01;  3.9441204E+03;
  1.2010334E+00;  9.9999998E-03; -4.0038470E-02;2880;  3.5079986E-01;  0.0000000E+00; -7.2858213E-03;  1.0042275E+03;  4.0178600E-01;  3.1168813E+03;3;  8.4734497E+01;  0.0000000E+00;  5.5666618E-02;0; -1.1085190E-01;  1.0015881E+04;  0.0000000E+00; -8.7120570E-02;  1.0000000E+04;  0.0000000E+00;  9.9793965E+03; -2.6515955E-01;  0.0000000E+00;  1.5430765E-01;  3.9174272E+03;
  1.2010214E+00;  9.9999998E-03; -2.0019710E-02;2881;  3.4836724E-01;  0.0000000E+00; -3.8149271E-03;  1.0042618E+03;  4.0178603E-01;  3.1421604E+03;3;  8.4389755E+01;  0.0000000E+00;  2.7861560E-02;0; -1.1371508E-01;  1.0016540E+04;  0.0000000E+00; -1.6299682E-02;  1.0000000E+04;  0.0000000E+00;  9.9794238E+03; -2.7046394E-01;  0.0000000E+00;  1.5674886E-01;  3.9238557E+03;
  1.2214484E+00;  9.9999998E-03; -1.8017443E-01;2896;  4.1161335E-01;  0.0000000E+00; -1.9109491E-02;  1.0032668E+03;  4.0168527E-01;  2.3316458E+03;3;  1.4163556E+02;  0.0000000E+00; -2.6219282E+00;0; -5.7371780E-02;  1.0004662E+04;  0.0000000E+00; -3.5940316E+00;  1.0000000E+04;  0.0000000E+00;  9.9765264E+03; -1.7911743E-01;  0.0000000E+00;  1.2174565E-01;  6.3365137E+03;
  1.2213675E+00;  9.9999998E-03; -1.6014963E-01;2897;  4.0130135E-01;  0.0000000E+00; -1.6204379E-02;  1.0035682E+03;  4.0168527E-01;  2.5471814E+03;3;  1.2471901E+02;  0.0000000E+00; -1.2413927E+00;0; -9.9566132E-02;  1.0010129E+04;  0.0000000E+00; -4.6287565E+00;  1.0000000E+04;  0.0000000E+00;  9.9770723E+03; -2.2634852E-01;  0.0000000E+00;  1.2678239E-01;  7.6598208E+03;
  1.2212796E+00;  9.9999998E-03; -1.4012596E-01;2898;  3.9007071E-01;  0.0000000E+00; -1.5146917E-02;  1.0037766E+03;  4.0168518E-01;  2.6963406E+03;3;  1.1214121E+02;  0.0000000E+00; -9.4741440E-01;0; -1.1663082E-01;  1.0013519E+04;  0.0000000E+00; -4.2507057E+00;  1.0000000E+04;  0.0000000E+00;  9.9778232E+03; -2.5185293E-01;  0.0000000E+00;  1.3522211E-01;  7.1549141E+03;
  1.2211933E+00;  9.9999998E-03; -1.2009869E-01;2899;  3.7717614E-01;  0.0000000E+00; -1.2944354E-02;  1.0038934E+03;  4.0168527E-01;  2.7800786E+03;3;  1.0257730E+02;  0.0000000E+00; -6.2391251E-01;0; -1.3078855E-01;  1.0014724E+04;  0.0000000E+00; -3.2062783E+00;  1.0000000E+04;  0.0000000E+00;  9.9789336E+03; -2.6526183E-01;  0.0000000E+00;  1.3447328E-01;  5.7982480E+03;
  1.2211238E+00;  9.9999998E-03; -1.0007459E-01;2900;  3.6604062E-01;  0.0000000E+00; -1.0791761E-02;  1.0038984E+03;  4.0168542E-01;  2.7839893E+03;3;  9.5906418E+01;  0.0000000E+00; -4.0956411E-01;0; -1.3051169E-01;  1.0013963E+04;  0.0000000E+00; -2.1049855E+00;  1.0000000E+04;  0.0000000E+00;  9.9797793E+03; -2.6289594E-01;  0.0000000E+00;  1.3238426E-01;  4.4934097E+03;
  1.2210734E+00;  9.9999998E-03; -8.0056250E-02;2901;  3.5697323E-01;  0.0000000E+00; -8.7493993E-03;  1.0038674E+03;  4.0168542E-01;  2.7620967E+03;3;  9.1696953E+01;  0.0000000E+00; -2.8354433E-01;0; -1.2573719E-01;  1.0012736E+04;  0.0000000E+00; -1.1952528E+00;  1.0000000E+04;  0.0000000E+00;  9.9803750E+03; -2.5597385E-01;  0.0000000E+00;  1.3023666E-01;  3.6109070E+03;
  1.2210381E+00;  9.9999998E-03; -6.0041975E-02;2902;  3.5030890E-01;  0.0000000E+00; -6.7939307E-03;  1.0038517E+03;  4.0168539E-01;  2.7511108E+03;3;  8.9074608E+01;  0.0000000E+00; -1.3184483E-01;0; -1.2165643E-01;  1.0011963E+04;  0.0000000E+00; -5.6605923E-01;  1.0000000E+04;  0.0000000E+00;  9.9808291E+03; -2.5026461E-01;  0.0000000E+00;  1.2860818E-01;  3.1850862E+03;
  1.2210150E+00;  9.9999998E-03; -4.0029362E-02;2903;  3.4597990E-01;  0.0000000E+00; -5.0316812E-03;  1.0038568E+03;  4.0168551E-01;  2.7547974E+03;3;  8.7595726E+01;  0.0000000E+00; -6.6886045E-02;0; -1.1998563E-01;  1.0011727E+04;  0.0000000E+00; -2.0701243E-01;  1.0000000E+04;  0.0000000E+00;  9.9811650E+03; -2.4768484E-01;  0.0000000E+00;  1.2769921E-01;  3.0359583E+03;
  1.2210017E+00;  9.9999998E-03; -2.0015324E-02;2904;  3.4342709E-01;  0.0000000E+00; -2.7837160E-03;  1.0038693E+03;  4.0168551E-01;  2.7638013E+03;3;  8.6922119E+01;  0.0000000E+00; -8.5021645E-02;0; -1.2018192E-01;  1.0011763E+04;  0.0000000E+00; -4.3802153E-02;  1.0000000E+04;  0.0000000E+00;  9.9813750E+03; -2.4743453E-01;  0.0000000E+00;  1.2725261E-01;  2.9913560E+03;
  1.2414194E+00;  9.9999998E-03; -1.8016998E-01;2917;  4.0121806E-01;  0.0000000E+00; -1.8795330E-02;  1.0028495E+03;  4.0161294E-01;  1.9588711E+03;3;  1.6264087E+02;  0.0000000E+00; -4.4720316E+00;0; -2.6489824E-02;  9.9993926E+03;  0.0000000E+00; -2.5697801E-02;  1.0000000E+04;  0.0000000E+00;  9.9770801E+03; -1.5723558E-01;  0.0000000E+00;  1.3074575E-01;  2.7754114E+03;
  1.2413590E+00;  9.9999998E-03; -1.6014722E-01;2918;  3.9385787E-01;  0.0000000E+00; -1.4536679E-02;  1.0030576E+03;  4.0161279E-01;  2.1021260E+03;3;  1.4456326E+02;  0.0000000E+00; -2.2611024E+00;0; -6.9454685E-02;  1.0003068E+04;  0.0000000E+00; -2.8690305E+00;  1.0000000E+04;  0.0000000E+00;  9.9775498E+03; -1.8975174E-01;  0.0000000E+00;  1.2029706E-01;  4.3804043E+03;
  1.2412901E+00;  9.9999998E-03; -1.4012782E-01;2919;  3.8456044E-01;  0.0000000E+00; -1.2179682E-02;  1.0032518E+03;  4.0161294E-01;  2.2359456E+03;3;  1.2927380E+02;  0.0000000E+00; -1.1877698E+00;0; -9.7987831E-02;  1.0006692E+04;  0.0000000E+00; -4.0111251E+00;  1.0000000E+04;  0.0000000E+00;  9.9777988E+03; -2.2236447E-01;  0.0000000E+00;  1.2437664E-01;  5.5015913E+03;
  1.2412145E+00;  9.9999998E-03; -1.2010588E-01;2920;  3.7322384E-01;  0.0000000E+00; -9.8791122E-03;  1.0034643E+03;  4.0161288E-01;  2.3824595E+03;3;  1.1670554E+02;  0.0000000E+00; -4.9720028E-01;0; -1.3076474E-01;  1.0009980E+04;  0.0000000E+00; -3.7489884E+00;  1.0000000E+04;  0.0000000E+00;  9.9787432E+03; -2.5468555E-01;  0.0000000E+00;  1.2392081E-01;  5.2240493E+03;
  1.2411412E+00;  9.9999998E-03; -1.0008258E-01;2921;  3.6276275E-01;  0.0000000E+00; -8.1890468E-03;  1.0036030E+03;  4.0161273E-01;  2.4781699E+03;3;  1.0752673E+02;  0.0000000E+00; -3.3916885E-01;0; -1.4332902E-01;  1.0011559E+04;  0.0000000E+00; -2.7727604E+00;  1.0000000E+04;  0.0000000E+00;  9.9799248E+03; -2.6422974E-01;  0.0000000E+00;  1.2090073E-01;  4.2429624E+03;
  1.2410787E+00;  9.9999998E-03; -8.0058575E-02;2922;  3.5305810E-01;  0.0000000E+00; -5.9560076E-03;  1.0036599E+03;  4.0161270E-01;  2.5176802E+03;3;  1.0096699E+02;  0.0000000E+00; -2.9481253E-01;0; -1.4769271E-01;  1.0011562E+04;  0.0000000E+00; -1.6952331E+00;  1.0000000E+04;  0.0000000E+00;  9.9810410E+03; -2.6192239E-01;  0.0000000E+00;  1.1422967E-01;  3.2721890E+03;
  1.2410344E+00;  9.9999998E-03; -6.0039021E-02;2923;  3.4606844E-01;  0.0000000E+00; -4.2323433E-03;  1.0036516E+03;  4.0161273E-01;  2.5120825E+03;3;  9.6576355E+01;  0.0000000E+00; -1.7376119E-01;0; -1.4357913E-01;  1.0010588E+04;  0.0000000E+00; -8.6059844E-01;  1.0000000E+04;  0.0000000E+00;  9.9818389E+03; -2.5168556E-01;  0.0000000E+00;  1.0810643E-01;  2.6794980E+03;
  1.2410060E+00;  9.9999998E-03; -4.0024523E-02;2924;  3.4127861E-01;  0.0000000E+00; -2.7956238E-03;  1.0036310E+03;  4.0161270E-01;  2.4981196E+03;3;  9.4015762E+01;  0.0000000E+00; -9.9290073E-02;0; -1.3944608E-01;  1.0009637E+04;  0.0000000E+00; -3.3832276E-01;  1.0000000E+04;  0.0000000E+00;  9.9823760E+03; -2.4255130E-01;  0.0000000E+00;  1.0310521E-01;  2.4266777E+03;
  1.2409902E+00;  9.9999998E-03; -2.0012461E-02;2925;  3.3850905E-01;  0.0000000E+00; -1.5266881E-03;  1.0036213E+03;  4.0161288E-01;  2.4914739E+03;3;  9.2829132E+01;  0.0000000E+00; -1.3235773E-01;0; -1.3745719E-01;  1.0009096E+04;  0.0000000E+00; -7.6231182E-02;  1.0000000E+04;  0.0000000E+00;  9.9827148E+03; -2.3734328E-01;  0.0000000E+00;  9.9886090E-02;  2.3409141E+03;
  1.2613164E+00;  9.9999998E-03; -1.6013935E-01;2936;  3.8026038E-01;  0.0000000E+00; -1.3693435E-02;  1.0029823E+03;  4.0156150E-01;  1.9642743E+03;3;  1.6526978E+02;  0.0000000E+00; -3.8531973E+00;0; -8.9390278E-02;  1.0002656E+04;  0.0000000E+00;  1.0648946E+00;  1.0000000E+04;  0.0000000E+00;  9.9790166E+03; -2.1009538E-01;  0.0000000E+00;  1.2070510E-01;  2.4194744E+03;
  1.2612691E+00;  9.9999998E-03; -1.4012259E-01;2937;  3.7478215E-01;  0.0000000E+00; -1.0622622E-02;  1.0029532E+03;  4.0156156E-01;  1.9453247E+03;3;  1.4971361E+02;  0.0000000E+00; -2.2759030E+00;0; -8.5289672E-02;  1.0002262E+04;  0.0000000E+00; -1.3861672E+00;  1.0000000E+04;  0.0000000E+00;  9.9788242E+03; -2.0102945E-01;  0.0000000E+00;  1.1573978E-01;  2.5637563E+03;
  1.2612113E+00;  9.9999998E-03; -1.2010374E-01;2938;  3.6590615E-01;  0.0000000E+00; -7.4434364E-03;  1.0030768E+03;  4.0156150E-01;  2.0270217E+03;3;  1.3569579E+02;  0.0000000E+00; -1.0870975E+00;0; -1.2019198E-01;  1.0004231E+04;  0.0000000E+00; -2.5113382E+00;  1.0000000E+04;  0.0000000E+00;  9.9793115E+03; -2.2913405E-01;  0.0000000E+00;  1.0894208E-01;  3.2138704E+03;
  1.2611547E+00;  9.9999998E-03; -1.0008784E-01;2939;  3.5699868E-01;  0.0000000E+00; -5.8748331E-03;  1.0031645E+03;  4.0156150E-01;  2.0850925E+03;3;  1.2428698E+02;  0.0000000E+00; -5.8076495E-01;0; -1.3766672E-01;  1.0005402E+04;  0.0000000E+00; -2.4891355E+00;  1.0000000E+04;  0.0000000E+00;  9.9798955E+03; -2.4430209E-01;  0.0000000E+00;  1.0663538E-01;  3.1798643E+03;
  1.2611004E+00;  9.9999998E-03; -8.0067918E-02;2940;  3.4792399E-01;  0.0000000E+00; -3.7155335E-03;  1.0032701E+03;  4.0156138E-01;  2.1548706E+03;3;  1.1539208E+02;  0.0000000E+00; -1.3690743E-01;0; -1.5739033E-01;  1.0006329E+04;  0.0000000E+00; -1.7818192E+00;  1.0000000E+04;  0.0000000E+00;  9.9810693E+03; -2.5521779E-01;  0.0000000E+00;  9.7827472E-02;  2.6695969E+03;
  1.2610565E+00;  9.9999998E-03; -6.0048461E-02;2941;  3.4103873E-01;  0.0000000E+00; -2.2677050E-03;  1.0033248E+03;  4.0156150E-01;  2.1912244E+03;3;  1.0935660E+02;  0.0000000E+00;  5.0756194E-02;0; -1.6116035E-01;  1.0006298E+04;  0.0000000E+00; -9.8902994E-01;  1.0000000E+04;  0.0000000E+00;  9.9821816E+03; -2.4995056E-01;  0.0000000E+00;  8.8790208E-02;  2.1882808E+03;
  1.2610240E+00;  9.9999998E-03; -4.0029965E-02;2942;  3.3624530E-01;  0.0000000E+00; -1.3718078E-03;  1.0033542E+03;  4.0156159E-01;  2.2107141E+03;3;  1.0568858E+02;  0.0000000E+00; -1.1894442E-02;0; -1.5880996E-01;  1.0006018E+04;  0.0000000E+00; -4.0681252E-01;  1.0000000E+04;  0.0000000E+00;  9.9830313E+03; -2.3986936E-01;  0.0000000E+00;  8.1059404E-02;  1.9317681E+03;
  1.2610046E+00;  9.9999998E-03; -2.0014049E-02;2943;  3.3323708E-01;  0.0000000E+00; -5.2378152E-04;  1.0033657E+03;  4.0156147E-01;  2.2184326E+03;3;  1.0372026E+02;  0.0000000E+00; -3.0621916E-02;0; -1.5737665E-01;  1.0005742E+04;  0.0000000E+00; -9.3844436E-02;  1.0000000E+04;  0.0000000E+00;  9.9835439E+03; -2.3312987E-01;  0.0000000E+00;  7.5753227E-02;  1.8382599E+03;
  1.2811730E+00;  9.9999998E-03; -1.2009552E-01;2953;  3.5273892E-01;  0.0000000E+00; -5.6582713E-03;  1.0031440E+03;  4.0152574E-01;  1.9758013E+03;3;  1.5600635E+02;  0.0000000E+00; -1.8545698E+00;0; -1.6358775E-01;  1.0005856E+04;  0.0000000E+00;  4.5926833E-01;  1.0000000E+04;  0.0000000E+00;  9.9808057E+03; -2.5753546E-01;  0.0000000E+00;  9.3947709E-02;  1.8454458E+03;
  1.2811316E+00;  9.9999998E-03; -1.0008195E-01;2954;  3.4649330E-01;  0.0000000E+00; -3.5932411E-03;  1.0030700E+03;  4.0152583E-01;  1.9294746E+03;3;  1.4408199E+02;  0.0000000E+00; -9.3609905E-01;0; -1.5972570E-01;  1.0004371E+04;  0.0000000E+00; -5.3873485E-01;  1.0000000E+04;  0.0000000E+00;  9.9808145E+03; -2.4792358E-01;  0.0000000E+00;  8.8197879E-02;  1.8157983E+03;
  1.2810887E+00;  9.9999998E-03; -8.0063827E-02;2955;  3.3918422E-01;  0.0000000E+00; -1.1560270E-03;  1.0031153E+03;  4.0152580E-01;  1.9581509E+03;3;  1.3424553E+02;  0.0000000E+00; -1.0603222E-01;0; -1.7858672E-01;  1.0004355E+04;  0.0000000E+00; -7.5551689E-01;  1.0000000E+04;  0.0000000E+00;  9.9817246E+03; -2.5576293E-01;  0.0000000E+00;  7.7176221E-02;  1.7810022E+03;
  1.2810552E+00;  9.9999998E-03; -6.0046822E-02;2956;  3.3338973E-01;  0.0000000E+00;  4.2936012E-05;  1.0031002E+03;  4.0152586E-01;  1.9488691E+03;3;  1.2728494E+02;  0.0000000E+00;  2.8379893E-01;0; -1.8074378E-01;  1.0003109E+04;  0.0000000E+00; -5.4447496E-01;  1.0000000E+04;  0.0000000E+00;  9.9826689E+03; -2.4919674E-01;  0.0000000E+00;  6.8452947E-02;  1.6275049E+03;
  1.2810299E+00;  9.9999998E-03; -4.0029179E-02;2957;  3.2895005E-01;  0.0000000E+00;  6.2475062E-04;  1.0030881E+03;  4.0152586E-01;  1.9413458E+03;3;  1.2291548E+02;  0.0000000E+00;  2.1989346E-01;0; -1.7977920E-01;  1.0002009E+04;  0.0000000E+00; -2.5406927E-01;  1.0000000E+04;  0.0000000E+00;  9.9835283E+03; -2.4047443E-01;  0.0000000E+00;  6.0695231E-02;  1.4857377E+03;
  1.2810149E+00;  9.9999998E-03; -2.0013420E-02;2958;  3.2641977E-01;  0.0000000E+00;  3.8811745E-04;  1.0030736E+03;  4.0152586E-01;  1.9322745E+03;3;  1.2051859E+02;  0.0000000E+00;  7.7738672E-02;0; -1.7721909E-01;  1.0001165E+04;  0.0000000E+00; -6.2102687E-02;  1.0000000E+04;  0.0000000E+00;  9.9840703E+03; -2.3249035E-01;  0.0000000E+00;  5.5271249E-02;  1.4053354E+03;
  1.3010477E+00;  9.9999998E-03; -8.0056898E-02;2966;  3.2633585E-01;  0.0000000E+00;  5.4467208E-04;  1.0034382E+03;  4.0150127E-01;  2.0558857E+03;3;  1.5444366E+02;  0.0000000E+00; -5.1377439E-01;0; -2.5657254E-01;  1.0011117E+04;  0.0000000E+00;  7.5344884E-01;  1.0000000E+04;  0.0000000E+00;  9.9826152E+03; -3.1479996E-01;  0.0000000E+00;  5.8227427E-02;  1.6521162E+03;
  1.3010205E+00;  9.9999998E-03; -6.0038894E-02;2967;  3.2245833E-01;  0.0000000E+00;  1.7537581E-03;  1.0033962E+03;  4.0150133E-01;  2.0309346E+03;3;  1.4789063E+02;  0.0000000E+00; -5.6748472E-02;0; -2.4227192E-01;  1.0009431E+04;  0.0000000E+00;  2.6496443E-01;  1.0000000E+04;  0.0000000E+00;  9.9834668E+03; -2.9196799E-01;  0.0000000E+00;  4.9696073E-02;  1.4945458E+03;
  1.3010002E+00;  9.9999998E-03; -4.0023614E-02;2968;  3.1947586E-01;  0.0000000E+00;  1.4710197E-03;  1.0033559E+03;  4.0150157E-01;  2.0068722E+03;3;  1.4345279E+02;  0.0000000E+00;  8.9340784E-02;0; -2.3020327E-01;  1.0008013E+04;  0.0000000E+00;  6.9727093E-02;  1.0000000E+04;  0.0000000E+00;  9.9840762E+03; -2.7392447E-01;  0.0000000E+00;  4.3721206E-02;  1.4028776E+03;
  1.3009880E+00;  9.9999998E-03; -2.0010836E-02;2969;  3.1749144E-01;  0.0000000E+00;  8.1471622E-04;  1.0033238E+03;  4.0150151E-01;  1.9877574E+03;3;  1.4093735E+02;  0.0000000E+00;  8.8809460E-02;0; -2.2506107E-01;  1.0006977E+04;  0.0000000E+00;  1.0795247E-02;  1.0000000E+04;  0.0000000E+00;  9.9844658E+03; -2.6371616E-01;  0.0000000E+00;  3.8655091E-02;  1.3446077E+03;
 -1.9068102E-05;  9.9999998E-03;  1.2899961E-13;1045; -9.0440409E-03;  0.0000000E+00;  1.1838840E-09;  1.0003974E+03;  4.0000001E-01;  3.2927460E+02;3; -4.8939724E+00;  0.0000000E+00;  4.5042279E-06;0; -1.7468216E-01;  1.0008080E+04;  0.0000000E+00;  1.5176585E-15;  1.0000000E+04;  0.0000000E+00;  9.9998750E+03; -1.7845586E-01;  0.0000000E+00;  3.7736997E-03;  9.0176331E+01;
 -1.9075047E-05;  9.9999998E-03;  2.0000122E-02;1046; -9.0440167E-03;  0.0000000E+00;  8.3830986E-05;  1.0003974E+03;  4.0000001E-01;  3.2927460E+02;3; -4.8915424E+00;  0.0000000E+00;  5.9797734E-02;0; -1.7460203E-01;  1.0008081E+04;  0.0000000E+00; -8.0570811E-10;  1.0000000E+04;  0.0000000E+00;  9.9998682E+03; -1.7842564E-01;  0.0000000E+00;  3.8236114E-03;  9.1843338E+01;
 -1.9093090E-05;  9.9999998E-03;  4.0000256E-02;1047; -9.0424446E-03;  0.0000000E+00;  1.7187987E-04;  1.0003971E+03;  4.0000001E-01;  3.2897830E+02;3; -4.8834763E+00;  0.0000000E+00;  1.2194645E-01;0; -1.7434193E-01;  1.0008086E+04;  0.0000000E+00; -3.1066942E-09;  1.0000000E+04;  0.0000000E+00;  9.9998604E+03; -1.7831233E-01;  0.0000000E+00;  3.9703972E-03;  9.6761147E+01;
 -1.9113817E-05;  9.9999998E-03;  6.0000412E-02;1048; -9.0358565E-03;  0.0000000E+00;  2.6765506E-04;  1.0003966E+03;  4.0000001E-01;  3.2858325E+02;3; -4.8685207E+00;  0.0000000E+00;  1.8568763E-01;0; -1.7384109E-01;  1.0008091E+04;  0.0000000E+00; -7.5843420E-09;  1.0000000E+04;  0.0000000E+00;  9.9998428E+03; -1.7804602E-01;  0.0000000E+00;  4.2049228E-03;  1.0467142E+02;
 -1.9123219E-05;  9.9999998E-03;  8.0000602E-02;1049; -9.0186913E-03;  0.0000000E+00;  3.7229381E-04;  1.0003952E+03;  4.0000001E-01;  3.2739810E+02;3; -4.8438873E+00;  0.0000000E+00;  2.5228959E-01;0; -1.7299388E-01;  1.0008085E+04;  0.0000000E+00; -1.5982300E-08;  1.0000000E+04;  0.0000000E+00;  9.9998223E+03; -1.7750520E-01;  0.0000000E+00;  4.5113056E-03;  1.1511091E+02;
 -1.9099407E-05;  9.9999998E-03;  1.0000082E-01;1050; -8.9810519E-03;  0.0000000E+00;  4.9156108E-04;  1.0003928E+03;  4.0000001E-01;  3.2542285E+02;3; -4.8053856E+00;  0.0000000E+00;  3.2367808E-01;0; -1.7164481E-01;  1.0008064E+04;  0.0000000E+00; -3.1838916E-08;  1.0000000E+04;  0.0000000E+00;  9.9997930E+03; -1.7650890E-01;  0.0000000E+00;  4.8641013E-03;  1.2733458E+02;
 -1.9011586E-05;  9.9999998E-03;  1.2000110E-01;1051; -8.9101065E-03;  0.0000000E+00;  6.2717969E-04;  1.0003891E+03;  4.0000001E-01;  3.2236121E+02;3; -4.7474136E+00;  0.0000000E+00;  3.9870536E-01;0; -1.6958469E-01;  1.0008016E+04;  0.0000000E+00; -5.5150036E-08;  1.0000000E+04;  0.0000000E+00;  9.9997686E+03; -1.7480689E-01;  0.0000000E+00;  5.2221986E-03;  1.4016560E+02;
 -1.8824008E-05;  9.9999998E-03;  1.4000142E-01;1052; -8.7912763E-03;  0.0000000E+00;  7.7329838E-04;  1.0003829E+03;  4.0000001E-01;  3.1722556E+02;3; -4.6626873E+00;  0.0000000E+00;  4.7617245E-01;0; -1.6654997E-01;  1.0007920E+04;  0.0000000E+00; -9.9225048E-08;  1.0000000E+04;  0.0000000E+00;  9.9997422E+03; -1.7207223E-01;  0.0000000E+00;  5.5222656E-03;  1.5181915E+02;
  1.9973351E-02;  9.9999998E-03; -5.1903913E-13;1075; -1.2553498E-02;  0.0000000E+00;  8.0028706E-10;  1.0004597E+03;  4.0000001E-01;  3.8082867E+02;3; -5.8497105E+00;  0.0000000E+00;  4.6868972E-06;0; -1.9949034E-01;  1.0009370E+04;  0.0000000E+00; -3.1834401E-15;  1.0000000E+04;  0.0000000E+00;  9.9998262E+03; -2.0459440E-01;  0.0000000E+00;  5.1040663E-03;  1.1577180E+02;
  1.9973338E-02;  9.9999998E-03;  2.0000178E-02;1076; -1.2554069E-02;  0.0000000E+00;  1.1994412E-04;  1.0004597E+03;  4.0000001E-01;  3.8082867E+02;3; -5.8465519E+00;  0.0000000E+00;  7.6193079E-02;0; -1.9940455E-01;  1.0009373E+04;  0.0000000E+00; -1.0880570E-09;  1.0000000E+04;  0.0000000E+00;  9.9998252E+03; -2.0456801E-01;  0.0000000E+00;  5.1634558E-03;  1.1790268E+02;
  1.9973306E-02;  9.9999998E-03;  4.0000368E-02;1077; -1.2553894E-02;  0.0000000E+00;  2.4436723E-04;  1.0004595E+03;  4.0000001E-01;  3.8072992E+02;3; -5.8353577E+00;  0.0000000E+00;  1.5496862E-01;0; -1.9912691E-01;  1.0009381E+04;  0.0000000E+00; -2.5323064E-09;  1.0000000E+04;  0.0000000E+00;  9.9998105E+03; -2.0446491E-01;  0.0000000E+00;  5.3380020E-03;  1.2418698E+02;
  1.9973263E-02;  9.9999998E-03;  6.0000587E-02;1078; -1.2548272E-02;  0.0000000E+00;  3.7767217E-04;  1.0004587E+03;  4.0000001E-01;  3.8003857E+02;3; -5.8149910E+00;  0.0000000E+00;  2.3501179E-01;0; -1.9859441E-01;  1.0009388E+04;  0.0000000E+00; -4.4464676E-09;  1.0000000E+04;  0.0000000E+00;  9.9997891E+03; -2.0421058E-01;  0.0000000E+00;  5.6161685E-03;  1.3428510E+02;
  1.9973231E-02;  9.9999998E-03;  8.0000840E-02;1079; -1.2529524E-02;  0.0000000E+00;  5.2225124E-04;  1.0004576E+03;  4.0000001E-01;  3.7905096E+02;3; -5.7833252E+00;  0.0000000E+00;  3.1448737E-01;0; -1.9769780E-01;  1.0009391E+04;  0.0000000E+00;  2.1441207E-09;  1.0000000E+04;  0.0000000E+00;  9.9997627E+03; -2.0367490E-01;  0.0000000E+00;  5.9770951E-03;  1.4758051E+02;
  1.9973239E-02;  9.9999998E-03;  1.0000114E-01;1080; -1.2485452E-02;  0.0000000E+00;  6.8129360E-04;  1.0004550E+03;  4.0000001E-01;  3.7697693E+02;3; -5.7343960E+00;  0.0000000E+00;  3.9952683E-01;0; -1.9627546E-01;  1.0009374E+04;  0.0000000E+00;  3.1531783E-08;  1.0000000E+04;  0.0000000E+00;  9.9997295E+03; -2.0266217E-01;  0.0000000E+00;  6.3867192E-03;  1.6307106E+02;
  1.9973326E-02;  9.9999998E-03;  1.2000150E-01;1081; -1.2398630E-02;  0.0000000E+00;  8.5940561E-04;  1.0004513E+03;  4.0000001E-01;  3.7391528E+02;3; -5.6631069E+00;  0.0000000E+00;  4.8671055E-01;0; -1.9410852E-01;  1.0009330E+04;  0.0000000E+00;  1.2063958E-07;  1.0000000E+04;  0.0000000E+00;  9.9996953E+03; -2.0089883E-01;  0.0000000E+00;  6.7903139E-03;  1.7918628E+02;
  1.9973550E-02;  9.9999998E-03;  1.4000192E-01;1082; -1.2246843E-02;  0.0000000E+00;  1.0559070E-03;  1.0004449E+03;  4.0000001E-01;  3.6858212E+02;3; -5.5615540E+00;  0.0000000E+00;  5.7472295E-01;0; -1.9091438E-01;  1.0009236E+04;  0.0000000E+00;  3.4285446E-07;  1.0000000E+04;  0.0000000E+00;  9.9996650E+03; -1.9802091E-01;  0.0000000E+00;  7.1065300E-03;  1.9360936E+02;
  3.9963774E-02;  9.9999998E-03; -3.6470444E-13;1106; -1.6962286E-02;  0.0000000E+00; -3.3152139E-10;  1.0005065E+03;  4.0000001E-01;  4.1964240E+02;3; -6.9387207E+00;  0.0000000E+00; -1.0920330E-06;0; -2.1626149E-01;  1.0010350E+04;  0.0000000E+00;  8.6257452E-16;  1.0000000E+04;  0.0000000E+00;  9.9997852E+03; -2.2257814E-01;  0.0000000E+00;  6.3166469E-03;  1.3828102E+02;
  3.9963756E-02;  9.9999998E-03;  2.0000219E-02;1107; -1.6963441E-02;  0.0000000E+00;  1.4820456E-04;  1.0005065E+03;  4.0000001E-01;  4.1964240E+02;3; -6.9340725E+00;  0.0000000E+00;  8.5774377E-02;0; -2.1618231E-01;  1.0010351E+04;  0.0000000E+00; -3.9137438E-10;  1.0000000E+04;  0.0000000E+00;  9.9997832E+03; -2.2256035E-01;  0.0000000E+00;  6.3780402E-03;  1.4073639E+02;
  3.9963704E-02;  9.9999998E-03;  4.0000454E-02;1108; -1.6964799E-02;  0.0000000E+00;  3.0027467E-04;  1.0005063E+03;  4.0000001E-01;  4.1954364E+02;3; -6.9185581E+00;  0.0000000E+00;  1.7324832E-01;0; -2.1592495E-01;  1.0010361E+04;  0.0000000E+00; -1.4089044E-09;  1.0000000E+04;  0.0000000E+00;  9.9997686E+03; -2.2248313E-01;  0.0000000E+00;  6.5581831E-03;  1.4797278E+02;
  3.9963633E-02;  9.9999998E-03;  6.0000714E-02;1109; -1.6960206E-02;  0.0000000E+00;  4.6066780E-04;  1.0005059E+03;  4.0000001E-01;  4.1904980E+02;3; -6.8908501E+00;  0.0000000E+00;  2.6078361E-01;0; -2.1542968E-01;  1.0010379E+04;  0.0000000E+00;  1.0204815E-09;  1.0000000E+04;  0.0000000E+00;  9.9997422E+03; -2.2227368E-01;  0.0000000E+00;  6.8440037E-03;  1.5958208E+02;
  3.9963569E-02;  9.9999998E-03;  8.0001019E-02;1110; -1.6939169E-02;  0.0000000E+00;  6.3311623E-04;  1.0005048E+03;  4.0000001E-01;  4.1825970E+02;3; -6.8478966E+00;  0.0000000E+00;  3.4854484E-01;0; -2.1459267E-01;  1.0010389E+04;  0.0000000E+00;  1.6969514E-08;  1.0000000E+04;  0.0000000E+00;  9.9997119E+03; -2.2180347E-01;  0.0000000E+00;  7.2108018E-03;  1.7481459E+02;
  3.9963555E-02;  9.9999998E-03;  1.0000137E-01;1111; -1.6887004E-02;  0.0000000E+00;  8.1762939E-04;  1.0005030E+03;  4.0000001E-01;  4.1667950E+02;3; -6.7859516E+00;  0.0000000E+00;  4.3428424E-01;0; -2.1325947E-01;  1.0010383E+04;  0.0000000E+00;  8.4749459E-08;  1.0000000E+04;  0.0000000E+00;  9.9996738E+03; -2.2087657E-01;  0.0000000E+00;  7.6171020E-03;  1.9244073E+02;
  3.9963637E-02;  9.9999998E-03;  1.2000178E-01;1112; -1.6780891E-02;  0.0000000E+00;  1.0201748E-03;  1.0004993E+03;  4.0000001E-01;  4.1371664E+02;3; -6.6974144E+00;  0.0000000E+00;  5.2327156E-01;0; -2.1121670E-01;  1.0010350E+04;  0.0000000E+00;  2.7347900E-07;  1.0000000E+04;  0.0000000E+00;  9.9996377E+03; -2.1921401E-01;  0.0000000E+00;  7.9973107E-03;  2.1055867E+02;
  3.9963890E-02;  9.9999998E-03;  1.4000227E-01;1113; -1.6591780E-02;  0.0000000E+00;  1.2394855E-03;  1.0004935E+03;  4.0000001E-01;  4.0887726E+02;3; -6.5742702E+00;  0.0000000E+00;  6.0865074E-01;0; -2.0817976E-01;  1.0010268E+04;  0.0000000E+00;  7.0543661E-07;  1.0000000E+04;  0.0000000E+00;  9.9996045E+03; -2.1643856E-01;  0.0000000E+00;  8.2588028E-03;  2.2646532E+02;
  5.9953094E-02;  9.9999998E-03; -2.3051632E-12;1137; -2.1798534E-02;  0.0000000E+00;  5.0446392E-10;  1.0005468E+03;  4.0000001E-01;  4.5302417E+02;3; -8.1009388E+00;  0.0000000E+00;  6.2198178E-06;0; -2.2900380E-01;  1.0011185E+04;  0.0000000E+00;  1.7099873E-15;  1.0000000E+04;  0.0000000E+00;  9.9997520E+03; -2.3632792E-01;  0.0000000E+00;  7.3241112E-03;  1.5723547E+02;
  5.9953067E-02;  9.9999998E-03;  2.0000245E-02;1138; -2.1800198E-02;  0.0000000E+00;  1.6678468E-04;  1.0005468E+03;  4.0000001E-01;  4.5302417E+02;3; -8.0942011E+00;  0.0000000E+00;  9.1950670E-02;0; -2.2894274E-01;  1.0011192E+04;  0.0000000E+00; -1.8707473E-10;  1.0000000E+04;  0.0000000E+00;  9.9997451E+03; -2.3632133E-01;  0.0000000E+00;  7.3785982E-03;  1.5982918E+02;
  5.9952993E-02;  9.9999998E-03;  4.0000502E-02;1139; -2.1802925E-02;  0.0000000E+00;  3.3634226E-04;  1.0005468E+03;  4.0000001E-01;  4.5302417E+02;3; -8.0737190E+00;  0.0000000E+00;  1.8193990E-01;0; -2.2874197E-01;  1.0011214E+04;  0.0000000E+00; -1.9078157E-10;  1.0000000E+04;  0.0000000E+00;  9.9997305E+03; -2.3627982E-01;  0.0000000E+00;  7.5378441E-03;  1.6746422E+02;
  5.9952889E-02;  9.9999998E-03;  6.0000788E-02;1140; -2.1799199E-02;  0.0000000E+00;  5.1255972E-04;  1.0005469E+03;  4.0000001E-01;  4.5312292E+02;3; -8.0371943E+00;  0.0000000E+00;  2.7204171E-01;0; -2.2834794E-01;  1.0011234E+04;  0.0000000E+00;  3.5083632E-09;  1.0000000E+04;  0.0000000E+00;  9.9997070E+03; -2.3613600E-01;  0.0000000E+00;  7.7880640E-03;  1.7967874E+02;
  5.9952788E-02;  9.9999998E-03;  8.0001116E-02;1141; -2.1776246E-02;  0.0000000E+00;  6.9867301E-04;  1.0005464E+03;  4.0000001E-01;  4.5262912E+02;3; -7.9818764E+00;  0.0000000E+00;  3.6050683E-01;0; -2.2766730E-01;  1.0011252E+04;  0.0000000E+00;  2.4289902E-08;  1.0000000E+04;  0.0000000E+00;  9.9996738E+03; -2.3576936E-01;  0.0000000E+00;  8.1020631E-03;  1.9561554E+02;
  5.9952740E-02;  9.9999998E-03;  1.0000149E-01;1142; -2.1715282E-02;  0.0000000E+00;  8.9700898E-04;  1.0005452E+03;  4.0000001E-01;  4.5164148E+02;3; -7.9037170E+00;  0.0000000E+00;  4.4562161E-01;0; -2.2656041E-01;  1.0011262E+04;  0.0000000E+00;  1.0364926E-07;  1.0000000E+04;  0.0000000E+00;  9.9996377E+03; -2.3499344E-01;  0.0000000E+00;  8.4330337E-03;  2.1386992E+02;
  5.9952807E-02;  9.9999998E-03;  1.2000193E-01;1143; -2.1590492E-02;  0.0000000E+00;  1.1068600E-03;  1.0005421E+03;  4.0000001E-01;  4.4907364E+02;3; -7.7955179E+00;  0.0000000E+00;  5.2968645E-01;0; -2.2482899E-01;  1.0011249E+04;  0.0000000E+00;  3.3043267E-07;  1.0000000E+04;  0.0000000E+00;  9.9995986E+03; -2.3353815E-01;  0.0000000E+00;  8.7091634E-03;  2.3231502E+02;
  5.9953082E-02;  9.9999998E-03;  1.4000243E-01;1144; -2.1365242E-02;  0.0000000E+00;  1.3300674E-03;  1.0005372E+03;  4.0000001E-01;  4.4512314E+02;3; -7.6491833E+00;  0.0000000E+00;  6.0828340E-01;0; -2.2219169E-01;  1.0011186E+04;  0.0000000E+00;  8.3416603E-07;  1.0000000E+04;  0.0000000E+00;  9.9995654E+03; -2.3102804E-01;  0.0000000E+00;  8.8363504E-03;  2.4807272E+02;
  7.9941720E-02;  9.9999998E-03; -2.8955553E-12;1168; -2.6830167E-02;  0.0000000E+00; -1.1775020E-09;  1.0005889E+03;  4.0000001E-01;  4.8788736E+02;3; -9.3921642E+00;  0.0000000E+00;  5.0370545E-07;0; -2.4133062E-01;  1.0012062E+04;  0.0000000E+00; -1.1635260E-15;  1.0000000E+04;  0.0000000E+00;  9.9997236E+03; -2.4948749E-01;  0.0000000E+00;  8.1568677E-03;  1.7421170E+02;
  7.9941683E-02;  9.9999998E-03;  2.0000257E-02;1169; -2.6832435E-02;  0.0000000E+00;  1.7633487E-04;  1.0005891E+03;  4.0000001E-01;  4.8808490E+02;3; -9.3834972E+00;  0.0000000E+00;  9.3741134E-02;0; -2.4129760E-01;  1.0012068E+04;  0.0000000E+00; -8.8032040E-11;  1.0000000E+04;  0.0000000E+00;  9.9997188E+03; -2.4949348E-01;  0.0000000E+00;  8.1958696E-03;  1.7675732E+02;
  7.9941586E-02;  9.9999998E-03;  4.0000524E-02;1170; -2.6836418E-02;  0.0000000E+00;  3.5498370E-04;  1.0005894E+03;  4.0000001E-01;  4.8828241E+02;3; -9.3569260E+00;  0.0000000E+00;  1.8622555E-01;0; -2.4118313E-01;  1.0012091E+04;  0.0000000E+00;  4.7207260E-10;  1.0000000E+04;  0.0000000E+00;  9.9997021E+03; -2.4949181E-01;  0.0000000E+00;  8.3086798E-03;  1.8423453E+02;
  7.9941444E-02;  9.9999998E-03;  6.0000822E-02;1171; -2.6833685E-02;  0.0000000E+00;  5.3763250E-04;  1.0005897E+03;  4.0000001E-01;  4.8847995E+02;3; -9.3109035E+00;  0.0000000E+00;  2.7506828E-01;0; -2.4094135E-01;  1.0012124E+04;  0.0000000E+00;  4.7493853E-09;  1.0000000E+04;  0.0000000E+00;  9.9996797E+03; -2.4942234E-01;  0.0000000E+00;  8.4809931E-03;  1.9613354E+02;
  7.9941295E-02;  9.9999998E-03;  8.0001153E-02;1172; -2.6809515E-02;  0.0000000E+00;  7.2688860E-04;  1.0005897E+03;  4.0000001E-01;  4.8857870E+02;3; -9.2421856E+00;  0.0000000E+00;  3.6157990E-01;0; -2.4049219E-01;  1.0012153E+04;  0.0000000E+00;  2.6252518E-08;  1.0000000E+04;  0.0000000E+00;  9.9996494E+03; -2.4917598E-01;  0.0000000E+00;  8.6837811E-03;  2.1150458E+02;
  7.9941198E-02;  9.9999998E-03;  1.0000153E-01;1173; -2.6742177E-02;  0.0000000E+00;  9.2516566E-04;  1.0005895E+03;  4.0000001E-01;  4.8838116E+02;3; -9.1465244E+00;  0.0000000E+00;  4.4403595E-01;0; -2.3971426E-01;  1.0012183E+04;  0.0000000E+00;  1.0540004E-07;  1.0000000E+04;  0.0000000E+00;  9.9996123E+03; -2.4858135E-01;  0.0000000E+00;  8.8670896E-03;  2.2881606E+02;
  7.9941235E-02;  9.9999998E-03;  1.2000196E-01;1174; -2.6601527E-02;  0.0000000E+00;  1.1318785E-03;  1.0005878E+03;  4.0000001E-01;  4.8699850E+02;3; -9.0179977E+00;  0.0000000E+00;  5.1976329E-01;0; -2.3842549E-01;  1.0012186E+04;  0.0000000E+00;  3.2274613E-07;  1.0000000E+04;  0.0000000E+00;  9.9995762E+03; -2.4738374E-01;  0.0000000E+00;  8.9582549E-03;  2.4583229E+02;
  7.9941504E-02;  9.9999998E-03;  1.4000246E-01;1175; -2.6346095E-02;  0.0000000E+00;  1.3464033E-03;  1.0005847E+03;  4.0000001E-01;  4.8433191E+02;3; -8.8470001E+00;  0.0000000E+00;  5.9184796E-01;0; -2.3634575E-01;  1.0012146E+04;  0.0000000E+00;  7.3415850E-07;  1.0000000E+04;  0.0000000E+00;  9.9995479E+03; -2.4521935E-01;  0.0000000E+00;  8.8735903E-03;  2.5975043E+02;
  9.9929661E-02;  9.9999998E-03; -5.1011349E-13;1199; -3.2029644E-02;  0.0000000E+00; -2.2217157E-09;  1.0006385E+03;  4.0000001E-01;  5.2897260E+02;3; -1.0847994E+01;  0.0000000E+00; -6.5919780E-06;0; -2.5559887E-01;  1.0013082E+04;  0.0000000E+00; -3.4781555E-16;  1.0000000E+04;  0.0000000E+00;  9.9996914E+03; -2.6456138E-01;  0.0000000E+00;  8.9625111E-03;  1.9274644E+02;
  9.9929616E-02;  9.9999998E-03;  2.0000262E-02;1200; -3.2032557E-02;  0.0000000E+00;  1.8155835E-04;  1.0006388E+03;  4.0000001E-01;  5.2926892E+02;3; -1.0837254E+01;  0.0000000E+00;  9.4158813E-02;0; -2.5560054E-01;  1.0013092E+04;  0.0000000E+00;  6.2065665E-11;  1.0000000E+04;  0.0000000E+00;  9.9996875E+03; -2.6457968E-01;  0.0000000E+00;  8.9791389E-03;  1.9509419E+02;
  9.9929482E-02;  9.9999998E-03;  4.0000536E-02;1201; -3.2038160E-02;  0.0000000E+00;  3.6394873E-04;  1.0006395E+03;  4.0000001E-01;  5.2976270E+02;3; -1.0804478E+01;  0.0000000E+00;  1.8642271E-01;0; -2.5559285E-01;  1.0013119E+04;  0.0000000E+00;  1.3723840E-09;  1.0000000E+04;  0.0000000E+00;  9.9996729E+03; -2.6461744E-01;  0.0000000E+00;  9.0245903E-03;  2.0196036E+02;
  9.9929295E-02;  9.9999998E-03;  6.0000829E-02;1202; -3.2036997E-02;  0.0000000E+00;  5.4824486E-04;  1.0006403E+03;  4.0000001E-01;  5.3045404E+02;3; -1.0748056E+01;  0.0000000E+00;  2.7502301E-01;0; -2.5553861E-01;  1.0013156E+04;  0.0000000E+00;  6.3196559E-09;  1.0000000E+04;  0.0000000E+00;  9.9996514E+03; -2.6462188E-01;  0.0000000E+00;  9.0832850E-03;  2.1277383E+02;
  9.9929087E-02;  9.9999998E-03;  8.0001161E-02;1203; -3.2013044E-02;  0.0000000E+00;  7.3507708E-04;  1.0006415E+03;  4.0000001E-01;  5.3144165E+02;3; -1.0665349E+01;  0.0000000E+00;  3.5735866E-01;0; -2.5537264E-01;  1.0013206E+04;  0.0000000E+00;  3.0950360E-08;  1.0000000E+04;  0.0000000E+00;  9.9996250E+03; -2.6449612E-01;  0.0000000E+00;  9.1234772E-03;  2.2647914E+02;
  9.9928930E-02;  9.9999998E-03;  1.0000153E-01;1204; -3.1942412E-02;  0.0000000E+00;  9.2564855E-04;  1.0006422E+03;  4.0000001E-01;  5.3203424E+02;3; -1.0551974E+01;  0.0000000E+00;  4.3444508E-01;0; -2.5499228E-01;  1.0013251E+04;  0.0000000E+00;  1.1223089E-07;  1.0000000E+04;  0.0000000E+00;  9.9995977E+03; -2.6408529E-01;  0.0000000E+00;  9.0930220E-03;  2.4142883E+02;
  9.9928908E-02;  9.9999998E-03;  1.2000195E-01;1205; -3.1791613E-02;  0.0000000E+00;  1.1215045E-03;  1.0006420E+03;  4.0000001E-01;  5.3193549E+02;3; -1.0402092E+01;  0.0000000E+00;  5.0496000E-01;0; -2.5423053E-01;  1.0013279E+04;  0.0000000E+00;  3.0299512E-07;  1.0000000E+04;  0.0000000E+00;  9.9995684E+03; -2.6315355E-01;  0.0000000E+00;  8.9230342E-03;  2.5536488E+02;
  9.9929154E-02;  9.9999998E-03;  1.4000241E-01;1206; -3.1514272E-02;  0.0000000E+00;  1.3203287E-03;  1.0006405E+03;  4.0000001E-01;  5.3065155E+02;3; -1.0206596E+01;  0.0000000E+00;  5.6670368E-01;0; -2.5280240E-01;  1.0013267E+04;  0.0000000E+00;  5.3982410E-07;  1.0000000E+04;  0.0000000E+00;  9.9995498E+03; -2.6135412E-01;  0.0000000E+00;  8.5517215E-03;  2.6577679E+02;
  1.1991664E-01;  9.9999998E-03; -2.1651944E-13;1230; -3.7503306E-02;  0.0000000E+00;  1.5266697E-09;  1.0006974E+03;  4.0000001E-01;  5.7786011E+02;3; -1.2459078E+01;  0.0000000E+00; -1.9842973E-06;0; -2.7264425E-01;  1.0014310E+04;  0.0000000E+00;  1.5616060E-15;  1.0000000E+04;  0.0000000E+00;  9.9996484E+03; -2.8262430E-01;  0.0000000E+00;  9.9800657E-03;  2.1790758E+02;
  1.1991658E-01;  9.9999998E-03;  2.0000275E-02;1231; -3.7507005E-02;  0.0000000E+00;  1.8875624E-04;  1.0006979E+03;  4.0000001E-01;  5.7825519E+02;3; -1.2446174E+01;  0.0000000E+00;  9.4976738E-02;0; -2.7268374E-01;  1.0014323E+04;  0.0000000E+00;  4.5765600E-10;  1.0000000E+04;  0.0000000E+00;  9.9996445E+03; -2.8265354E-01;  0.0000000E+00;  9.9698035E-03;  2.1996867E+02;
  1.1991642E-01;  9.9999998E-03;  4.0000558E-02;1232; -3.7514675E-02;  0.0000000E+00;  3.7668698E-04;  1.0006991E+03;  4.0000001E-01;  5.7914404E+02;3; -1.2406866E+01;  0.0000000E+00;  1.8737702E-01;0; -2.7279297E-01;  1.0014354E+04;  0.0000000E+00;  2.1289994E-09;  1.0000000E+04;  0.0000000E+00;  9.9996328E+03; -2.8272656E-01;  0.0000000E+00;  9.9336021E-03;  2.2594272E+02;
  1.1991617E-01;  9.9999998E-03;  6.0000859E-02;1233; -3.7516166E-02;  0.0000000E+00;  5.6318694E-04;  1.0007007E+03;  4.0000001E-01;  5.8052673E+02;3; -1.2339691E+01;  0.0000000E+00;  2.7457252E-01;0; -2.7294427E-01;  1.0014404E+04;  0.0000000E+00;  1.0640395E-08;  1.0000000E+04;  0.0000000E+00;  9.9996191E+03; -2.8279680E-01;  0.0000000E+00;  9.8525165E-03;  2.3515701E+02;
  1.1991590E-01;  9.9999998E-03;  8.0001183E-02;1234; -3.7494350E-02;  0.0000000E+00;  7.4825418E-04;  1.0007028E+03;  4.0000001E-01;  5.8220569E+02;3; -1.2242168E+01;  0.0000000E+00;  3.5495654E-01;0; -2.7308953E-01;  1.0014466E+04;  0.0000000E+00;  4.5039982E-08;  1.0000000E+04;  0.0000000E+00;  9.9995938E+03; -2.8277898E-01;  0.0000000E+00;  9.6894465E-03;  2.4639523E+02;
  1.1991566E-01;  9.9999998E-03;  1.0000155E-01;1235; -3.7424076E-02;  0.0000000E+00;  9.3176088E-04;  1.0007048E+03;  4.0000001E-01;  5.8398340E+02;3; -1.2110771E+01;  0.0000000E+00;  4.2666110E-01;0; -2.7314612E-01;  1.0014530E+04;  0.0000000E+00;  1.4220943E-07;  1.0000000E+04;  0.0000000E+00;  9.9995703E+03; -2.8253469E-01;  0.0000000E+00;  9.3885614E-03;  2.5784689E+02;
  1.1991555E-01;  9.9999998E-03;  1.2000195E-01;1236; -3.7269298E-02;  0.0000000E+00;  1.1144505E-03;  1.0007068E+03;  4.0000001E-01;  5.8556360E+02;3; -1.1939486E+01;  0.0000000E+00;  4.9048752E-01;0; -2.7296168E-01;  1.0014584E+04;  0.0000000E+00;  3.1975853E-07;  1.0000000E+04;  0.0000000E+00;  9.9995566E+03; -2.8184879E-01;  0.0000000E+00;  8.8871112E-03;  2.6724655E+02;
  1.1991573E-01;  9.9999998E-03;  1.4000240E-01;1237; -3.6978818E-02;  0.0000000E+00;  1.2958525E-03;  1.0007071E+03;  4.0000001E-01;  5.8585986E+02;3; -1.1719122E+01;  0.0000000E+00;  5.4394114E-01;0; -2.7224347E-01;  1.0014602E+04;  0.0000000E+00;  3.5164751E-07;  1.0000000E+04;  0.0000000E+00;  9.9995469E+03; -2.8039715E-01;  0.0000000E+00;  8.1536854E-03;  2.7251151E+02;
  1.3990231E-01;  9.9999998E-03;  8.4161416E-13;1261; -4.3387227E-02;  0.0000000E+00; -2.6394336E-09;  1.0007661E+03;  4.0000001E-01;  6.3464862E+02;3; -1.4195032E+01;  0.0000000E+00; -1.3524545E-05;0; -2.9209769E-01;  1.0015754E+04;  0.0000000E+00;  1.2255912E-15;  1.0000000E+04;  0.0000000E+00;  9.9995791E+03; -3.0359966E-01;  0.0000000E+00;  1.1501969E-02;  2.5573906E+02;
  1.3990223E-01;  9.9999998E-03;  2.0000309E-02;1262; -4.3391842E-02;  0.0000000E+00;  2.0540964E-04;  1.0007668E+03;  4.0000001E-01;  6.3533997E+02;3; -1.4179776E+01;  0.0000000E+00;  9.8338149E-02;0; -2.9217449E-01;  1.0015764E+04;  0.0000000E+00;  1.3466502E-09;  1.0000000E+04;  0.0000000E+00;  9.9995742E+03; -3.0363747E-01;  0.0000000E+00;  1.1462986E-02;  2.5749771E+02;
  1.3990204E-01;  9.9999998E-03;  4.0000625E-02;1263; -4.3402135E-02;  0.0000000E+00;  4.0807002E-04;  1.0007682E+03;  4.0000001E-01;  6.3642633E+02;3; -1.4133529E+01;  0.0000000E+00;  1.9312768E-01;0; -2.9239872E-01;  1.0015801E+04;  0.0000000E+00;  4.5828918E-09;  1.0000000E+04;  0.0000000E+00;  9.9995674E+03; -3.0373713E-01;  0.0000000E+00;  1.1338404E-02;  2.6250720E+02;
  1.3990173E-01;  9.9999998E-03;  6.0000952E-02;1264; -4.3407481E-02;  0.0000000E+00;  6.0602190E-04;  1.0007707E+03;  4.0000001E-01;  6.3850037E+02;3; -1.4054960E+01;  0.0000000E+00;  2.8160647E-01;0; -2.9275453E-01;  1.0015863E+04;  0.0000000E+00;  2.1255321E-08;  1.0000000E+04;  0.0000000E+00;  9.9995547E+03; -3.0385721E-01;  0.0000000E+00;  1.1102682E-02;  2.6992661E+02;
  1.3990135E-01;  9.9999998E-03;  8.0001302E-02;1265; -4.3390021E-02;  0.0000000E+00;  7.9799426E-04;  1.0007737E+03;  4.0000001E-01;  6.4106818E+02;3; -1.3942025E+01;  0.0000000E+00;  3.6164999E-01;0; -2.9321292E-01;  1.0015940E+04;  0.0000000E+00;  7.1487122E-08;  1.0000000E+04;  0.0000000E+00;  9.9995371E+03; -3.0392215E-01;  0.0000000E+00;  1.0709227E-02;  2.7828201E+02;
  1.3990101E-01;  9.9999998E-03;  1.0000167E-01;1266; -4.3323494E-02;  0.0000000E+00;  9.8306744E-04;  1.0007774E+03;  4.0000001E-01;  6.4403107E+02;3; -1.3791726E+01;  0.0000000E+00;  4.3103907E-01;0; -2.9371542E-01;  1.0016025E+04;  0.0000000E+00;  2.0155406E-07;  1.0000000E+04;  0.0000000E+00;  9.9995254E+03; -3.0380988E-01;  0.0000000E+00;  1.0094462E-02;  2.8549600E+02;
  1.3990080E-01;  9.9999998E-03;  1.2000208E-01;1267; -4.3170039E-02;  0.0000000E+00;  1.1590883E-03;  1.0007810E+03;  4.0000001E-01;  6.4709271E+02;3; -1.3598538E+01;  0.0000000E+00;  4.8949355E-01;0; -2.9412851E-01;  1.0016101E+04;  0.0000000E+00;  4.0890106E-07;  1.0000000E+04;  0.0000000E+00;  9.9995205E+03; -3.0332968E-01;  0.0000000E+00;  9.2011793E-03;  2.8923865E+02;
  1.3990089E-01;  9.9999998E-03;  1.4000250E-01;1268; -4.2874571E-02;  0.0000000E+00;  1.3235901E-03;  1.0007836E+03;  4.0000001E-01;  6.4926550E+02;3; -1.3353138E+01;  0.0000000E+00;  5.3486526E-01;0; -2.9415706E-01;  1.0016149E+04;  0.0000000E+00;  2.9356261E-07;  1.0000000E+04;  0.0000000E+00;  9.9995293E+03; -3.0219159E-01;  0.0000000E+00;  8.0345394E-03;  2.8794165E+02;
  1.5988640E-01;  9.9999998E-03; -2.0464253E-12;1292; -4.9768735E-02;  0.0000000E+00; -1.6728731E-10;  1.0008434E+03;  4.0000001E-01;  6.9874554E+02;3; -1.6030582E+01;  0.0000000E+00;  5.0573390E-06;0; -3.1318808E-01;  1.0017400E+04;  0.0000000E+00;  7.3237484E-15;  1.0000000E+04;  0.0000000E+00;  9.9994736E+03; -3.2702193E-01;  0.0000000E+00;  1.3833841E-02;  3.1271600E+02;
  1.5988632E-01;  9.9999998E-03;  2.0000381E-02;1293; -4.9774472E-02;  0.0000000E+00;  2.3922879E-04;  1.0008440E+03;  4.0000001E-01;  6.9923938E+02;3; -1.6012827E+01;  0.0000000E+00;  1.0627616E-01;0; -3.1329641E-01;  1.0017415E+04;  0.0000000E+00;  1.5456700E-09;  1.0000000E+04;  0.0000000E+00;  9.9994678E+03; -3.2706353E-01;  0.0000000E+00;  1.3767111E-02;  3.1423212E+02;
  1.5988606E-01;  9.9999998E-03;  4.0000767E-02;1294; -4.9788006E-02;  0.0000000E+00;  4.7420672E-04;  1.0008458E+03;  4.0000001E-01;  7.0072083E+02;3; -1.5959145E+01;  0.0000000E+00;  2.0814189E-01;0; -3.1362000E-01;  1.0017459E+04;  0.0000000E+00;  8.6895966E-09;  1.0000000E+04;  0.0000000E+00;  9.9994629E+03; -3.2717571E-01;  0.0000000E+00;  1.3555698E-02;  3.1842953E+02;
  1.5988567E-01;  9.9999998E-03;  6.0001161E-02;1295; -4.9798284E-02;  0.0000000E+00;  7.0161710E-04;  1.0008489E+03;  4.0000001E-01;  7.0328864E+02;3; -1.5868361E+01;  0.0000000E+00;  3.0294621E-01;0; -3.1415561E-01;  1.0017532E+04;  0.0000000E+00;  3.4375997E-08;  1.0000000E+04;  0.0000000E+00;  9.9994512E+03; -3.2731965E-01;  0.0000000E+00;  1.3164041E-02;  3.2422189E+02;
  1.5988521E-01;  9.9999998E-03;  8.0001570E-02;1296; -4.9786873E-02;  0.0000000E+00;  9.1868330E-04;  1.0008533E+03;  4.0000001E-01;  7.0694287E+02;3; -1.5738900E+01;  0.0000000E+00;  3.8752541E-01;0; -3.1489700E-01;  1.0017624E+04;  0.0000000E+00;  1.1489808E-07;  1.0000000E+04;  0.0000000E+00;  9.9994443E+03; -3.2742804E-01;  0.0000000E+00;  1.2531050E-02;  3.2976620E+02;
  1.5988475E-01;  9.9999998E-03;  1.0000200E-01;1297; -4.9726550E-02;  0.0000000E+00;  1.1224390E-03;  1.0008584E+03;  4.0000001E-01;  7.1118964E+02;3; -1.5568189E+01;  0.0000000E+00;  4.5985338E-01;0; -3.1581515E-01;  1.0017728E+04;  0.0000000E+00;  3.0732261E-07;  1.0000000E+04;  0.0000000E+00;  9.9994443E+03; -3.2739580E-01;  0.0000000E+00;  1.1580633E-02;  3.3259677E+02;
  1.5988441E-01;  9.9999998E-03;  1.2000243E-01;1298; -4.9577765E-02;  0.0000000E+00;  1.3079910E-03;  1.0008638E+03;  4.0000001E-01;  7.1563397E+02;3; -1.5351602E+01;  0.0000000E+00;  5.1758385E-01;0; -3.1680214E-01;  1.0017829E+04;  0.0000000E+00;  5.9067173E-07;  1.0000000E+04;  0.0000000E+00;  9.9994502E+03; -3.2706240E-01;  0.0000000E+00;  1.0260263E-02;  3.3026923E+02;
  1.5988435E-01;  9.9999998E-03;  1.4000288E-01;1299; -4.9282238E-02;  0.0000000E+00;  1.4681157E-03;  1.0008691E+03;  4.0000001E-01;  7.2007831E+02;3; -1.5079914E+01;  0.0000000E+00;  5.5749142E-01;0; -3.1756717E-01;  1.0017911E+04;  0.0000000E+00;  3.9019068E-07;  1.0000000E+04;  0.0000000E+00;  9.9994736E+03; -3.2618725E-01;  0.0000000E+00;  8.6200805E-03;  3.2190109E+02;
  1.7986874E-01;  9.9999998E-03;  2.3525255E-12;1323; -5.6676310E-02;  0.0000000E+00;  5.9469124E-10;  1.0009285E+03;  4.0000001E-01;  7.6926208E+02;3; -1.7950518E+01;  0.0000000E+00;  5.7542729E-06;0; -3.3556008E-01;  1.0019263E+04;  0.0000000E+00;  6.6769087E-16;  1.0000000E+04;  0.0000000E+00;  9.9993076E+03; -3.5282084E-01;  0.0000000E+00;  1.7260758E-02;  3.9523987E+02;
  1.7986864E-01;  9.9999998E-03;  2.0000510E-02;1324; -5.6683335E-02;  0.0000000E+00;  2.9761766E-04;  1.0009293E+03;  4.0000001E-01;  7.6985468E+02;3; -1.7930050E+01;  0.0000000E+00;  1.2100922E-01;0; -3.3568949E-01;  1.0019282E+04;  0.0000000E+00;  2.4806082E-09;  1.0000000E+04;  0.0000000E+00;  9.9993096E+03; -3.5285956E-01;  0.0000000E+00;  1.7170085E-02;  3.9664908E+02;
  1.7986833E-01;  9.9999998E-03;  4.0001020E-02;1325; -5.6700498E-02;  0.0000000E+00;  5.8987283E-04;  1.0009314E+03;  4.0000001E-01;  7.7163239E+02;3; -1.7868080E+01;  0.0000000E+00;  2.3755628E-01;0; -3.3608127E-01;  1.0019335E+04;  0.0000000E+00;  1.6966110E-08;  1.0000000E+04;  0.0000000E+00;  9.9993027E+03; -3.5296360E-01;  0.0000000E+00;  1.6882332E-02;  4.0042099E+02;
  1.7986785E-01;  9.9999998E-03;  6.0001541E-02;1326; -5.6716293E-02;  0.0000000E+00;  8.7266538E-04;  1.0009354E+03;  4.0000001E-01;  7.7499030E+02;3; -1.7763771E+01;  0.0000000E+00;  3.4634551E-01;0; -3.3674577E-01;  1.0019418E+04;  0.0000000E+00;  5.2144703E-08;  1.0000000E+04;  0.0000000E+00;  9.9992959E+03; -3.5309523E-01;  0.0000000E+00;  1.6349453E-02;  4.0516934E+02;
  1.7986727E-01;  9.9999998E-03;  8.0002069E-02;1327; -5.6711476E-02;  0.0000000E+00;  1.1418571E-03;  1.0009404E+03;  4.0000001E-01;  7.7913837E+02;3; -1.7615873E+01;  0.0000000E+00;  4.4376397E-01;0; -3.3770144E-01;  1.0019524E+04;  0.0000000E+00;  1.6937875E-07;  1.0000000E+04;  0.0000000E+00;  9.9992900E+03; -3.5319394E-01;  0.0000000E+00;  1.5492501E-02;  4.0860577E+02;
  1.7986666E-01;  9.9999998E-03;  1.0000261E-01;1328; -5.6657787E-02;  0.0000000E+00;  1.3926813E-03;  1.0009471E+03;  4.0000001E-01;  7.8466907E+02;3; -1.7422382E+01;  0.0000000E+00;  5.2657974E-01;0; -3.3895057E-01;  1.0019646E+04;  0.0000000E+00;  4.4219232E-07;  1.0000000E+04;  0.0000000E+00;  9.9992998E+03; -3.5317141E-01;  0.0000000E+00;  1.4220843E-02;  4.0782779E+02;
  1.7986615E-01;  9.9999998E-03;  1.2000315E-01;1329; -5.6513943E-02;  0.0000000E+00;  1.6159801E-03;  1.0009543E+03;  4.0000001E-01;  7.9069354E+02;3; -1.7179447E+01;  0.0000000E+00;  5.9202766E-01;0; -3.4041432E-01;  1.0019774E+04;  0.0000000E+00;  8.3811261E-07;  1.0000000E+04;  0.0000000E+00;  9.9993174E+03; -3.5290456E-01;  0.0000000E+00;  1.2490234E-02;  4.0035822E+02;
  1.7986594E-01;  9.9999998E-03;  1.4000367E-01;1330; -5.6219067E-02;  0.0000000E+00;  1.7980388E-03;  1.0009618E+03;  4.0000001E-01;  7.9681683E+02;3; -1.6878035E+01;  0.0000000E+00;  6.3411880E-01;0; -3.4180936E-01;  1.0019888E+04;  0.0000000E+00;  6.3560014E-07;  1.0000000E+04;  0.0000000E+00;  9.9993545E+03; -3.5222036E-01;  0.0000000E+00;  1.0410990E-02;  3.8640768E+02;
  1.9984916E-01;  9.9999998E-03; -1.7438994E-12;1354; -6.4129584E-02;  0.0000000E+00; -5.9782730E-09;  1.0010224E+03;  4.0000001E-01;  8.4708704E+02;3; -1.9941053E+01;  0.0000000E+00; -2.4333349E-06;0; -3.5908318E-01;  1.0021373E+04;  0.0000000E+00; -3.3030926E-16;  1.0000000E+04;  0.0000000E+00;  9.9990859E+03; -3.8110256E-01;  0.0000000E+00;  2.2019399E-02;  5.0899084E+02;
  1.9984904E-01;  9.9999998E-03;  2.0000705E-02;1355; -6.4138010E-02;  0.0000000E+00;  3.8716701E-04;  1.0010234E+03;  4.0000001E-01;  8.4787714E+02;3; -1.9917662E+01;  0.0000000E+00;  1.4405809E-01;0; -3.5921896E-01;  1.0021390E+04;  0.0000000E+00;  1.6609633E-09;  1.0000000E+04;  0.0000000E+00;  9.9990859E+03; -3.8113001E-01;  0.0000000E+00;  2.1911060E-02;  5.1050003E+02;
  1.9984865E-01;  9.9999998E-03;  4.0001418E-02;1356; -6.4159118E-02;  0.0000000E+00;  7.6849520E-04;  1.0010260E+03;  4.0000001E-01;  8.5004993E+02;3; -1.9847298E+01;  0.0000000E+00;  2.8134114E-01;0; -3.5963458E-01;  1.0021448E+04;  0.0000000E+00;  1.7235765E-08;  1.0000000E+04;  0.0000000E+00;  9.9990771E+03; -3.8120049E-01;  0.0000000E+00;  2.1565927E-02;  5.1446448E+02;
  1.9984807E-01;  9.9999998E-03;  6.0002133E-02;1357; -6.4180605E-02;  0.0000000E+00;  1.1393209E-03;  1.0010302E+03;  4.0000001E-01;  8.5350659E+02;3; -1.9728209E+01;  0.0000000E+00;  4.1311663E-01;0; -3.6035299E-01;  1.0021545E+04;  0.0000000E+00;  6.3618565E-08;  1.0000000E+04;  0.0000000E+00;  9.9990684E+03; -3.8127643E-01;  0.0000000E+00;  2.0923423E-02;  5.1919946E+02;
  1.9984736E-01;  9.9999998E-03;  8.0002867E-02;1358; -6.4181954E-02;  0.0000000E+00;  1.4960401E-03;  1.0010361E+03;  4.0000001E-01;  8.5834595E+02;3; -1.9559778E+01;  0.0000000E+00;  5.3413159E-01;0; -3.6141434E-01;  1.0021667E+04;  0.0000000E+00;  2.1099730E-07;  1.0000000E+04;  0.0000000E+00;  9.9990684E+03; -3.8130227E-01;  0.0000000E+00;  1.9887932E-02;  5.2199542E+02;
  1.9984658E-01;  9.9999998E-03;  1.0000361E-01;1359; -6.4132832E-02;  0.0000000E+00;  1.8318372E-03;  1.0010436E+03;  4.0000001E-01;  8.6456799E+02;3; -1.9340219E+01;  0.0000000E+00;  6.4030415E-01;0; -3.6284891E-01;  1.0021805E+04;  0.0000000E+00;  5.4533984E-07;  1.0000000E+04;  0.0000000E+00;  9.9990801E+03; -3.8120788E-01;  0.0000000E+00;  1.8358970E-02;  5.1962427E+02;
  1.9984591E-01;  9.9999998E-03;  1.2000434E-01;1360; -6.3989915E-02;  0.0000000E+00;  2.1324744E-03;  1.0010527E+03;  4.0000001E-01;  8.7207397E+02;3; -1.9066164E+01;  0.0000000E+00;  7.2451103E-01;0; -3.6460030E-01;  1.0021957E+04;  0.0000000E+00;  1.0135469E-06;  1.0000000E+04;  0.0000000E+00;  9.9991074E+03; -3.8091153E-01;  0.0000000E+00;  1.6311223E-02;  5.0987323E+02;
  1.9984551E-01;  9.9999998E-03;  1.4000504E-01;1361; -6.3691236E-02;  0.0000000E+00;  2.3765934E-03;  1.0010619E+03;  4.0000001E-01;  8.7977747E+02;3; -1.8730564E+01;  0.0000000E+00;  7.7830154E-01;0; -3.6638874E-01;  1.0022105E+04;  0.0000000E+00;  7.9225913E-07;  1.0000000E+04;  0.0000000E+00;  9.9991465E+03; -3.8032246E-01;  0.0000000E+00;  1.3933723E-02;  4.9465851E+02;
  2.1982743E-01;  9.9999998E-03; -2.6328521E-12;1385; -7.2168253E-02;  0.0000000E+00; -2.8419878E-09;  1.0011254E+03;  4.0000001E-01;  9.3241791E+02;3; -2.1997738E+01;  0.0000000E+00; -9.9142489E-06;0; -3.8360804E-01;  1.0023736E+04;  0.0000000E+00;  1.5784443E-15;  1.0000000E+04;  0.0000000E+00;  9.9987881E+03; -4.1187954E-01;  0.0000000E+00;  2.8271502E-02;  6.5828046E+02;
  2.1982728E-01;  9.9999998E-03;  2.0000985E-02;1386; -7.2177880E-02;  0.0000000E+00;  5.1202188E-04;  1.0011264E+03;  4.0000001E-01;  9.3320801E+02;3; -2.1970659E+01;  0.0000000E+00;  1.7715950E-01;0; -3.8373306E-01;  1.0023757E+04;  0.0000000E+00;  7.8906515E-10;  1.0000000E+04;  0.0000000E+00;  9.9987861E+03; -4.1188645E-01;  0.0000000E+00;  2.8153386E-02;  6.6015143E+02;
  2.1982683E-01;  9.9999998E-03;  4.0001974E-02;1387; -7.2202064E-02;  0.0000000E+00;  1.0170643E-03;  1.0011291E+03;  4.0000001E-01;  9.3538080E+02;3; -2.1889442E+01;  0.0000000E+00;  3.4858614E-01;0; -3.8411868E-01;  1.0023817E+04;  0.0000000E+00;  1.3266993E-08;  1.0000000E+04;  0.0000000E+00;  9.9987764E+03; -4.1189417E-01;  0.0000000E+00;  2.7775498E-02;  6.6511700E+02;
  2.1982613E-01;  9.9999998E-03;  6.0002979E-02;1388; -7.2227865E-02;  0.0000000E+00;  1.5113162E-03;  1.0011338E+03;  4.0000001E-01;  9.3933130E+02;3; -2.1753395E+01;  0.0000000E+00;  5.0933397E-01;0; -3.8479841E-01;  1.0023923E+04;  0.0000000E+00;  5.8994029E-08;  1.0000000E+04;  0.0000000E+00;  9.9987686E+03; -4.1186666E-01;  0.0000000E+00;  2.7068250E-02;  6.7127014E+02;
  2.1982525E-01;  9.9999998E-03;  8.0003999E-02;1389; -7.2233543E-02;  0.0000000E+00;  1.9936766E-03;  1.0011401E+03;  4.0000001E-01;  9.4456573E+02;3; -2.1562265E+01;  0.0000000E+00;  6.6159391E-01;0; -3.8582587E-01;  1.0024056E+04;  0.0000000E+00;  2.0651888E-07;  1.0000000E+04;  0.0000000E+00;  9.9987656E+03; -4.1175246E-01;  0.0000000E+00;  2.5926575E-02;  6.7564130E+02;
  2.1982431E-01;  9.9999998E-03;  1.0000505E-01;1390; -7.2185636E-02;  0.0000000E+00;  2.4555437E-03;  1.0011484E+03;  4.0000001E-01;  9.5147913E+02;3; -2.1313074E+01;  0.0000000E+00;  8.0197328E-01;0; -3.8724652E-01;  1.0024214E+04;  0.0000000E+00;  4.9950131E-07;  1.0000000E+04;  0.0000000E+00;  9.9987705E+03; -4.1149887E-01;  0.0000000E+00;  2.4252363E-02;  6.7496838E+02;
  2.1982343E-01;  9.9999998E-03;  1.2000608E-01;1391; -7.2037108E-02;  0.0000000E+00;  2.8824552E-03;  1.0011583E+03;  4.0000001E-01;  9.5967639E+02;3; -2.1001755E+01;  0.0000000E+00;  9.2529422E-01;0; -3.8901389E-01;  1.0024391E+04;  0.0000000E+00;  8.6993299E-07;  1.0000000E+04;  0.0000000E+00;  9.9987900E+03; -4.1106814E-01;  0.0000000E+00;  2.2054257E-02;  6.6776672E+02;
  2.1982284E-01;  9.9999998E-03;  1.4000706E-01;1392; -7.1725860E-02;  0.0000000E+00;  3.2373157E-03;  1.0011687E+03;  4.0000001E-01;  9.6826874E+02;3; -2.0625853E+01;  0.0000000E+00;  1.0039676E+00;0; -3.9084205E-01;  1.0024571E+04;  0.0000000E+00;  5.9013399E-07;  1.0000000E+04;  0.0000000E+00;  9.9988242E+03; -4.1045362E-01;  0.0000000E+00;  1.9611580E-02;  6.5822351E+02;
  2.3980328E-01;  9.9999998E-03;  3.6161306E-12;1416; -8.0842882E-02;  0.0000000E+00; -2.7491300E-09;  1.0012382E+03;  4.0000001E-01;  1.0258474E+03;3; -2.4113930E+01;  0.0000000E+00; -1.4754223E-05;0; -4.0906277E-01;  1.0026372E+04;  0.0000000E+00; -2.3690177E-15;  1.0000000E+04;  0.0000000E+00;  9.9984121E+03; -4.4514623E-01;  0.0000000E+00;  3.6083449E-02;  8.4557874E+02;
  2.3980311E-01;  9.9999998E-03;  2.0001352E-02;1417; -8.0853403E-02;  0.0000000E+00;  6.7419367E-04;  1.0012392E+03;  4.0000001E-01;  1.0266375E+03;3; -2.4083466E+01;  0.0000000E+00;  2.1741249E-01;0; -4.0915823E-01;  1.0026391E+04;  0.0000000E+00; -6.6130063E-10;  1.0000000E+04;  0.0000000E+00;  9.9984053E+03; -4.4512147E-01;  0.0000000E+00;  3.5963248E-02;  8.4809729E+02;
  2.3980258E-01;  9.9999998E-03;  4.0002715E-02;1418; -8.0879621E-02;  0.0000000E+00;  1.3469083E-03;  1.0012419E+03;  4.0000001E-01;  1.0289091E+03;3; -2.3990505E+01;  0.0000000E+00;  4.3554381E-01;0; -4.0945721E-01;  1.0026463E+04;  0.0000000E+00;  4.2220338E-09;  1.0000000E+04;  0.0000000E+00;  9.9983945E+03; -4.4503498E-01;  0.0000000E+00;  3.5577770E-02;  8.5496960E+02;
  2.3980175E-01;  9.9999998E-03;  6.0004100E-02;1419; -8.0907419E-02;  0.0000000E+00;  2.0090004E-03;  1.0012468E+03;  4.0000001E-01;  1.0329583E+03;3; -2.3835138E+01;  0.0000000E+00;  6.4192176E-01;0; -4.0999717E-01;  1.0026570E+04;  0.0000000E+00;  2.5289246E-08;  1.0000000E+04;  0.0000000E+00;  9.9983789E+03; -4.4485199E-01;  0.0000000E+00;  3.4854829E-02;  8.6421301E+02;
  2.3980072E-01;  9.9999998E-03;  8.0005512E-02;1420; -8.0913417E-02;  0.0000000E+00;  2.6520961E-03;  1.0012535E+03;  4.0000001E-01;  1.0384890E+03;3; -2.3620022E+01;  0.0000000E+00;  8.2641858E-01;0; -4.1083509E-01;  1.0026720E+04;  0.0000000E+00;  9.7450069E-08;  1.0000000E+04;  0.0000000E+00;  9.9983682E+03; -4.4452676E-01;  0.0000000E+00;  3.3691667E-02;  8.7286609E+02;
  2.3979957E-01;  9.9999998E-03;  1.0000695E-01;1421; -8.0861256E-02;  0.0000000E+00;  3.2729241E-03;  1.0012619E+03;  4.0000001E-01;  1.0455011E+03;3; -2.3338633E+01;  0.0000000E+00;  9.9962133E-01;0; -4.1201583E-01;  1.0026896E+04;  0.0000000E+00;  2.2019066E-07;  1.0000000E+04;  0.0000000E+00;  9.9983613E+03; -4.4402337E-01;  0.0000000E+00;  3.2007538E-02;  8.7801953E+02;
  2.3979849E-01;  9.9999998E-03;  1.2000840E-01;1422; -8.0701768E-02;  0.0000000E+00;  3.8573169E-03;  1.0012720E+03;  4.0000001E-01;  1.0537972E+03;3; -2.2988638E+01;  0.0000000E+00;  1.1577895E+00;0; -4.1348433E-01;  1.0027090E+04;  0.0000000E+00;  2.5951732E-07;  1.0000000E+04;  0.0000000E+00;  9.9983672E+03; -4.4334194E-01;  0.0000000E+00;  2.9857598E-02;  8.7934918E+02;
  2.3979768E-01;  9.9999998E-03;  1.4000979E-01;1423; -8.0367453E-02;  0.0000000E+00;  4.3749474E-03;  1.0012825E+03;  4.0000001E-01;  1.0624883E+03;3; -2.2563040E+01;  0.0000000E+00;  1.2932240E+00;0; -4.1494572E-01;  1.0027303E+04;  0.0000000E+00; -9.4557052E-08;  1.0000000E+04;  0.0000000E+00;  9.9983672E+03; -4.4255108E-01;  0.0000000E+00;  2.7605349E-02;  8.8349316E+02;
  2.5977644E-01;  9.9999998E-03; -5.0400062E-12;1447; -9.0208746E-02;  0.0000000E+00;  2.1759765E-09;  1.0013619E+03;  4.0000001E-01;  1.1283629E+03;3; -2.6287823E+01;  0.0000000E+00;  1.4379410E-05;0; -4.3549359E-01;  1.0029304E+04;  0.0000000E+00; -1.9202313E-15;  1.0000000E+04;  0.0000000E+00;  9.9979561E+03; -4.8090819E-01;  0.0000000E+00;  4.5414582E-02;  1.0712179E+03;
  2.5977623E-01;  9.9999998E-03;  2.0001814E-02;1448; -9.0219684E-02;  0.0000000E+00;  8.7878539E-04;  1.0013627E+03;  4.0000001E-01;  1.1289554E+03;3; -2.6254759E+01;  0.0000000E+00;  2.6531574E-01;0; -4.3554258E-01;  1.0029329E+04;  0.0000000E+00; -5.5991549E-09;  1.0000000E+04;  0.0000000E+00;  9.9979492E+03; -4.8084000E-01;  0.0000000E+00;  4.5297407E-02;  1.0746514E+03;
  2.5977561E-01;  9.9999998E-03;  4.0003639E-02;1449; -9.0246461E-02;  0.0000000E+00;  1.7469951E-03;  1.0013656E+03;  4.0000001E-01;  1.1313258E+03;3; -2.6149847E+01;  0.0000000E+00;  5.2254331E-01;0; -4.3570083E-01;  1.0029403E+04;  0.0000000E+00; -2.3245748E-08;  1.0000000E+04;  0.0000000E+00;  9.9979287E+03; -4.8062345E-01;  0.0000000E+00;  4.4922616E-02;  1.0842942E+03;
  2.5977466E-01;  9.9999998E-03;  6.0005497E-02;1450; -9.0274088E-02;  0.0000000E+00;  2.6079912E-03;  1.0013701E+03;  4.0000001E-01;  1.1350787E+03;3; -2.5974224E+01;  0.0000000E+00;  7.7612776E-01;0; -4.3600485E-01;  1.0029521E+04;  0.0000000E+00; -4.3505022E-08;  1.0000000E+04;  0.0000000E+00;  9.9979072E+03; -4.8022816E-01;  0.0000000E+00;  4.4223312E-02;  1.0982738E+03;
  2.5977343E-01;  9.9999998E-03;  8.0007397E-02;1451; -9.0275772E-02;  0.0000000E+00;  3.4514784E-03;  1.0013765E+03;  4.0000001E-01;  1.1404120E+03;3; -2.5728168E+01;  0.0000000E+00;  1.0126587E+00;0; -4.3650505E-01;  1.0029674E+04;  0.0000000E+00; -9.7923362E-08;  1.0000000E+04;  0.0000000E+00;  9.9978789E+03; -4.7961569E-01;  0.0000000E+00;  4.3110635E-02;  1.1139249E+03;
  2.5977209E-01;  9.9999998E-03;  1.0000933E-01;1452; -9.0212196E-02;  0.0000000E+00;  4.2736377E-03;  1.0013847E+03;  4.0000001E-01;  1.1472266E+03;3; -2.5408689E+01;  0.0000000E+00;  1.2434940E+00;0; -4.3723148E-01;  1.0029865E+04;  0.0000000E+00; -2.6645765E-07;  1.0000000E+04;  0.0000000E+00;  9.9978545E+03; -4.7876391E-01;  0.0000000E+00;  4.1532431E-02;  1.1290116E+03;
  2.5977078E-01;  9.9999998E-03;  1.2001128E-01;1453; -9.0031013E-02;  0.0000000E+00;  5.0606332E-03;  1.0013945E+03;  4.0000001E-01;  1.1553251E+03;3; -2.5013157E+01;  0.0000000E+00;  1.4569056E+00;0; -4.3810937E-01;  1.0030079E+04;  0.0000000E+00; -6.6077303E-07;  1.0000000E+04;  0.0000000E+00;  9.9978330E+03; -4.7770101E-01;  0.0000000E+00;  3.9591640E-02;  1.1445260E+03;
  2.5976974E-01;  9.9999998E-03;  1.4001322E-01;1454; -8.9664944E-02;  0.0000000E+00;  5.7872194E-03;  1.0014041E+03;  4.0000001E-01;  1.1632261E+03;3; -2.4537558E+01;  0.0000000E+00;  1.6471119E+00;0; -4.3883789E-01;  1.0030316E+04;  0.0000000E+00; -1.0136258E-06;  1.0000000E+04;  0.0000000E+00;  9.9977891E+03; -4.7654667E-01;  0.0000000E+00;  3.7708774E-02;  1.1691202E+03;
  2.7974656E-01;  9.9999998E-03; -2.4056965E-12;1478; -1.0032151E-01;  0.0000000E+00; -2.2974114E-09;  1.0014973E+03;  4.0000001E-01;  1.2404585E+03;3; -2.8516998E+01;  0.0000000E+00; -7.8753619E-06;0; -4.6306801E-01;  1.0032546E+04;  0.0000000E+00; -1.2260666E-15;  1.0000000E+04;  0.0000000E+00;  9.9974258E+03; -5.1918423E-01;  0.0000000E+00;  5.6116223E-02;  1.3333236E+03;
  2.7974632E-01;  9.9999998E-03;  2.0002352E-02;1479; -1.0033108E-01;  0.0000000E+00;  1.0997811E-03;  1.0014980E+03;  4.0000001E-01;  1.2410510E+03;3; -2.8476435E+01;  0.0000000E+00;  3.1454214E-01;0; -4.6305609E-01;  1.0032572E+04;  0.0000000E+00; -1.1916653E-08;  1.0000000E+04;  0.0000000E+00;  9.9974160E+03; -5.1905847E-01;  0.0000000E+00;  5.6002390E-02;  1.3378746E+03;
  2.7974564E-01;  9.9999998E-03;  4.0004726E-02;1480; -1.0035521E-01;  0.0000000E+00;  2.1997432E-03;  1.0015004E+03;  4.0000001E-01;  1.2430262E+03;3; -2.8357220E+01;  0.0000000E+00;  6.1929935E-01;0; -4.6303123E-01;  1.0032648E+04;  0.0000000E+00; -5.7563543E-08;  1.0000000E+04;  0.0000000E+00;  9.9973906E+03; -5.1867229E-01;  0.0000000E+00;  5.5641063E-02;  1.3509574E+03;
  2.7974454E-01;  9.9999998E-03;  6.0007144E-02;1481; -1.0037734E-01;  0.0000000E+00;  3.2955427E-03;  1.0015048E+03;  4.0000001E-01;  1.2466805E+03;3; -2.8158285E+01;  0.0000000E+00;  9.2811710E-01;0; -4.6302333E-01;  1.0032772E+04;  0.0000000E+00; -1.5089208E-07;  1.0000000E+04;  0.0000000E+00;  9.9973525E+03; -5.1800084E-01;  0.0000000E+00;  5.4977506E-02;  1.3709725E+03;
  2.7974313E-01;  9.9999998E-03;  8.0009617E-02;1482; -1.0036657E-01;  0.0000000E+00;  4.3807253E-03;  1.0015105E+03;  4.0000001E-01;  1.2514211E+03;3; -2.7877460E+01;  0.0000000E+00;  1.2375103E+00;0; -4.6307024E-01;  1.0032938E+04;  0.0000000E+00; -3.6358909E-07;  1.0000000E+04;  0.0000000E+00;  9.9973076E+03; -5.1701528E-01;  0.0000000E+00;  5.3945038E-02;  1.3957661E+03;
  2.7974156E-01;  9.9999998E-03;  1.0001215E-01;1483; -1.0028146E-01;  0.0000000E+00;  5.4501253E-03;  1.0015184E+03;  4.0000001E-01;  1.2579395E+03;3; -2.7515303E+01;  0.0000000E+00;  1.5323859E+00;0; -4.6318141E-01;  1.0033137E+04;  0.0000000E+00; -8.0230711E-07;  1.0000000E+04;  0.0000000E+00;  9.9972588E+03; -5.1570505E-01;  0.0000000E+00;  5.2523639E-02;  1.4238961E+03;
  2.7974001E-01;  9.9999998E-03;  1.2001473E-01;1484; -1.0006856E-01;  0.0000000E+00;  6.4901188E-03;  1.0015269E+03;  4.0000001E-01;  1.2649515E+03;3; -2.7072014E+01;  0.0000000E+00;  1.8079557E+00;0; -4.6325991E-01;  1.0033367E+04;  0.0000000E+00; -1.5235752E-06;  1.0000000E+04;  0.0000000E+00;  9.9971953E+03; -5.1411158E-01;  0.0000000E+00;  5.0851680E-02;  1.4574120E+03;
  2.7973872E-01;  9.9999998E-03;  1.4001735E-01;1485; -9.9661961E-02;  0.0000000E+00;  7.4767442E-03;  1.0015351E+03;  4.0000001E-01;  1.2717662E+03;3; -2.6537394E+01;  0.0000000E+00;  2.0605698E+00;0; -4.6301231E-01;  1.0033624E+04;  0.0000000E+00; -1.6749195E-06;  1.0000000E+04;  0.0000000E+00;  9.9971074E+03; -5.1237512E-01;  0.0000000E+00;  4.9362816E-02;  1.5059501E+03;
  2.9971340E-01;  9.9999998E-03; -7.4502808E-12;1509; -1.1122945E-01;  0.0000000E+00; -6.5052341E-09;  1.0016459E+03;  4.0000001E-01;  1.3636152E+03;3; -3.0782204E+01;  0.0000000E+00; -8.9343794E-06;0; -4.9205151E-01;  1.0036122E+04;  0.0000000E+00; -6.4507573E-15;  1.0000000E+04;  0.0000000E+00;  9.9968311E+03; -5.5999011E-01;  0.0000000E+00;  6.7938603E-02;  1.6280049E+03;
  2.9971313E-01;  9.9999998E-03;  2.0002965E-02;1510; -1.1123775E-01;  0.0000000E+00;  1.3566024E-03;  1.0016468E+03;  4.0000001E-01;  1.3643065E+03;3; -3.0739086E+01;  0.0000000E+00;  3.6461669E-01;0; -4.9197114E-01;  1.0036148E+04;  0.0000000E+00; -2.4387379E-08;  1.0000000E+04;  0.0000000E+00;  9.9968164E+03; -5.5979162E-01;  0.0000000E+00;  6.7820497E-02;  1.6337734E+03;
  2.9971233E-01;  9.9999998E-03;  4.0005956E-02;1511; -1.1125429E-01;  0.0000000E+00;  2.7129762E-03;  1.0016489E+03;  4.0000001E-01;  1.3660844E+03;3; -3.0602551E+01;  0.0000000E+00;  7.4004787E-01;0; -4.9173847E-01;  1.0036226E+04;  0.0000000E+00; -1.0621604E-07;  1.0000000E+04;  0.0000000E+00;  9.9967842E+03; -5.5919069E-01;  0.0000000E+00;  6.7452222E-02;  1.6506399E+03;
  2.9971111E-01;  9.9999998E-03;  6.0008999E-02;1512; -1.1126119E-01;  0.0000000E+00;  4.0690904E-03;  1.0016527E+03;  4.0000001E-01;  1.3692448E+03;3; -3.0376772E+01;  0.0000000E+00;  1.1116329E+00;0; -4.9137455E-01;  1.0036355E+04;  0.0000000E+00; -2.8580897E-07;  1.0000000E+04;  0.0000000E+00;  9.9967373E+03; -5.5817068E-01;  0.0000000E+00;  6.6796109E-02;  1.6773844E+03;
  2.9970950E-01;  9.9999998E-03;  8.0012128E-02;1513; -1.1122899E-01;  0.0000000E+00;  5.4263552E-03;  1.0016581E+03;  4.0000001E-01;  1.3737878E+03;3; -3.0059938E+01;  0.0000000E+00;  1.4739227E+00;0; -4.9090317E-01;  1.0036528E+04;  0.0000000E+00; -6.4255028E-07;  1.0000000E+04;  0.0000000E+00;  9.9966689E+03; -5.5671442E-01;  0.0000000E+00;  6.5811247E-02;  1.7124357E+03;
  2.9970768E-01;  9.9999998E-03;  1.0001535E-01;1514; -1.1111321E-01;  0.0000000E+00;  6.7677451E-03;  1.0016647E+03;  4.0000001E-01;  1.3792197E+03;3; -2.9653502E+01;  0.0000000E+00;  1.8312166E+00;0; -4.9031562E-01;  1.0036736E+04;  0.0000000E+00; -1.2744033E-06;  1.0000000E+04;  0.0000000E+00;  9.9965889E+03; -5.5482173E-01;  0.0000000E+00;  6.4506121E-02;  1.7550313E+03;
  2.9970586E-01;  9.9999998E-03;  1.2001866E-01;1515; -1.1085998E-01;  0.0000000E+00;  8.0827847E-03;  1.0016716E+03;  4.0000001E-01;  1.3848492E+03;3; -2.9157387E+01;  0.0000000E+00;  2.1600161E+00;0; -4.8950085E-01;  1.0036979E+04;  0.0000000E+00; -2.0147070E-06;  1.0000000E+04;  0.0000000E+00;  9.9964893E+03; -5.5253488E-01;  0.0000000E+00;  6.3034020E-02;  1.8076951E+03;
  2.9970431E-01;  9.9999998E-03;  1.4002207E-01;1516; -1.1040428E-01;  0.0000000E+00;  9.3596634E-03;  1.0016780E+03;  4.0000001E-01;  1.3901824E+03;3; -2.8567789E+01;  0.0000000E+00;  2.4728231E+00;0; -4.8819014E-01;  1.0037247E+04;  0.0000000E+00; -1.6966244E-06;  1.0000000E+04;  0.0000000E+00;  9.9963486E+03; -5.4998475E-01;  0.0000000E+00;  6.1794598E-02;  1.8797289E+03;
  3.1967655E-01;  9.9999998E-03; -8.5741683E-12;1540; -1.2298302E-01;  0.0000000E+00; -3.8294794E-09;  1.0018095E+03;  4.0000001E-01;  1.4991176E+03;3; -3.3078636E+01;  0.0000000E+00; -1.7648881E-05;0; -5.2277946E-01;  1.0040053E+04;  0.0000000E+00;  4.5072415E-15;  1.0000000E+04;  0.0000000E+00;  9.9961787E+03; -6.0331416E-01;  0.0000000E+00;  8.0534719E-02;  1.9497594E+03;
  3.1967625E-01;  9.9999998E-03;  2.0003650E-02;1541; -1.2298577E-01;  0.0000000E+00;  1.6456002E-03;  1.0018102E+03;  4.0000001E-01;  1.4997101E+03;3; -3.3027546E+01;  0.0000000E+00;  4.2795444E-01;0; -5.2262884E-01;  1.0040083E+04;  0.0000000E+00; -3.7084373E-08;  1.0000000E+04;  0.0000000E+00;  9.9961650E+03; -6.0302693E-01;  0.0000000E+00;  8.0398083E-02;  1.9567368E+03;
  3.1967536E-01;  9.9999998E-03;  4.0007327E-02;1542; -1.2298929E-01;  0.0000000E+00;  3.2855726E-03;  1.0018120E+03;  4.0000001E-01;  1.5011915E+03;3; -3.2875237E+01;  0.0000000E+00;  8.5483420E-01;0; -5.2218217E-01;  1.0040158E+04;  0.0000000E+00; -1.6255862E-07;  1.0000000E+04;  0.0000000E+00;  9.9961240E+03; -6.0216296E-01;  0.0000000E+00;  7.9980791E-02;  1.9773768E+03;
  3.1967399E-01;  9.9999998E-03;  6.0011063E-02;1543; -1.2297462E-01;  0.0000000E+00;  4.9206070E-03;  1.0018152E+03;  4.0000001E-01;  1.5038582E+03;3; -3.2621758E+01;  0.0000000E+00;  1.2813036E+00;0; -5.2145112E-01;  1.0040287E+04;  0.0000000E+00; -4.4784275E-07;  1.0000000E+04;  0.0000000E+00;  9.9960615E+03; -6.0071558E-01;  0.0000000E+00;  7.9264432E-02;  2.0108606E+03;
  3.1967220E-01;  9.9999998E-03;  8.0014892E-02;1544; -1.2290969E-01;  0.0000000E+00;  6.5486329E-03;  1.0018199E+03;  4.0000001E-01;  1.5077098E+03;3; -3.2266575E+01;  0.0000000E+00;  1.7044599E+00;0; -5.2044713E-01;  1.0040461E+04;  0.0000000E+00; -9.4257337E-07;  1.0000000E+04;  0.0000000E+00;  9.9959775E+03; -5.9868175E-01;  0.0000000E+00;  7.8234620E-02;  2.0561443E+03;
  3.1967014E-01;  9.9999998E-03;  1.0001884E-01;1545; -1.2275020E-01;  0.0000000E+00;  8.1680473E-03;  1.0018251E+03;  4.0000001E-01;  1.5120554E+03;3; -3.1809612E+01;  0.0000000E+00;  2.1171336E+00;0; -5.1914966E-01;  1.0040679E+04;  0.0000000E+00; -1.6357886E-06;  1.0000000E+04;  0.0000000E+00;  9.9958662E+03; -5.9607124E-01;  0.0000000E+00;  7.6921605E-02;  2.1128735E+03;
  3.1966802E-01;  9.9999998E-03;  1.2002294E-01;1546; -1.2244359E-01;  0.0000000E+00;  9.7673703E-03;  1.0018306E+03;  4.0000001E-01;  1.5165985E+03;3; -3.1255890E+01;  0.0000000E+00;  2.5055337E+00;0; -5.1745254E-01;  1.0040928E+04;  0.0000000E+00; -2.1038181E-06;  1.0000000E+04;  0.0000000E+00;  9.9957344E+03; -5.9292531E-01;  0.0000000E+00;  7.5472750E-02;  2.1833645E+03;
  3.1966615E-01;  9.9999998E-03;  1.4002718E-01;1547; -1.2192607E-01;  0.0000000E+00;  1.1333905E-02;  1.0018353E+03;  4.0000001E-01;  1.5205491E+03;3; -3.0602493E+01;  0.0000000E+00;  2.8781593E+00;0; -5.1512396E-01;  1.0041201E+04;  0.0000000E+00; -1.1994143E-06;  1.0000000E+04;  0.0000000E+00;  9.9955518E+03; -5.8934402E-01;  0.0000000E+00;  7.4220046E-02;  2.2754199E+03;
  3.3963564E-01;  9.9999998E-03; -3.4819062E-12;1571; -1.3563178E-01;  0.0000000E+00;  5.3409759E-11;  1.0019896E+03;  4.0000001E-01;  1.6483477E+03;3; -3.5390072E+01;  0.0000000E+00;  2.9922821E-06;0; -5.5561173E-01;  1.0044348E+04;  0.0000000E+00;  2.1714592E-15;  1.0000000E+04;  0.0000000E+00;  9.9954912E+03; -6.4908731E-01;  0.0000000E+00;  9.3475603E-02;  2.2922026E+03;
  3.3963531E-01;  9.9999998E-03;  2.0004386E-02;1572; -1.3562864E-01;  0.0000000E+00;  1.9446255E-03;  1.0019899E+03;  4.0000001E-01;  1.6486440E+03;3; -3.5333473E+01;  0.0000000E+00;  4.7895196E-01;0; -5.5539197E-01;  1.0044374E+04;  0.0000000E+00; -5.5109641E-08;  1.0000000E+04;  0.0000000E+00;  9.9954756E+03; -6.4869457E-01;  0.0000000E+00;  9.3302593E-02;  2.3002947E+03;
  3.3963436E-01;  9.9999998E-03;  4.0008798E-02;1573; -1.3561359E-01;  0.0000000E+00;  3.8843888E-03;  1.0019914E+03;  4.0000001E-01;  1.6498291E+03;3; -3.5164063E+01;  0.0000000E+00;  9.5853776E-01;0; -5.5473518E-01;  1.0044454E+04;  0.0000000E+00; -2.4286959E-07;  1.0000000E+04;  0.0000000E+00;  9.9954248E+03; -6.4751798E-01;  0.0000000E+00;  9.2782825E-02;  2.3244189E+03;
  3.3963281E-01;  9.9999998E-03;  6.0013268E-02;1574; -1.3556570E-01;  0.0000000E+00;  5.8042617E-03;  1.0019942E+03;  4.0000001E-01;  1.6521995E+03;3; -3.4879913E+01;  0.0000000E+00;  1.4317086E+00;0; -5.5364579E-01;  1.0044582E+04;  0.0000000E+00; -6.3588362E-07;  1.0000000E+04;  0.0000000E+00;  9.9953496E+03; -6.4556283E-01;  0.0000000E+00;  9.1917031E-02;  2.3641228E+03;
  3.3963084E-01;  9.9999998E-03;  8.0017842E-02;1575; -1.3545470E-01;  0.0000000E+00;  7.7123209E-03;  1.0019980E+03;  4.0000001E-01;  1.6552611E+03;3; -3.4482887E+01;  0.0000000E+00;  1.9051791E+00;0; -5.5212730E-01;  1.0044761E+04;  0.0000000E+00; -1.2754156E-06;  1.0000000E+04;  0.0000000E+00;  9.9952461E+03; -6.4284319E-01;  0.0000000E+00;  9.0715885E-02;  2.4187634E+03;
  3.3962855E-01;  9.9999998E-03;  1.0002255E-01;1576; -1.3523605E-01;  0.0000000E+00;  9.6052121E-03;  1.0020020E+03;  4.0000001E-01;  1.6586190E+03;3; -3.3973568E+01;  0.0000000E+00;  2.3725667E+00;0; -5.5015779E-01;  1.0044981E+04;  0.0000000E+00; -2.0005698E-06;  1.0000000E+04;  0.0000000E+00;  9.9951143E+03; -6.3938332E-01;  0.0000000E+00;  8.9225523E-02;  2.4880854E+03;
  3.3962616E-01;  9.9999998E-03;  1.2002744E-01;1577; -1.3485631E-01;  0.0000000E+00;  1.1476152E-02;  1.0020065E+03;  4.0000001E-01;  1.6622732E+03;3; -3.3356853E+01;  0.0000000E+00;  2.8236315E+00;0; -5.4764688E-01;  1.0045234E+04;  0.0000000E+00; -2.2691263E-06;  1.0000000E+04;  0.0000000E+00;  9.9949482E+03; -6.3522279E-01;  0.0000000E+00;  8.7575905E-02;  2.5736646E+03;
  3.3962393E-01;  9.9999998E-03;  1.4003253E-01;1578; -1.3425672E-01;  0.0000000E+00;  1.3321072E-02;  1.0020093E+03;  4.0000001E-01;  1.6647423E+03;3; -3.2635742E+01;  0.0000000E+00;  3.2405310E+00;0; -5.4441440E-01;  1.0045508E+04;  0.0000000E+00; -7.9630547E-07;  1.0000000E+04;  0.0000000E+00;  9.9947373E+03; -6.3043463E-01;  0.0000000E+00;  8.6020254E-02;  2.6811155E+03;
  3.5959026E-01;  9.9999998E-03; -8.2872355E-12;1602; -1.4923295E-01;  0.0000000E+00;  1.6210686E-10;  1.0021867E+03;  4.0000001E-01;  1.8116022E+03;3; -3.7704330E+01;  0.0000000E+00;  6.6729795E-06;0; -5.9086335E-01;  1.0049025E+04;  0.0000000E+00; -7.1781189E-15;  1.0000000E+04;  0.0000000E+00;  9.9947764E+03; -6.9714594E-01;  0.0000000E+00;  1.0628259E-01;  2.6493152E+03;
  3.5958993E-01;  9.9999998E-03;  2.0005133E-02;1603; -1.4922100E-01;  0.0000000E+00;  2.2382089E-03;  1.0021872E+03;  4.0000001E-01;  1.8120959E+03;3; -3.7641750E+01;  0.0000000E+00;  5.1784527E-01;0; -5.9057772E-01;  1.0049050E+04;  0.0000000E+00; -7.0324774E-08;  1.0000000E+04;  0.0000000E+00;  9.9947588E+03; -6.9663268E-01;  0.0000000E+00;  1.0605498E-01;  2.6583652E+03;
  3.5958889E-01;  9.9999998E-03;  4.0010300E-02;1604; -1.4917822E-01;  0.0000000E+00;  4.4666724E-03;  1.0021885E+03;  4.0000001E-01;  1.8131824E+03;3; -3.7454117E+01;  0.0000000E+00;  1.0356567E+00;0; -5.8971936E-01;  1.0049128E+04;  0.0000000E+00; -3.2787258E-07;  1.0000000E+04;  0.0000000E+00;  9.9947080E+03; -6.9509882E-01;  0.0000000E+00;  1.0537946E-01;  2.6855068E+03;
  3.5958722E-01;  9.9999998E-03;  6.0015541E-02;1605; -1.4908619E-01;  0.0000000E+00;  6.6809379E-03;  1.0021906E+03;  4.0000001E-01;  1.8148613E+03;3; -3.7140373E+01;  0.0000000E+00;  1.5528668E+00;0; -5.8828837E-01;  1.0049259E+04;  0.0000000E+00; -8.4592153E-07;  1.0000000E+04;  0.0000000E+00;  9.9946182E+03; -6.9256449E-01;  0.0000000E+00;  1.0427613E-01;  2.7306221E+03;
  3.5958505E-01;  9.9999998E-03;  8.0020875E-02;1606; -1.4891194E-01;  0.0000000E+00;  8.8648861E-03;  1.0021934E+03;  4.0000001E-01;  1.8172316E+03;3; -3.6700108E+01;  0.0000000E+00;  2.0697281E+00;0; -5.8628207E-01;  1.0049435E+04;  0.0000000E+00; -1.6519616E-06;  1.0000000E+04;  0.0000000E+00;  9.9944990E+03; -6.8906248E-01;  0.0000000E+00;  1.0278039E-01;  2.7933584E+03;
  3.5958251E-01;  9.9999998E-03;  1.0002636E-01;1607; -1.4861229E-01;  0.0000000E+00;  1.1024519E-02;  1.0021965E+03;  4.0000001E-01;  1.8197007E+03;3; -3.6134148E+01;  0.0000000E+00;  2.5874031E+00;0; -5.8368564E-01;  1.0049656E+04;  0.0000000E+00; -2.5145414E-06;  1.0000000E+04;  0.0000000E+00;  9.9943418E+03; -6.8463832E-01;  0.0000000E+00;  1.0095268E-01;  2.8733325E+03;
  3.5957983E-01;  9.9999998E-03;  1.2003204E-01;1608; -1.4813635E-01;  0.0000000E+00;  1.3150585E-02;  1.0021999E+03;  4.0000001E-01;  1.8225648E+03;3; -3.5453079E+01;  0.0000000E+00;  3.0781314E+00;0; -5.8043677E-01;  1.0049910E+04;  0.0000000E+00; -2.6613352E-06;  1.0000000E+04;  0.0000000E+00;  9.9941563E+03; -6.7934161E-01;  0.0000000E+00;  9.8904863E-02;  2.9710825E+03;
  3.5957730E-01;  9.9999998E-03;  1.4003794E-01;1609; -1.4742514E-01;  0.0000000E+00;  1.5226073E-02;  1.0022021E+03;  4.0000001E-01;  1.8244413E+03;3; -3.4658398E+01;  0.0000000E+00;  3.5332031E+00;0; -5.7640523E-01;  1.0050184E+04;  0.0000000E+00; -1.0709916E-06;  1.0000000E+04;  0.0000000E+00;  9.9939209E+03; -6.7322528E-01;  0.0000000E+00;  9.6820056E-02;  3.0899077E+03;
  3.7954006E-01;  9.9999998E-03; -1.0229912E-11;1633; -1.6383737E-01;  0.0000000E+00;  2.1455091E-09;  1.0024021E+03;  4.0000001E-01;  1.9900657E+03;3; -4.0008587E+01;  0.0000000E+00; -3.2479611E-06;0; -6.2873906E-01;  1.0054076E+04;  0.0000000E+00; -6.3331187E-16;  1.0000000E+04;  0.0000000E+00;  9.9940420E+03; -7.4720842E-01;  0.0000000E+00;  1.1846934E-01;  3.0172495E+03;
  3.7953970E-01;  9.9999998E-03;  2.0005878E-02;1634; -1.6381353E-01;  0.0000000E+00;  2.5162161E-03;  1.0024024E+03;  4.0000001E-01;  1.9903619E+03;3; -3.9940296E+01;  0.0000000E+00;  5.4269606E-01;0; -6.2839168E-01;  1.0054104E+04;  0.0000000E+00; -8.7223434E-08;  1.0000000E+04;  0.0000000E+00;  9.9940215E+03; -7.4656332E-01;  0.0000000E+00;  1.1817162E-01;  3.0270540E+03;
  3.7953857E-01;  9.9999998E-03;  4.0011793E-02;1635; -1.6373558E-01;  0.0000000E+00;  5.0213081E-03;  1.0024036E+03;  4.0000001E-01;  1.9913496E+03;3; -3.9734947E+01;  0.0000000E+00;  1.0877407E+00;0; -6.2734449E-01;  1.0054184E+04;  0.0000000E+00; -3.9607463E-07;  1.0000000E+04;  0.0000000E+00;  9.9939688E+03; -7.4463964E-01;  0.0000000E+00;  1.1729512E-01;  3.0566172E+03;
  3.7953678E-01;  9.9999998E-03;  6.0017783E-02;1636; -1.6358347E-01;  0.0000000E+00;  7.5031500E-03;  1.0024052E+03;  4.0000001E-01;  1.9926335E+03;3; -3.9390881E+01;  0.0000000E+00;  1.6379727E+00;0; -6.2558812E-01;  1.0054313E+04;  0.0000000E+00; -1.0303498E-06;  1.0000000E+04;  0.0000000E+00;  9.9938701E+03; -7.4147362E-01;  0.0000000E+00;  1.1588547E-01;  3.1061887E+03;
  3.7953442E-01;  9.9999998E-03;  8.0023892E-02;1637; -1.6332705E-01;  0.0000000E+00;  9.9592693E-03;  1.0024075E+03;  4.0000001E-01;  1.9945100E+03;3; -3.8907425E+01;  0.0000000E+00;  2.1920404E+00;0; -6.2311447E-01;  1.0054487E+04;  0.0000000E+00; -2.0230618E-06;  1.0000000E+04;  0.0000000E+00;  9.9937422E+03; -7.3712111E-01;  0.0000000E+00;  1.1400665E-01;  3.1756809E+03;
  3.7953165E-01;  9.9999998E-03;  1.0003015E-01;1638; -1.6292208E-01;  0.0000000E+00;  1.2361712E-02;  1.0024100E+03;  4.0000001E-01;  1.9966827E+03;3; -3.8285259E+01;  0.0000000E+00;  2.7367773E+00;0; -6.1991870E-01;  1.0054712E+04;  0.0000000E+00; -3.0682752E-06;  1.0000000E+04;  0.0000000E+00;  9.9935684E+03; -7.3165613E-01;  0.0000000E+00;  1.1173744E-01;  3.2644736E+03;
  3.7952870E-01;  9.9999998E-03;  1.2003662E-01;1639; -1.6232069E-01;  0.0000000E+00;  1.4714157E-02;  1.0024126E+03;  4.0000001E-01;  1.9987568E+03;3; -3.7532143E+01;  0.0000000E+00;  3.2629728E+00;0; -6.1596829E-01;  1.0054976E+04;  0.0000000E+00; -3.3279177E-06;  1.0000000E+04;  0.0000000E+00;  9.9933633E+03; -7.2514719E-01;  0.0000000E+00;  1.0917892E-01;  3.3720142E+03;
  3.7952584E-01;  9.9999998E-03;  1.4004333E-01;1640; -1.6146527E-01;  0.0000000E+00;  1.7000485E-02;  1.0024143E+03;  4.0000001E-01;  2.0002382E+03;3; -3.6655529E+01;  0.0000000E+00;  3.7467482E+00;0; -6.1118156E-01;  1.0055255E+04;  0.0000000E+00; -2.0016155E-06;  1.0000000E+04;  0.0000000E+00;  9.9931152E+03; -7.1764088E-01;  0.0000000E+00;  1.0645934E-01;  3.4995793E+03;
  3.9948463E-01;  9.9999998E-03; -2.1460377E-12;1664; -1.7948610E-01;  0.0000000E+00; -1.1450688E-08;  1.0026359E+03;  4.0000001E-01;  2.1837388E+03;3; -4.2289478E+01;  0.0000000E+00; -3.1787971E-05;0; -6.6927940E-01;  1.0059517E+04;  0.0000000E+00;  5.0962940E-15;  1.0000000E+04;  0.0000000E+00;  9.9932949E+03; -7.9886413E-01;  0.0000000E+00;  1.2958473E-01;  3.3965073E+03;
  3.9948425E-01;  9.9999998E-03;  2.0006606E-02;1665; -1.7944750E-01;  0.0000000E+00;  2.7695023E-03;  1.0026359E+03;  4.0000001E-01;  2.1838374E+03;3; -4.2215851E+01;  0.0000000E+00;  5.5270982E-01;0; -6.6887647E-01;  1.0059541E+04;  0.0000000E+00; -9.5342962E-08;  1.0000000E+04;  0.0000000E+00;  9.9932734E+03; -7.9808176E-01;  0.0000000E+00;  1.2920529E-01;  3.4068184E+03;
  3.9948305E-01;  9.9999998E-03;  4.0013250E-02;1666; -1.7932510E-01;  0.0000000E+00;  5.5237515E-03;  1.0026367E+03;  4.0000001E-01;  2.1844302E+03;3; -4.1993721E+01;  0.0000000E+00;  1.1101425E+00;0; -6.6765511E-01;  1.0059621E+04;  0.0000000E+00; -4.4382816E-07;  1.0000000E+04;  0.0000000E+00;  9.9932168E+03; -7.9575258E-01;  0.0000000E+00;  1.2809750E-01;  3.4380898E+03;
  3.9948115E-01;  9.9999998E-03;  6.0019974E-02;1667; -1.7909819E-01;  0.0000000E+00;  8.2500093E-03;  1.0026383E+03;  4.0000001E-01;  2.1858127E+03;3; -4.1620884E+01;  0.0000000E+00;  1.6777245E+00;0; -6.6558969E-01;  1.0059747E+04;  0.0000000E+00; -1.1631504E-06;  1.0000000E+04;  0.0000000E+00;  9.9931143E+03; -7.9193109E-01;  0.0000000E+00;  1.2634140E-01;  3.4909988E+03;
  3.9947861E-01;  9.9999998E-03;  8.0026820E-02;1668; -1.7873651E-01;  0.0000000E+00;  1.0931782E-02;  1.0026404E+03;  4.0000001E-01;  2.1875906E+03;3; -4.1094990E+01;  0.0000000E+00;  2.2441494E+00;0; -6.6266215E-01;  1.0059932E+04;  0.0000000E+00; -2.2709360E-06;  1.0000000E+04;  0.0000000E+00;  9.9929707E+03; -7.8670371E-01;  0.0000000E+00;  1.2404157E-01;  3.5657573E+03;
  3.9947563E-01;  9.9999998E-03;  1.0003384E-01;1669; -1.7820030E-01;  0.0000000E+00;  1.3557441E-02;  1.0026426E+03;  4.0000001E-01;  2.1893682E+03;3; -4.0415005E+01;  0.0000000E+00;  2.8108065E+00;0; -6.5887105E-01;  1.0060162E+04;  0.0000000E+00; -3.4123582E-06;  1.0000000E+04;  0.0000000E+00;  9.9927881E+03; -7.8017426E-01;  0.0000000E+00;  1.2130318E-01;  3.6614915E+03;
  3.9947242E-01;  9.9999998E-03;  1.2004108E-01;1670; -1.7743942E-01;  0.0000000E+00;  1.6107542E-02;  1.0026453E+03;  4.0000001E-01;  2.1916396E+03;3; -3.9582840E+01;  0.0000000E+00;  3.3644462E+00;0; -6.5421188E-01;  1.0060436E+04;  0.0000000E+00; -3.8030630E-06;  1.0000000E+04;  0.0000000E+00;  9.9925684E+03; -7.7243608E-01;  0.0000000E+00;  1.1822423E-01;  3.7766614E+03;
  3.9946923E-01;  9.9999998E-03;  1.4004858E-01;1671; -1.7640284E-01;  0.0000000E+00;  1.8577261E-02;  1.0026468E+03;  4.0000001E-01;  2.1928250E+03;3; -3.8611320E+01;  0.0000000E+00;  3.8796635E+00;0; -6.4864814E-01;  1.0060730E+04;  0.0000000E+00; -2.8966956E-06;  1.0000000E+04;  0.0000000E+00;  9.9923096E+03; -7.6354069E-01;  0.0000000E+00;  1.1489256E-01;  3.9111091E+03;
  4.1942367E-01;  9.9999998E-03; -1.1086870E-11;1695; -1.9620611E-01;  0.0000000E+00; -5.1796194E-09;  1.0028860E+03;  4.0000001E-01;  2.3909417E+03;3; -4.4532837E+01;  0.0000000E+00;  1.0417692E-05;0; -7.1231568E-01;  1.0065325E+04;  0.0000000E+00;  9.2291746E-16;  1.0000000E+04;  0.0000000E+00;  9.9925146E+03; -8.5156906E-01;  0.0000000E+00;  1.3925339E-01;  3.7941833E+03;
  4.1942322E-01;  9.9999998E-03;  2.0007323E-02;1696; -1.9614971E-01;  0.0000000E+00;  2.9884647E-03;  1.0028863E+03;  4.0000001E-01;  2.3912380E+03;3; -4.4454517E+01;  0.0000000E+00;  5.4611528E-01;0; -7.1186256E-01;  1.0065354E+04;  0.0000000E+00; -9.5856365E-08;  1.0000000E+04;  0.0000000E+00;  9.9924941E+03; -8.5064930E-01;  0.0000000E+00;  1.3878676E-01;  3.8047175E+03;
  4.1942197E-01;  9.9999998E-03;  4.0014677E-02;1697; -1.9597280E-01;  0.0000000E+00;  5.9570898E-03;  1.0028874E+03;  4.0000001E-01;  2.3921267E+03;3; -4.4216827E+01;  0.0000000E+00;  1.1015472E+00;0; -7.1048480E-01;  1.0065431E+04;  0.0000000E+00; -4.4764806E-07;  1.0000000E+04;  0.0000000E+00;  9.9924336E+03; -8.4792006E-01;  0.0000000E+00;  1.3743526E-01;  3.8368579E+03;
  4.1941994E-01;  9.9999998E-03;  6.0022108E-02;1698; -1.9565547E-01;  0.0000000E+00;  8.8852635E-03;  1.0028889E+03;  4.0000001E-01;  2.3933120E+03;3; -4.3817875E+01;  0.0000000E+00;  1.6625243E+00;0; -7.0813137E-01;  1.0065567E+04;  0.0000000E+00; -1.1844850E-06;  1.0000000E+04;  0.0000000E+00;  9.9923291E+03; -8.4345645E-01;  0.0000000E+00;  1.3532507E-01;  3.8917058E+03;
  4.1941726E-01;  9.9999998E-03;  8.0029659E-02;1699; -1.9516690E-01;  0.0000000E+00;  1.1753622E-02;  1.0028910E+03;  4.0000001E-01;  2.3950896E+03;3; -4.3250969E+01;  0.0000000E+00;  2.2262208E+00;0; -7.0476222E-01;  1.0065758E+04;  0.0000000E+00; -2.2631630E-06;  1.0000000E+04;  0.0000000E+00;  9.9921826E+03; -8.3737648E-01;  0.0000000E+00;  1.3261423E-01;  3.9697126E+03;
  4.1941407E-01;  9.9999998E-03;  1.0003740E-01;1700; -1.9447103E-01;  0.0000000E+00;  1.4558511E-02;  1.0028937E+03;  4.0000001E-01;  2.3973613E+03;3; -4.2514320E+01;  0.0000000E+00;  2.7958655E+00;0; -7.0037389E-01;  1.0066005E+04;  0.0000000E+00; -3.2279734E-06;  1.0000000E+04;  0.0000000E+00;  9.9919932E+03; -8.2981724E-01;  0.0000000E+00;  1.2944335E-01;  4.0696758E+03;
  4.1941056E-01;  9.9999998E-03;  1.2004539E-01;1701; -1.9351958E-01;  0.0000000E+00;  1.7268809E-02;  1.0028966E+03;  4.0000001E-01;  2.3997314E+03;3; -4.1607208E+01;  0.0000000E+00;  3.3512297E+00;0; -6.9498569E-01;  1.0066296E+04;  0.0000000E+00; -3.2261428E-06;  1.0000000E+04;  0.0000000E+00;  9.9917666E+03; -8.2089865E-01;  0.0000000E+00;  1.2591295E-01;  4.1892124E+03;
  4.1940707E-01;  9.9999998E-03;  1.4005369E-01;1702; -1.9226727E-01;  0.0000000E+00;  1.9894874E-02;  1.0028996E+03;  4.0000001E-01;  2.4022993E+03;3; -4.0543011E+01;  0.0000000E+00;  3.8752878E+00;0; -6.8860006E-01;  1.0066617E+04;  0.0000000E+00; -2.1778758E-06;  1.0000000E+04;  0.0000000E+00;  9.9914980E+03; -8.1067812E-01;  0.0000000E+00;  1.2207803E-01;  4.3274927E+03;
  4.3935680E-01;  9.9999998E-03;  4.2925893E-12;1726; -2.1400982E-01;  0.0000000E+00; -4.8015609E-09;  1.0031508E+03;  4.0000001E-01;  2.6102922E+03;3; -4.6722279E+01;  0.0000000E+00; -1.7857827E-05;0; -7.5735384E-01;  1.0071487E+04;  0.0000000E+00;  1.3839936E-14;  1.0000000E+04;  0.0000000E+00;  9.9916758E+03; -9.0456712E-01;  0.0000000E+00;  1.4721328E-01;  4.2258306E+03;
  4.3935636E-01;  9.9999998E-03;  2.0008046E-02;1727; -2.1393223E-01;  0.0000000E+00;  3.1652069E-03;  1.0031511E+03;  4.0000001E-01;  2.6106873E+03;3; -4.6640167E+01;  0.0000000E+00;  5.2144831E-01;0; -7.5685978E-01;  1.0071513E+04;  0.0000000E+00; -8.9112078E-08;  1.0000000E+04;  0.0000000E+00;  9.9916572E+03; -9.0352029E-01;  0.0000000E+00;  1.4666054E-01;  4.2362944E+03;
  4.3935502E-01;  9.9999998E-03;  4.0016118E-02;1728; -2.1369085E-01;  0.0000000E+00;  6.3033574E-03;  1.0031525E+03;  4.0000001E-01;  2.6117737E+03;3; -4.6389210E+01;  0.0000000E+00;  1.0525004E+00;0; -7.5534368E-01;  1.0071600E+04;  0.0000000E+00; -4.2142932E-07;  1.0000000E+04;  0.0000000E+00;  9.9915967E+03; -9.0041602E-01;  0.0000000E+00;  1.4507231E-01;  4.2683623E+03;
  4.3935290E-01;  9.9999998E-03;  6.0024250E-02;1729; -2.1326634E-01;  0.0000000E+00;  9.3850577E-03;  1.0031545E+03;  4.0000001E-01;  2.6134526E+03;3; -4.5966167E+01;  0.0000000E+00;  1.5887717E+00;0; -7.5272626E-01;  1.0071739E+04;  0.0000000E+00; -1.0899151E-06;  1.0000000E+04;  0.0000000E+00;  9.9915000E+03; -8.9535606E-01;  0.0000000E+00;  1.4262982E-01;  4.3233647E+03;
  4.3935004E-01;  9.9999998E-03;  8.0032498E-02;1730; -2.1262921E-01;  0.0000000E+00;  1.2392574E-02;  1.0031573E+03;  4.0000001E-01;  2.6157241E+03;3; -4.5361336E+01;  0.0000000E+00;  2.1305687E+00;0; -7.4893963E-01;  1.0071944E+04;  0.0000000E+00; -1.9027542E-06;  1.0000000E+04;  0.0000000E+00;  9.9913496E+03; -8.8849097E-01;  0.0000000E+00;  1.3955137E-01;  4.4016353E+03;
  4.3934664E-01;  9.9999998E-03;  1.0004094E-01;1731; -2.1174642E-01;  0.0000000E+00;  1.5322858E-02;  1.0031609E+03;  4.0000001E-01;  2.6186870E+03;3; -4.4570560E+01;  0.0000000E+00;  2.6836672E+00;0; -7.4397248E-01;  1.0072212E+04;  0.0000000E+00; -2.1276494E-06;  1.0000000E+04;  0.0000000E+00;  9.9911572E+03; -8.7998897E-01;  0.0000000E+00;  1.3601647E-01;  4.5012700E+03;
  4.3934286E-01;  9.9999998E-03;  1.2004966E-01;1732; -2.1057615E-01;  0.0000000E+00;  1.8158033E-02;  1.0031660E+03;  4.0000001E-01;  2.6229338E+03;3; -4.3587959E+01;  0.0000000E+00;  3.2260051E+00;0; -7.3786521E-01;  1.0072535E+04;  0.0000000E+00; -7.5958854E-07;  1.0000000E+04;  0.0000000E+00;  9.9909355E+03; -8.6999297E-01;  0.0000000E+00;  1.3212776E-01;  4.6189917E+03;
  4.3933898E-01;  9.9999998E-03;  1.4005873E-01;1733; -2.0907804E-01;  0.0000000E+00;  2.0912966E-02;  1.0031706E+03;  4.0000001E-01;  2.6267856E+03;3; -4.2424046E+01;  0.0000000E+00;  3.7588534E+00;0; -7.3065519E-01;  1.0072890E+04;  0.0000000E+00;  1.8379551E-06;  1.0000000E+04;  0.0000000E+00;  9.9906787E+03; -8.5856748E-01;  0.0000000E+00;  1.2791227E-01;  4.7541870E+03;
  4.5928368E-01;  9.9999998E-03;  7.0753390E-12;1757; -2.3289829E-01;  0.0000000E+00; -1.6474778E-09;  1.0034258E+03;  4.0000105E-01;  2.8382344E+03;3; -4.8839531E+01;  0.0000000E+00; -4.3412329E-06;0; -8.0328524E-01;  1.0077920E+04;  0.0000000E+00;  1.4234024E-14;  1.0000000E+04;  0.0000000E+00;  9.9907266E+03; -9.5662361E-01;  0.0000000E+00;  1.5333834E-01;  4.7162124E+03;
  4.5928320E-01;  9.9999998E-03;  2.0008830E-02;1758; -2.3279586E-01;  0.0000000E+00;  3.2955194E-03;  1.0034264E+03;  4.0000096E-01;  2.8387280E+03;3; -4.8753799E+01;  0.0000000E+00;  4.7766468E-01;0; -8.0275524E-01;  1.0077952E+04;  0.0000000E+00; -7.8980115E-08;  1.0000000E+04;  0.0000000E+00;  9.9907090E+03; -9.5546389E-01;  0.0000000E+00;  1.5270866E-01;  4.7263589E+03;
  4.5928180E-01;  9.9999998E-03;  4.0017672E-02;1759; -2.3248003E-01;  0.0000000E+00;  6.5534082E-03;  1.0034280E+03;  4.0000093E-01;  2.8400120E+03;3; -4.8492165E+01;  0.0000000E+00;  9.6388203E-01;0; -8.0111730E-01;  1.0078043E+04;  0.0000000E+00; -3.5612808E-07;  1.0000000E+04;  0.0000000E+00;  9.9906553E+03; -9.5202899E-01;  0.0000000E+00;  1.5091170E-01;  4.7574473E+03;
  4.5927957E-01;  9.9999998E-03;  6.0026541E-02;1760; -2.3193212E-01;  0.0000000E+00;  9.7377477E-03;  1.0034311E+03;  4.0000093E-01;  2.8425798E+03;3; -4.8047924E+01;  0.0000000E+00;  1.4522829E+00;0; -7.9826164E-01;  1.0078195E+04;  0.0000000E+00; -8.3869060E-07;  1.0000000E+04;  0.0000000E+00;  9.9905537E+03; -9.4644439E-01;  0.0000000E+00;  1.4818272E-01;  4.8105103E+03;
  4.5927656E-01;  9.9999998E-03;  8.0035515E-02;1761; -2.3112625E-01;  0.0000000E+00;  1.2832885E-02;  1.0034351E+03;  4.0000093E-01;  2.8459377E+03;3; -4.7409916E+01;  0.0000000E+00;  1.9517069E+00;0; -7.9409266E-01;  1.0078420E+04;  0.0000000E+00; -1.0562826E-06;  1.0000000E+04;  0.0000000E+00;  9.9904180E+03; -9.3888819E-01;  0.0000000E+00;  1.4479557E-01;  4.8849297E+03;
  4.5927292E-01;  9.9999998E-03;  1.0004468E-01;1762; -2.3003364E-01;  0.0000000E+00;  1.5837291E-02;  1.0034410E+03;  4.0000096E-01;  2.8508760E+03;3; -4.6568069E+01;  0.0000000E+00;  2.4612505E+00;0; -7.8859973E-01;  1.0078712E+04;  0.0000000E+00;  2.5856787E-07;  1.0000000E+04;  0.0000000E+00;  9.9902441E+03; -9.2955923E-01;  0.0000000E+00;  1.4095952E-01;  4.9771616E+03;
  4.5926881E-01;  9.9999998E-03;  1.2005416E-01;1763; -2.2862233E-01;  0.0000000E+00;  1.8751772E-02;  1.0034487E+03;  4.0000099E-01;  2.8571968E+03;3; -4.5515072E+01;  0.0000000E+00;  2.9692080E+00;0; -7.8184712E-01;  1.0079066E+04;  0.0000000E+00;  4.6674054E-06;  1.0000000E+04;  0.0000000E+00;  9.9900449E+03; -9.1861773E-01;  0.0000000E+00;  1.3677061E-01;  5.0825229E+03;
  4.5926452E-01;  9.9999998E-03;  1.4006400E-01;1764; -2.2685787E-01;  0.0000000E+00;  2.1597674E-02;  1.0034575E+03;  4.0000108E-01;  2.8644063E+03;3; -4.4257950E+01;  0.0000000E+00;  3.4806376E+00;0; -7.7390456E-01;  1.0079469E+04;  0.0000000E+00;  1.1414964E-05;  1.0000000E+04;  0.0000000E+00;  9.9898242E+03; -9.0613711E-01;  0.0000000E+00;  1.3223256E-01;  5.2014712E+03;
  4.7920385E-01;  9.9999998E-03;  2.7503041E-12;1788; -2.5286445E-01;  0.0000000E+00;  4.1491179E-09;  1.0036985E+03;  4.0000284E-01;  3.0642009E+03;3; -5.0864880E+01;  0.0000000E+00; -5.0647868E-06;0; -8.4780812E-01;  1.0084445E+04;  0.0000000E+00; -3.1115347E-15;  1.0000000E+04;  0.0000000E+00;  9.9895996E+03; -1.0054437E+00;  0.0000000E+00;  1.5763557E-01;  5.2982568E+03;
  4.7920334E-01;  9.9999998E-03;  2.0009751E-02;1789; -2.5273374E-01;  0.0000000E+00;  3.3790332E-03;  1.0036993E+03;  4.0000272E-01;  3.0647935E+03;3; -5.0776638E+01;  0.0000000E+00;  4.1497248E-01;0; -8.4724176E-01;  1.0084479E+04;  0.0000000E+00; -6.8968667E-08;  1.0000000E+04;  0.0000000E+00;  9.9895850E+03; -1.0041891E+00;  0.0000000E+00;  1.5694736E-01;  5.3079873E+03;
  4.7920188E-01;  9.9999998E-03;  4.0019486E-02;1790; -2.5233409E-01;  0.0000000E+00;  6.7076292E-03;  1.0037016E+03;  4.0000269E-01;  3.0666699E+03;3; -5.0506741E+01;  0.0000000E+00;  8.3487415E-01;0; -8.4548354E-01;  1.0084583E+04;  0.0000000E+00; -2.8779993E-07;  1.0000000E+04;  0.0000000E+00;  9.9895313E+03; -1.0004760E+00;  0.0000000E+00;  1.5499245E-01;  5.3374829E+03;
  4.7919953E-01;  9.9999998E-03;  6.0029227E-02;1791; -2.5164917E-01;  0.0000000E+00;  9.9487426E-03;  1.0037055E+03;  4.0000296E-01;  3.0699290E+03;3; -5.0045681E+01;  0.0000000E+00;  1.2577231E+00;0; -8.4240270E-01;  1.0084750E+04;  0.0000000E+00; -4.4232812E-07;  1.0000000E+04;  0.0000000E+00;  9.9894395E+03; -9.9444836E-01;  0.0000000E+00;  1.5204564E-01;  5.3865684E+03;
  4.7919634E-01;  9.9999998E-03;  8.0039039E-02;1792; -2.5065711E-01;  0.0000000E+00;  1.3080481E-02;  1.0037117E+03;  4.0000260E-01;  3.0750647E+03;3; -4.9378582E+01;  0.0000000E+00;  1.6863016E+00;0; -8.3789170E-01;  1.0084991E+04;  0.0000000E+00;  4.9207688E-07;  1.0000000E+04;  0.0000000E+00;  9.9893184E+03; -9.8630679E-01;  0.0000000E+00;  1.4841506E-01;  5.4522256E+03;
  4.7919241E-01;  9.9999998E-03;  1.0004903E-01;1793; -2.4933805E-01;  0.0000000E+00;  1.6113637E-02;  1.0037205E+03;  4.0000290E-01;  3.0823730E+03;3; -4.8491146E+01;  0.0000000E+00;  2.1249902E+00;0; -8.3195603E-01;  1.0085309E+04;  0.0000000E+00;  4.8307807E-06;  1.0000000E+04;  0.0000000E+00;  9.9891826E+03; -9.7626758E-01;  0.0000000E+00;  1.4431153E-01;  5.5275811E+03;
  4.7918794E-01;  9.9999998E-03;  1.2005934E-01;1794; -2.4767068E-01;  0.0000000E+00;  1.9062059E-02;  1.0037327E+03;  4.0000275E-01;  3.0924468E+03;3; -4.7373917E+01;  0.0000000E+00;  2.5692410E+00;0; -8.2470393E-01;  1.0085694E+04;  0.0000000E+00;  1.5313713E-05;  1.0000000E+04;  0.0000000E+00;  9.9890430E+03; -9.6450788E-01;  0.0000000E+00;  1.3980395E-01;  5.6053633E+03;
  4.7918314E-01;  9.9999998E-03;  1.4007001E-01;1795; -2.4562855E-01;  0.0000000E+00;  2.1958653E-02;  1.0037479E+03;  4.0000281E-01;  3.1049897E+03;3; -4.6030231E+01;  0.0000000E+00;  3.0342550E+00;0; -8.1624371E-01;  1.0086144E+04;  0.0000000E+00;  3.0937004E-05;  1.0000000E+04;  0.0000000E+00;  9.9888926E+03; -9.5112330E-01;  0.0000000E+00;  1.3487960E-01;  5.6877793E+03;
  4.9911684E-01;  9.9999998E-03; -5.9950621E-12;1819; -2.7389553E-01;  0.0000000E+00; -3.5864427E-09;  1.0039491E+03;  4.0000680E-01;  3.2716970E+03;3; -5.2781799E+01;  0.0000000E+00; -4.2119922E-05;0; -8.8668871E-01;  1.0090671E+04;  0.0000000E+00; -2.1307423E-15;  1.0000000E+04;  0.0000000E+00;  9.9882119E+03; -1.0468861E+00;  0.0000000E+00;  1.6019739E-01;  6.0097729E+03;
  4.9911630E-01;  9.9999998E-03;  2.0010900E-02;1820; -2.7373362E-01;  0.0000000E+00;  3.4202645E-03;  1.0039502E+03;  4.0000677E-01;  3.2726848E+03;3; -5.2691895E+01;  0.0000000E+00;  3.3496839E-01;0; -8.8607687E-01;  1.0090701E+04;  0.0000000E+00; -6.2168155E-08;  1.0000000E+04;  0.0000000E+00;  9.9881982E+03; -1.0455570E+00;  0.0000000E+00;  1.5948017E-01;  6.0192261E+03;
  4.9911478E-01;  9.9999998E-03;  4.0021766E-02;1821; -2.7324295E-01;  0.0000000E+00;  6.7791087E-03;  1.0039527E+03;  4.0000677E-01;  3.2747588E+03;3; -5.2416527E+01;  0.0000000E+00;  6.6997147E-01;0; -8.8417995E-01;  1.0090813E+04;  0.0000000E+00; -1.5021200E-07;  1.0000000E+04;  0.0000000E+00;  9.9881494E+03; -1.0416251E+00;  0.0000000E+00;  1.5744518E-01;  6.0471133E+03;
  4.9911228E-01;  9.9999998E-03;  6.0032602E-02;1822; -2.7240938E-01;  0.0000000E+00;  1.0032749E-02;  1.0039581E+03;  4.0000665E-01;  3.2792031E+03;3; -5.1942173E+01;  0.0000000E+00;  1.0048726E+00;0; -8.8086170E-01;  1.0090993E+04;  0.0000000E+00;  3.4796889E-07;  1.0000000E+04;  0.0000000E+00;  9.9880693E+03; -1.0352404E+00;  0.0000000E+00;  1.5437871E-01;  6.0907393E+03;
  4.9910888E-01;  9.9999998E-03;  8.0043495E-02;1823; -2.7121973E-01;  0.0000000E+00;  1.3163336E-02;  1.0039661E+03;  4.0000668E-01;  3.2858201E+03;3; -5.1250957E+01;  0.0000000E+00;  1.3344795E+00;0; -8.7603307E-01;  1.0091252E+04;  0.0000000E+00;  3.6107149E-06;  1.0000000E+04;  0.0000000E+00;  9.9879756E+03; -1.0266126E+00;  0.0000000E+00;  1.5057956E-01;  6.1426694E+03;
  4.9910465E-01;  9.9999998E-03;  1.0005457E-01;1824; -2.6966459E-01;  0.0000000E+00;  1.6189607E-02;  1.0039789E+03;  4.0000659E-01;  3.2963877E+03;3; -5.0324478E+01;  0.0000000E+00;  1.6674918E+00;0; -8.6975175E-01;  1.0091591E+04;  0.0000000E+00;  1.3861972E-05;  1.0000000E+04;  0.0000000E+00;  9.9879004E+03; -1.0159647E+00;  0.0000000E+00;  1.4621301E-01;  6.1903179E+03;
  4.9909970E-01;  9.9999998E-03;  1.2006593E-01;1825; -2.6773521E-01;  0.0000000E+00;  1.9139618E-02;  1.0039973E+03;  4.0000659E-01;  3.3116958E+03;3; -4.9152798E+01;  0.0000000E+00;  2.0193601E+00;0; -8.6220860E-01;  1.0091999E+04;  0.0000000E+00;  3.5923364E-05;  1.0000000E+04;  0.0000000E+00;  9.9878486E+03; -1.0034950E+00;  0.0000000E+00;  1.4128637E-01;  6.2220430E+03;
  4.9909434E-01;  9.9999998E-03;  1.4007759E-01;1826; -2.6541319E-01;  0.0000000E+00;  2.2050098E-02;  1.0040198E+03;  4.0000674E-01;  3.3303618E+03;3; -4.7733437E+01;  0.0000000E+00;  2.4091904E+00;0; -8.5356128E-01;  1.0092482E+04;  0.0000000E+00;  6.8040106E-05;  1.0000000E+04;  0.0000000E+00;  9.9878271E+03; -9.8934573E-01;  0.0000000E+00;  1.3578445E-01;  6.2423984E+03;
  5.1902229E-01;  9.9999998E-03; -1.9218207E-11;1850; -2.9596001E-01;  0.0000000E+00; -6.1632699E-09;  1.0041541E+03;  4.0001830E-01;  3.4415635E+03;3; -5.4581203E+01;  0.0000000E+00; -3.3370074E-05;0; -9.1328120E-01;  1.0095913E+04;  0.0000000E+00; -8.6077114E-15;  1.0000000E+04;  0.0000000E+00;  9.9864873E+03; -1.0743842E+00;  0.0000000E+00;  1.6110303E-01;  6.8878647E+03;
  5.1902175E-01;  9.9999998E-03;  2.0012394E-02;1851; -2.9576492E-01;  0.0000000E+00;  3.4278270E-03;  1.0041554E+03;  4.0001827E-01;  3.4426499E+03;3; -5.4489479E+01;  0.0000000E+00;  2.4629112E-01;0; -9.1260529E-01;  1.0095952E+04;  0.0000000E+00; -1.2978287E-08;  1.0000000E+04;  0.0000000E+00;  9.9864736E+03; -1.0730050E+00;  0.0000000E+00;  1.6039969E-01;  6.8974468E+03;
  5.1902008E-01;  9.9999998E-03;  4.0024731E-02;1852; -2.9517624E-01;  0.0000000E+00;  6.7820088E-03;  1.0041583E+03;  4.0001833E-01;  3.4450203E+03;3; -5.4209648E+01;  0.0000000E+00;  4.7870216E-01;0; -9.1052115E-01;  1.0096068E+04;  0.0000000E+00;  2.6387264E-07;  1.0000000E+04;  0.0000000E+00;  9.9864258E+03; -1.0689186E+00;  0.0000000E+00;  1.5839744E-01;  6.9244160E+03;
  5.1901740E-01;  9.9999998E-03;  6.0037039E-02;1853; -2.9418802E-01;  0.0000000E+00;  1.0016212E-02;  1.0041647E+03;  4.0001839E-01;  3.4503533E+03;3; -5.3724758E+01;  0.0000000E+00;  6.9544971E-01;0; -9.0692121E-01;  1.0096261E+04;  0.0000000E+00;  2.3593491E-06;  1.0000000E+04;  0.0000000E+00;  9.9863604E+03; -1.0622698E+00;  0.0000000E+00;  1.5534858E-01;  6.9620464E+03;
  5.1901376E-01;  9.9999998E-03;  8.0049410E-02;1854; -2.9279587E-01;  0.0000000E+00;  1.3122632E-02;  1.0041753E+03;  4.0001822E-01;  3.4591431E+03;3; -5.3013496E+01;  0.0000000E+00;  8.9465410E-01;0; -9.0177655E-01;  1.0096526E+04;  0.0000000E+00;  1.0349320E-05;  1.0000000E+04;  0.0000000E+00;  9.9863066E+03; -1.0532591E+00;  0.0000000E+00;  1.5148258E-01;  6.9961689E+03;
  5.1900917E-01;  9.9999998E-03;  1.0006196E-01;1855; -2.9100257E-01;  0.0000000E+00;  1.6122069E-02;  1.0041920E+03;  4.0001833E-01;  3.4729700E+03;3; -5.2058006E+01;  0.0000000E+00;  1.0932076E+00;0; -8.9525282E-01;  1.0096868E+04;  0.0000000E+00;  3.1583346E-05;  1.0000000E+04;  0.0000000E+00;  9.9862988E+03; -1.0421090E+00;  0.0000000E+00;  1.4685616E-01;  7.0058843E+03;
  5.1900375E-01;  9.9999998E-03;  1.2007477E-01;1856; -2.8881380E-01;  0.0000000E+00;  1.9064933E-02;  1.0042169E+03;  4.0001827E-01;  3.4936111E+03;3; -5.0844833E+01;  0.0000000E+00;  1.3242779E+00;0; -8.8766044E-01;  1.0097286E+04;  0.0000000E+00;  7.3180221E-05;  1.0000000E+04;  0.0000000E+00;  9.9863838E+03; -1.0290380E+00;  0.0000000E+00;  1.4137751E-01;  6.9734121E+03;
  5.1899767E-01;  9.9999998E-03;  1.4008771E-01;1857; -2.8621316E-01;  0.0000000E+00;  2.1970758E-02;  1.0042496E+03;  4.0001842E-01;  3.5207708E+03;3; -4.9359058E+01;  0.0000000E+00;  1.5981314E+00;0; -8.7921196E-01;  1.0097786E+04;  0.0000000E+00;  1.2993836E-04;  1.0000000E+04;  0.0000000E+00;  9.9865381E+03; -1.0142682E+00;  0.0000000E+00;  1.3505620E-01;  6.9067710E+03;
  5.3892034E-01;  9.9999998E-03;  6.3397807E-12;1881; -3.1893829E-01;  0.0000000E+00;  4.6104343E-09;  1.0042936E+03;  4.0004924E-01;  3.5571094E+03;3; -5.6252731E+01;  0.0000000E+00; -2.3850444E-05;0; -9.1884184E-01;  1.0099245E+04;  0.0000000E+00; -5.5530976E-15;  1.0000000E+04;  0.0000000E+00;  9.9843584E+03; -1.0791341E+00;  0.0000000E+00;  1.6029225E-01;  7.9630063E+03;
  5.3891975E-01;  9.9999998E-03;  2.0014323E-02;1882; -3.1870869E-01;  0.0000000E+00;  3.4006943E-03;  1.0042947E+03;  4.0004921E-01;  3.5580969E+03;3; -5.6159843E+01;  0.0000000E+00;  1.4585924E-01;0; -9.1807181E-01;  1.0099288E+04;  0.0000000E+00;  2.2691300E-07;  1.0000000E+04;  0.0000000E+00;  9.9843418E+03; -1.0777326E+00;  0.0000000E+00;  1.5966076E-01;  7.9732363E+03;
  5.3891802E-01;  9.9999998E-03;  4.0028617E-02;1883; -3.1801894E-01;  0.0000000E+00;  6.7255395E-03;  1.0042980E+03;  4.0004933E-01;  3.5608623E+03;3; -5.5873669E+01;  0.0000000E+00;  2.6115659E-01;0; -9.1572756E-01;  1.0099408E+04;  0.0000000E+00;  1.5302869E-06;  1.0000000E+04;  0.0000000E+00;  9.9842891E+03; -1.0735699E+00;  0.0000000E+00;  1.5784235E-01;  8.0003950E+03;
  5.3891516E-01;  9.9999998E-03;  6.0042895E-02;1884; -3.1687272E-01;  0.0000000E+00;  9.9242004E-03;  1.0043051E+03;  4.0004927E-01;  3.5665903E+03;3; -5.5377777E+01;  0.0000000E+00;  3.3156019E-01;0; -9.1177034E-01;  1.0099599E+04;  0.0000000E+00;  6.8532804E-06;  1.0000000E+04;  0.0000000E+00;  9.9842393E+03; -1.0667710E+00;  0.0000000E+00;  1.5500067E-01;  8.0324136E+03;
  5.3891116E-01;  9.9999998E-03;  8.0057263E-02;1885; -3.1527880E-01;  0.0000000E+00;  1.2990843E-02;  1.0043171E+03;  4.0004930E-01;  3.5765654E+03;3; -5.4654160E+01;  0.0000000E+00;  3.6995092E-01;0; -9.0628207E-01;  1.0099861E+04;  0.0000000E+00;  2.3282595E-05;  1.0000000E+04;  0.0000000E+00;  9.9842236E+03; -1.0575079E+00;  0.0000000E+00;  1.5122582E-01;  8.0464585E+03;
  5.3890616E-01;  9.9999998E-03;  1.0007185E-01;1886; -3.1325331E-01;  0.0000000E+00;  1.5977338E-02;  1.0043377E+03;  4.0004927E-01;  3.5936511E+03;3; -5.3679005E+01;  0.0000000E+00;  4.0822768E-01;0; -8.9958262E-01;  1.0100191E+04;  0.0000000E+00;  6.1431361E-05;  1.0000000E+04;  0.0000000E+00;  9.9843076E+03; -1.0459872E+00;  0.0000000E+00;  1.4640465E-01;  8.0114673E+03;
  5.3890020E-01;  9.9999998E-03;  1.2008665E-01;1887; -3.1080770E-01;  0.0000000E+00;  1.8921031E-02;  1.0043694E+03;  4.0004915E-01;  3.6199219E+03;3; -5.2435238E+01;  0.0000000E+00;  4.8823944E-01;0; -8.9213240E-01;  1.0100591E+04;  0.0000000E+00;  1.2790946E-04;  1.0000000E+04;  0.0000000E+00;  9.9845449E+03; -1.0324599E+00;  0.0000000E+00;  1.4032748E-01;  7.9032168E+03;
  5.3889352E-01;  9.9999998E-03;  1.4010136E-01;1888; -3.0791932E-01;  0.0000000E+00;  2.1796636E-02;  1.0044116E+03;  4.0004894E-01;  3.6548835E+03;3; -5.0892132E+01;  0.0000000E+00;  5.8800536E-01;0; -8.8416058E-01;  1.0101078E+04;  0.0000000E+00;  2.0637849E-04;  1.0000000E+04;  0.0000000E+00;  9.9849072E+03; -1.0172472E+00;  0.0000000E+00;  1.3308662E-01;  7.7363032E+03;
  5.5881268E-01;  9.9999998E-03; -1.4307723E-11;1912; -3.4247866E-01;  0.0000000E+00; -1.1081642E-09;  1.0043906E+03;  4.0013257E-01;  3.6374924E+03;3; -5.7770882E+01;  0.0000000E+00; -3.1734176E-05;0; -8.9386749E-01;  1.0099550E+04;  0.0000000E+00; -4.0150980E-15;  1.0000000E+04;  0.0000000E+00;  9.9817686E+03; -1.0513587E+00;  0.0000000E+00;  1.5749119E-01;  9.2585176E+03;
  5.5881202E-01;  9.9999998E-03;  2.0016830E-02;1913; -3.4221312E-01;  0.0000000E+00;  3.3379872E-03;  1.0043917E+03;  4.0013263E-01;  3.6383813E+03;3; -5.7676731E+01;  0.0000000E+00;  2.6449606E-02;0; -8.9295888E-01;  1.0099589E+04;  0.0000000E+00;  7.3878243E-07;  1.0000000E+04;  0.0000000E+00;  9.9817490E+03; -1.0499616E+00;  0.0000000E+00;  1.5700267E-01;  9.2696533E+03;
  5.5881011E-01;  9.9999998E-03;  4.0033657E-02;1914; -3.4142148E-01;  0.0000000E+00;  6.6078352E-03;  1.0043947E+03;  4.0013281E-01;  3.6409492E+03;3; -5.7383892E+01;  0.0000000E+00;  1.4159290E-02;0; -8.9024043E-01;  1.0099700E+04;  0.0000000E+00;  3.9177226E-06;  1.0000000E+04;  0.0000000E+00;  9.9816934E+03; -1.0458018E+00;  0.0000000E+00;  1.5556136E-01;  9.2976426E+03;
  5.5880702E-01;  9.9999998E-03;  6.0050528E-02;1915; -3.4011593E-01;  0.0000000E+00;  9.7571155E-03;  1.0044011E+03;  4.0013266E-01;  3.6461836E+03;3; -5.6875740E+01;  0.0000000E+00; -8.4749766E-02;0; -8.8577598E-01;  1.0099878E+04;  0.0000000E+00;  1.4063379E-05;  1.0000000E+04;  0.0000000E+00;  9.9816484E+03; -1.0389626E+00;  0.0000000E+00;  1.5318662E-01;  9.3246455E+03;
  5.5880266E-01;  9.9999998E-03;  8.0067553E-02;1916; -3.3832332E-01;  0.0000000E+00;  1.2803934E-02;  1.0044139E+03;  4.0013245E-01;  3.6567510E+03;3; -5.6143948E+01;  0.0000000E+00; -2.1825860E-01;0; -8.7980330E-01;  1.0100109E+04;  0.0000000E+00;  4.0995088E-05;  1.0000000E+04;  0.0000000E+00;  9.9816738E+03; -1.0295707E+00;  0.0000000E+00;  1.4976743E-01;  9.3187598E+03;
  5.5879724E-01;  9.9999998E-03;  1.0008483E-01;1917; -3.3606461E-01;  0.0000000E+00;  1.5787762E-02;  1.0044368E+03;  4.0013257E-01;  3.6758120E+03;3; -5.5156898E+01;  0.0000000E+00; -3.8421258E-01;0; -8.7281281E-01;  1.0100392E+04;  0.0000000E+00;  9.5797936E-05;  1.0000000E+04;  0.0000000E+00;  9.9818496E+03; -1.0178053E+00;  0.0000000E+00;  1.4499252E-01;  9.2393896E+03;
  5.5879080E-01;  9.9999998E-03;  1.2010226E-01;1918; -3.3334687E-01;  0.0000000E+00;  1.8735182E-02;  1.0044727E+03;  4.0013245E-01;  3.7054404E+03;3; -5.3889404E+01;  0.0000000E+00; -5.1077813E-01;0; -8.6537236E-01;  1.0100733E+04;  0.0000000E+00;  1.7513506E-04;  1.0000000E+04;  0.0000000E+00;  9.9822334E+03; -1.0039392E+00;  0.0000000E+00;  1.3856681E-01;  9.0592334E+03;
  5.5878365E-01;  9.9999998E-03;  1.4011934E-01;1919; -3.3013558E-01;  0.0000000E+00;  2.1575099E-02;  1.0045204E+03;  4.0013239E-01;  3.7450439E+03;3; -5.2289677E+01;  0.0000000E+00; -6.5018600E-01;0; -8.5764569E-01;  1.0101165E+04;  0.0000000E+00;  2.4311137E-04;  1.0000000E+04;  0.0000000E+00;  9.9827686E+03; -9.8838544E-01;  0.0000000E+00;  1.3073975E-01;  8.8050518E+03;
  5.7870311E-01;  9.9999998E-03; -9.2728117E-12;1943; -3.6576384E-01;  0.0000000E+00; -3.8489052E-09;  1.0045876E+03;  4.0035343E-01;  3.8007334E+03;3; -5.9077660E+01;  0.0000000E+00; -3.3670221E-05;0; -8.2857645E-01;  1.0095488E+04;  0.0000000E+00; -3.3341127E-15;  1.0000000E+04;  0.0000000E+00;  9.9786484E+03; -9.8100168E-01;  0.0000000E+00;  1.5242520E-01;  1.0801471E+04;
  5.7870239E-01;  9.9999998E-03;  2.0019893E-02;1944; -3.6546099E-01;  0.0000000E+00;  3.2401113E-03;  1.0045881E+03;  4.0035334E-01;  3.8011287E+03;3; -5.8976982E+01;  0.0000000E+00; -1.1445934E-01;0; -8.2744217E-01;  1.0095517E+04;  0.0000000E+00;  1.6039834E-06;  1.0000000E+04;  0.0000000E+00;  9.9786260E+03; -9.7960567E-01;  0.0000000E+00;  1.5216349E-01;  1.0813018E+04;
  5.7870030E-01;  9.9999998E-03;  4.0039793E-02;1945; -3.6456272E-01;  0.0000000E+00;  6.4244177E-03;  1.0045901E+03;  4.0035346E-01;  3.8027087E+03;3; -5.8674335E+01;  0.0000000E+00; -2.7748477E-01;0; -8.2409191E-01;  1.0095609E+04;  0.0000000E+00;  7.3020351E-06;  1.0000000E+04;  0.0000000E+00;  9.9785742E+03; -9.7542721E-01;  0.0000000E+00;  1.5133531E-01;  1.0840833E+04;
  5.7869697E-01;  9.9999998E-03;  6.0059801E-02;1946; -3.6309513E-01;  0.0000000E+00;  9.5212329E-03;  1.0045944E+03;  4.0035337E-01;  3.8062642E+03;3; -5.8153812E+01;  0.0000000E+00; -5.4155099E-01;0; -8.1871516E-01;  1.0095739E+04;  0.0000000E+00;  2.1953218E-05;  1.0000000E+04;  0.0000000E+00;  9.9785352E+03; -9.6849686E-01;  0.0000000E+00;  1.4978169E-01;  1.0862724E+04;
  5.7869232E-01;  9.9999998E-03;  8.0080077E-02;1947; -3.6109236E-01;  0.0000000E+00;  1.2553561E-02;  1.0046047E+03;  4.0035325E-01;  3.8148564E+03;3; -5.7409992E+01;  0.0000000E+00; -8.7366140E-01;0; -8.1170261E-01;  1.0095905E+04;  0.0000000E+00;  5.5189608E-05;  1.0000000E+04;  0.0000000E+00;  9.9785889E+03; -9.5887184E-01;  0.0000000E+00;  1.4716923E-01;  1.0840264E+04;
  5.7868654E-01;  9.9999998E-03;  1.0010072E-01;1948; -3.5857454E-01;  0.0000000E+00;  1.5550886E-02;  1.0046258E+03;  4.0035322E-01;  3.8323372E+03;3; -5.6411392E+01;  0.0000000E+00; -1.2798212E+00;0; -8.0366975E-01;  1.0096086E+04;  0.0000000E+00;  1.1034153E-04;  1.0000000E+04;  0.0000000E+00;  9.9788271E+03; -9.4668603E-01;  0.0000000E+00;  1.4301626E-01;  1.0728108E+04;
  5.7867974E-01;  9.9999998E-03;  1.2012150E-01;1949; -3.5553452E-01;  0.0000000E+00;  1.8499924E-02;  1.0046599E+03;  4.0035307E-01;  3.8605830E+03;3; -5.5107780E+01;  0.0000000E+00; -1.7113558E+00;0; -7.9519796E-01;  1.0096302E+04;  0.0000000E+00;  1.6003379E-04;  1.0000000E+04;  0.0000000E+00;  9.9793008E+03; -9.3221259E-01;  0.0000000E+00;  1.3701461E-01;  1.0503448E+04;
  5.7867235E-01;  9.9999998E-03;  1.4014170E-01;1950; -3.5193104E-01;  0.0000000E+00;  2.1307759E-02;  1.0047040E+03;  4.0035304E-01;  3.8971245E+03;3; -5.3477570E+01;  0.0000000E+00; -2.1160822E+00;0; -7.8636384E-01;  1.0096585E+04;  0.0000000E+00;  1.5030301E-04;  1.0000000E+04;  0.0000000E+00;  9.9799141E+03; -9.1592979E-01;  0.0000000E+00;  1.2956598E-01;  1.0209624E+04;
  5.9859878E-01;  9.9999998E-03;  1.2136694E-11;1974; -3.8729471E-01;  0.0000000E+00;  4.3532120E-10;  1.0052824E+03;  4.0091485E-01;  4.3762959E+03;3; -6.0071972E+01;  0.0000000E+00; -2.2817578E-05;0; -7.0612109E-01;  1.0085070E+04;  0.0000000E+00; -2.9293689E-14;  1.0000000E+04;  0.0000000E+00;  9.9748818E+03; -8.5165489E-01;  0.0000000E+00;  1.4553377E-01;  1.2643202E+04;
  5.9859800E-01;  9.9999998E-03;  2.0023534E-02;1975; -3.8695616E-01;  0.0000000E+00;  3.0953926E-03;  1.0052821E+03;  4.0091479E-01;  4.3760986E+03;3; -5.9964188E+01;  0.0000000E+00; -2.6105967E-01;0; -7.0458055E-01;  1.0085082E+04;  0.0000000E+00;  2.7357712E-06;  1.0000000E+04;  0.0000000E+00;  9.9748623E+03; -8.5017228E-01;  0.0000000E+00;  1.4559172E-01;  1.2653631E+04;
  5.9859574E-01;  9.9999998E-03;  4.0047076E-02;1976; -3.8595513E-01;  0.0000000E+00;  6.1566141E-03;  1.0052813E+03;  4.0091455E-01;  4.3754072E+03;3; -5.9649097E+01;  0.0000000E+00; -5.8228993E-01;0; -7.0005620E-01;  1.0085118E+04;  0.0000000E+00;  1.0396085E-05;  1.0000000E+04;  0.0000000E+00;  9.9748135E+03; -8.4571010E-01;  0.0000000E+00;  1.4565390E-01;  1.2678061E+04;
  5.9859210E-01;  9.9999998E-03;  6.0070772E-02;1977; -3.8432747E-01;  0.0000000E+00;  9.1796797E-03;  1.0052814E+03;  4.0091464E-01;  4.3755059E+03;3; -5.9094688E+01;  0.0000000E+00; -9.7298986E-01;0; -6.9284433E-01;  1.0085160E+04;  0.0000000E+00;  2.4824209E-05;  1.0000000E+04;  0.0000000E+00;  9.9747803E+03; -8.3823246E-01;  0.0000000E+00;  1.4538811E-01;  1.2693787E+04;
  5.9858721E-01;  9.9999998E-03;  8.0094889E-02;1978; -3.8211143E-01;  0.0000000E+00;  1.2166684E-02;  1.0052857E+03;  4.0091446E-01;  4.3790615E+03;3; -5.8323215E+01;  0.0000000E+00; -1.5697192E+00;0; -6.8346071E-01;  1.0085188E+04;  0.0000000E+00;  4.9497816E-05;  1.0000000E+04;  0.0000000E+00;  9.9748525E+03; -8.2772923E-01;  0.0000000E+00;  1.4426850E-01;  1.2661913E+04;
  5.9858114E-01;  9.9999998E-03;  1.0011952E-01;1979; -3.7931728E-01;  0.0000000E+00;  1.5151482E-02;  1.0052981E+03;  4.0091398E-01;  4.3893325E+03;3; -5.7248478E+01;  0.0000000E+00; -2.1674767E+00;0; -6.7258424E-01;  1.0085189E+04;  0.0000000E+00;  6.6666566E-05;  1.0000000E+04;  0.0000000E+00;  9.9751055E+03; -8.1428641E-01;  0.0000000E+00;  1.4170218E-01;  1.2540892E+04;
  5.9857422E-01;  9.9999998E-03;  1.2014430E-01;1980; -3.7593532E-01;  0.0000000E+00;  1.8090166E-02;  1.0053193E+03;  4.0091383E-01;  4.4068135E+03;3; -5.5929237E+01;  0.0000000E+00; -2.9283702E+00;0; -6.6080654E-01;  1.0085174E+04;  0.0000000E+00;  1.4795553E-05;  1.0000000E+04;  0.0000000E+00;  9.9755596E+03; -7.9817605E-01;  0.0000000E+00;  1.3736950E-01;  1.2320186E+04;
  5.9856671E-01;  9.9999998E-03;  1.4016820E-01;1981; -3.7189493E-01;  0.0000000E+00;  2.0843368E-02;  1.0053457E+03;  4.0091366E-01;  4.4287383E+03;3; -5.4212227E+01;  0.0000000E+00; -3.7493062E+00;0; -6.4829385E-01;  1.0085168E+04;  0.0000000E+00; -1.5811021E-04;  1.0000000E+04;  0.0000000E+00;  9.9761064E+03; -7.7993327E-01;  0.0000000E+00;  1.3163939E-01;  1.2056639E+04;
  6.1850649E-01;  9.9999998E-03;  4.5942291E-12;2005; -4.0548006E-01;  0.0000000E+00;  2.7001621E-09;  1.0072758E+03;  4.0220466E-01;  6.0277417E+03;3; -6.0727821E+01;  0.0000000E+00; -1.7083425E-05;0; -4.9229339E-01;  1.0065146E+04;  0.0000000E+00;  9.7945797E-16;  1.0000000E+04;  0.0000000E+00;  9.9702695E+03; -6.3083738E-01;  0.0000000E+00;  1.3854399E-01;  1.4867044E+04;
  6.1850566E-01;  9.9999998E-03;  2.0027703E-02;2006; -4.0511259E-01;  0.0000000E+00;  2.8248606E-03;  1.0072743E+03;  4.0220472E-01;  6.0264575E+03;3; -6.0606709E+01;  0.0000000E+00; -3.7464425E-01;0; -4.9007350E-01;  1.0065131E+04;  0.0000000E+00;  3.2574308E-06;  1.0000000E+04;  0.0000000E+00;  9.9702549E+03; -6.2908977E-01;  0.0000000E+00;  1.3901627E-01;  1.4873697E+04;
  6.1850321E-01;  9.9999998E-03;  4.0055361E-02;2007; -4.0402845E-01;  0.0000000E+00;  5.6445845E-03;  1.0072692E+03;  4.0220439E-01;  6.0222109E+03;3; -6.0262642E+01;  0.0000000E+00; -8.4671175E-01;0; -4.8354939E-01;  1.0065075E+04;  0.0000000E+00;  8.5539432E-06;  1.0000000E+04;  0.0000000E+00;  9.9702227E+03; -6.2381518E-01;  0.0000000E+00;  1.4026579E-01;  1.4888961E+04;
  6.1849928E-01;  9.9999998E-03;  6.0083225E-02;2008; -4.0227339E-01;  0.0000000E+00;  8.4618246E-03;  1.0072624E+03;  4.0220430E-01;  6.0165815E+03;3; -5.9670448E+01;  0.0000000E+00; -1.4419936E+00;0; -4.7311300E-01;  1.0064967E+04;  0.0000000E+00;  8.5644288E-06;  1.0000000E+04;  0.0000000E+00;  9.9702031E+03; -6.1493856E-01;  0.0000000E+00;  1.4182557E-01;  1.4895600E+04;
  6.1849403E-01;  9.9999998E-03;  8.0111563E-02;2009; -3.9987844E-01;  0.0000000E+00;  1.1323391E-02;  1.0072547E+03;  4.0220395E-01;  6.0102607E+03;3; -5.8843330E+01;  0.0000000E+00; -2.2026348E+00;0; -4.5938918E-01;  1.0064773E+04;  0.0000000E+00; -8.2164388E-06;  1.0000000E+04;  0.0000000E+00;  9.9702695E+03; -6.0241479E-01;  0.0000000E+00;  1.4302561E-01;  1.4862720E+04;
  6.1848783E-01;  9.9999998E-03;  1.0014037E-01;2010; -3.9686596E-01;  0.0000000E+00;  1.4196339E-02;  1.0072495E+03;  4.0220356E-01;  6.0059155E+03;3; -5.7734825E+01;  0.0000000E+00; -3.2208159E+00;0; -4.4316012E-01;  1.0064484E+04;  0.0000000E+00; -9.0233290E-05;  1.0000000E+04;  0.0000000E+00;  9.9704746E+03; -5.8632928E-01;  0.0000000E+00;  1.4316918E-01;  1.4761309E+04;
  6.1848086E-01;  9.9999998E-03;  1.2016931E-01;2011; -3.9315674E-01;  0.0000000E+00;  1.7066160E-02;  1.0072460E+03;  4.0220287E-01;  6.0030513E+03;3; -5.6351948E+01;  0.0000000E+00; -4.4082127E+00;0; -4.2520636E-01;  1.0064104E+04;  0.0000000E+00; -3.2539293E-04;  1.0000000E+04;  0.0000000E+00;  9.9708076E+03; -5.6699336E-01;  0.0000000E+00;  1.4178698E-01;  1.4594909E+04;
  6.1847329E-01;  9.9999998E-03;  1.4019719E-01;2012; -3.8875476E-01;  0.0000000E+00;  1.9687867E-02;  1.0072390E+03;  4.0220267E-01;  5.9972246E+03;3; -5.4562408E+01;  0.0000000E+00; -5.6433249E+00;0; -4.0604562E-01;  1.0063644E+04;  0.0000000E+00; -7.3142367E-04;  1.0000000E+04;  0.0000000E+00;  9.9711592E+03; -5.4494917E-01;  0.0000000E+00;  1.3890357E-01;  1.4422136E+04;
  6.3843042E-01;  9.9999998E-03;  4.3406962E-11;2036; -4.1946420E-01;  0.0000000E+00;  4.1927737E-09;  1.0112816E+03;  4.0458941E-01;  9.3463125E+03;3; -6.0858997E+01;  0.0000000E+00; -2.9395462E-05;0; -1.3906039E-01;  1.0032104E+04;  0.0000000E+00; -2.1574136E-14;  1.0000000E+04;  0.0000000E+00;  9.9645889E+03; -2.7332738E-01;  0.0000000E+00;  1.3426699E-01;  1.7565854E+04;
  6.3842952E-01;  9.9999998E-03;  2.0031800E-02;2037; -4.1907525E-01;  0.0000000E+00;  2.3681456E-03;  1.0112786E+03;  4.0458924E-01;  9.3437451E+03;3; -6.0702164E+01;  0.0000000E+00; -5.4516292E-01;0; -1.3589329E-01;  1.0032045E+04;  0.0000000E+00;  1.2376443E-06;  1.0000000E+04;  0.0000000E+00;  9.9645908E+03; -2.7112278E-01;  0.0000000E+00;  1.3522950E-01;  1.7564648E+04;
  6.3842696E-01;  9.9999998E-03;  4.0063612E-02;2038; -4.1792715E-01;  0.0000000E+00;  4.7672242E-03;  1.0112682E+03;  4.0458897E-01;  9.3352520E+03;3; -6.0292679E+01;  0.0000000E+00; -1.2027764E+00;0; -1.2656567E-01;  1.0031857E+04;  0.0000000E+00; -7.0786814E-06;  1.0000000E+04;  0.0000000E+00;  9.9645898E+03; -2.6448166E-01;  0.0000000E+00;  1.3791600E-01;  1.7561211E+04;
  6.3842273E-01;  9.9999998E-03;  6.0095631E-02;2039; -4.1607127E-01;  0.0000000E+00;  7.2489479E-03;  1.0112510E+03;  4.0458861E-01;  9.3210303E+03;3; -5.9653564E+01;  0.0000000E+00; -2.0859294E+00;0; -1.1158611E-01;  1.0031530E+04;  0.0000000E+00; -4.8658225E-05;  1.0000000E+04;  0.0000000E+00;  9.9645986E+03; -2.5335184E-01;  0.0000000E+00;  1.4176573E-01;  1.7550863E+04;
  6.3841718E-01;  9.9999998E-03;  8.0128238E-02;2040; -4.1355544E-01;  0.0000000E+00;  9.8167397E-03;  1.0112275E+03;  4.0458816E-01;  9.3014756E+03;3; -5.8753929E+01;  0.0000000E+00; -3.2509170E+00;0; -9.1761485E-02;  1.0031034E+04;  0.0000000E+00; -1.5522195E-04;  1.0000000E+04;  0.0000000E+00;  9.9646484E+03; -2.3774421E-01;  0.0000000E+00;  1.4598273E-01;  1.7519217E+04;
  6.3841063E-01;  9.9999998E-03;  1.0016147E-01;2041; -4.1033453E-01;  0.0000000E+00;  1.2479129E-02;  1.0111971E+03;  4.0458748E-01;  9.2762920E+03;3; -5.7641998E+01;  0.0000000E+00; -4.6686525E+00;0; -6.8151042E-02;  1.0030350E+04;  0.0000000E+00; -3.9375320E-04;  1.0000000E+04;  0.0000000E+00;  9.9647656E+03; -2.1783985E-01;  0.0000000E+00;  1.4968881E-01;  1.7453975E+04;
  6.3840359E-01;  9.9999998E-03;  1.2019470E-01;2042; -4.0636718E-01;  0.0000000E+00;  1.5116660E-02;  1.0111591E+03;  4.0458658E-01;  9.2447881E+03;3; -5.6165771E+01;  0.0000000E+00; -6.1411023E+00;0; -4.2010635E-02;  1.0029476E+04;  0.0000000E+00; -8.3938369E-04;  1.0000000E+04;  0.0000000E+00;  9.9649316E+03; -1.9403958E-01;  0.0000000E+00;  1.5202895E-01;  1.7366053E+04;
  6.3839626E-01;  9.9999998E-03;  1.4022662E-01;2043; -4.0167373E-01;  0.0000000E+00;  1.7471170E-02;  1.0111086E+03;  4.0458587E-01;  9.2030127E+03;3; -5.4428627E+01;  0.0000000E+00; -7.9348545E+00;0; -1.4484465E-02;  1.0028392E+04;  0.0000000E+00; -1.4332732E-03;  1.0000000E+04;  0.0000000E+00;  9.9650615E+03; -1.6680500E-01;  0.0000000E+00;  1.5232053E-01;  1.7298711E+04;
  6.5837413E-01;  9.9999998E-03;  1.5240434E-11;2067; -4.2863178E-01;  0.0000000E+00;  1.0888158E-08;  1.0160710E+03;  4.0763095E-01;  1.3314035E+04;3; -6.0408749E+01;  0.0000000E+00; -3.2543965E-05;0;  3.9507484E-01;  9.9836719E+03;  0.0000000E+00; -1.1180014E-14;  1.0000000E+04;  0.0000000E+00;  9.9577256E+03;  2.5961906E-01;  0.0000000E+00;  1.3545579E-01;  2.0784438E+04;
  6.5837324E-01;  9.9999998E-03;  2.0036336E-02;2068; -4.2822352E-01;  0.0000000E+00;  1.6921388E-03;  1.0160665E+03;  4.0763086E-01;  1.3310184E+04;3; -6.0267151E+01;  0.0000000E+00; -8.6508441E-01;0;  3.9926282E-01;  9.9835566E+03;  0.0000000E+00; -4.9680380E-06;  1.0000000E+04;  0.0000000E+00;  9.9577490E+03;  2.6233172E-01;  0.0000000E+00;  1.3693109E-01;  2.0769500E+04;
  6.5837055E-01;  9.9999998E-03;  4.0072665E-02;2069; -4.2706770E-01;  0.0000000E+00;  3.4937491E-03;  1.0160518E+03;  4.0763083E-01;  1.3298036E+04;3; -5.9868614E+01;  0.0000000E+00; -1.7961897E+00;0;  4.1159797E-01;  9.9832158E+03;  0.0000000E+00; -4.1498413E-05;  1.0000000E+04;  0.0000000E+00;  9.9578105E+03;  2.7045679E-01;  0.0000000E+00;  1.4114116E-01;  2.0732555E+04;
  6.5836620E-01;  9.9999998E-03;  6.0108997E-02;2070; -4.2518753E-01;  0.0000000E+00;  5.5188597E-03;  1.0160245E+03;  4.0763044E-01;  1.3275420E+04;3; -5.9179581E+01;  0.0000000E+00; -2.9217880E+00;0;  4.3139991E-01;  9.9826260E+03;  0.0000000E+00; -1.5192053E-04;  1.0000000E+04;  0.0000000E+00;  9.9578809E+03;  2.8393385E-01;  0.0000000E+00;  1.4746606E-01;  2.0688225E+04;
  6.5836048E-01;  9.9999998E-03;  8.0145791E-02;2071; -4.2256734E-01;  0.0000000E+00;  7.7281576E-03;  1.0159831E+03;  4.0762982E-01;  1.3241151E+04;3; -5.8191650E+01;  0.0000000E+00; -4.3276124E+00;0;  4.5754156E-01;  9.9817734E+03;  0.0000000E+00; -3.7439301E-04;  1.0000000E+04;  0.0000000E+00;  9.9579453E+03;  3.0257314E-01;  0.0000000E+00;  1.5496841E-01;  2.0644453E+04;
  6.5835404E-01;  9.9999998E-03;  1.0018354E-01;2072; -4.1921148E-01;  0.0000000E+00;  9.9908439E-03;  1.0159268E+03;  4.0762928E-01;  1.3194438E+04;3; -5.6983795E+01;  0.0000000E+00; -6.1272454E+00;0;  4.8843664E-01;  9.9806426E+03;  0.0000000E+00; -7.4942911E-04;  1.0000000E+04;  0.0000000E+00;  9.9579990E+03;  3.2597938E-01;  0.0000000E+00;  1.6245727E-01;  2.0603566E+04;
  6.5834743E-01;  9.9999998E-03;  1.2022183E-01;2073; -4.1509047E-01;  0.0000000E+00;  1.2198220E-02;  1.0158547E+03;  4.0762851E-01;  1.3134788E+04;3; -5.5552486E+01;  0.0000000E+00; -8.2442951E+00;0;  5.2200520E-01;  9.9792139E+03;  0.0000000E+00; -1.2758445E-03;  1.0000000E+04;  0.0000000E+00;  9.9580439E+03;  3.5359761E-01;  0.0000000E+00;  1.6840756E-01;  2.0570396E+04;
  6.5834069E-01;  9.9999998E-03;  1.4025910E-01;2074; -4.1012979E-01;  0.0000000E+00;  1.4310723E-02;  1.0157645E+03;  4.0762815E-01;  1.3060028E+04;3; -5.3785778E+01;  0.0000000E+00; -1.0435429E+01;0;  5.5608499E-01;  9.9774600E+03;  0.0000000E+00; -1.7842792E-03;  1.0000000E+04;  0.0000000E+00;  9.9580557E+03;  3.8500714E-01;  0.0000000E+00;  1.7107786E-01;  2.0554016E+04;
  6.7834502E-01;  9.9999998E-03;  3.7235982E-11;2098; -4.3293092E-01;  0.0000000E+00;  1.3665305E-08;  1.0186425E+03;  4.1010037E-01;  1.5444133E+04;3; -5.9689369E+01;  0.0000000E+00; -2.9985458E-05;0;  1.1138109E+00;  9.9213125E+03;  0.0000000E+00;  4.3809262E-14;  1.0000000E+04;  0.0000000E+00;  9.9498535E+03;  9.7085124E-01;  0.0000000E+00;  1.4295968E-01;  2.4436994E+04;
  6.7834431E-01;  9.9999998E-03;  2.0045435E-02;2099; -4.3252513E-01;  0.0000000E+00;  9.5419935E-04;  1.0186371E+03;  4.1010016E-01;  1.5439689E+04;3; -5.9542290E+01;  0.0000000E+00; -1.2869893E+00;0;  1.1186897E+00;  9.9211494E+03;  0.0000000E+00; -1.3045848E-05;  1.0000000E+04;  0.0000000E+00;  9.9499219E+03;  9.7380120E-01;  0.0000000E+00;  1.4488842E-01;  2.4401221E+04;
  6.7834216E-01;  9.9999998E-03;  4.0089883E-02;2100; -4.3132532E-01;  0.0000000E+00;  2.1330249E-03;  1.0186204E+03;  4.1010016E-01;  1.5425765E+04;3; -5.9106297E+01;  0.0000000E+00; -2.6246593E+00;0;  1.1330316E+00;  9.9206621E+03;  0.0000000E+00; -8.0995211E-05;  1.0000000E+04;  0.0000000E+00;  9.9500830E+03;  9.8257083E-01;  0.0000000E+00;  1.5046072E-01;  2.4311707E+04;
  6.7833853E-01;  9.9999998E-03;  6.0133256E-02;2101; -4.2935061E-01;  0.0000000E+00;  3.6415705E-03;  1.0185870E+03;  4.1010010E-01;  1.5398112E+04;3; -5.8393047E+01;  0.0000000E+00; -4.1395426E+00;0;  1.1559281E+00;  9.9198311E+03;  0.0000000E+00; -2.5305816E-04;  1.0000000E+04;  0.0000000E+00;  9.9502666E+03;  9.9689525E-01;  0.0000000E+00;  1.5903287E-01;  2.4207000E+04;
  6.7833376E-01;  9.9999998E-03;  8.0176562E-02;2102; -4.2658272E-01;  0.0000000E+00;  5.4688109E-03;  1.0185337E+03;  4.1009983E-01;  1.5353968E+04;3; -5.7416172E+01;  0.0000000E+00; -6.0354867E+00;0;  1.1857984E+00;  9.9186572E+03;  0.0000000E+00; -5.4313289E-04;  1.0000000E+04;  0.0000000E+00;  9.9504082E+03;  1.0162847E+00;  0.0000000E+00;  1.6951367E-01;  2.4118836E+04;
  6.7832851E-01;  9.9999998E-03;  1.0022060E-01;2103; -4.2295682E-01;  0.0000000E+00;  7.4951476E-03;  1.0184600E+03;  4.1009977E-01;  1.5292837E+04;3; -5.6225014E+01;  0.0000000E+00; -8.4896212E+00;0;  1.2202848E+00;  9.9171377E+03;  0.0000000E+00; -9.1037003E-04;  1.0000000E+04;  0.0000000E+00;  9.9504902E+03;  1.0400223E+00;  0.0000000E+00;  1.8026254E-01;  2.4057037E+04;
  6.7832345E-01;  9.9999998E-03;  1.2026561E-01;2104; -4.1837424E-01;  0.0000000E+00;  9.6942373E-03;  1.0183665E+03;  4.1009969E-01;  1.5215512E+04;3; -5.4760864E+01;  0.0000000E+00; -1.1239582E+01;0;  1.2561264E+00;  9.9152578E+03;  0.0000000E+00; -1.2298605E-03;  1.0000000E+04;  0.0000000E+00;  9.9505635E+03;  1.0673041E+00;  0.0000000E+00;  1.8882224E-01;  2.4004846E+04;
  6.7831886E-01;  9.9999998E-03;  1.4031021E-01;2105; -4.1284424E-01;  0.0000000E+00;  1.2056035E-02;  1.0182565E+03;  4.1009971E-01;  1.5124358E+04;3; -5.2986729E+01;  0.0000000E+00; -1.4236434E+01;0;  1.2897156E+00;  9.9129688E+03;  0.0000000E+00; -1.2419069E-03;  1.0000000E+04;  0.0000000E+00;  9.9507002E+03;  1.0975951E+00;  0.0000000E+00;  1.9212052E-01;  2.3921348E+04;
  6.9835860E-01;  9.9999998E-03;  7.5291537E-11;2129; -4.3104705E-01;  0.0000000E+00;  2.6434453E-08;  1.0180746E+03;  4.1147366E-01;  1.4973362E+04;3; -5.8290443E+01;  0.0000000E+00; -3.4294935E-05;0;  1.9532423E+00;  9.8520840E+03;  0.0000000E+00;  2.0328593E-14;  1.0000000E+04;  0.0000000E+00;  9.9415996E+03;  1.7993186E+00;  0.0000000E+00;  1.5392379E-01;  2.8246652E+04;
  6.9835836E-01;  9.9999998E-03;  2.0059092E-02;2130; -4.3055764E-01;  0.0000000E+00;  1.1290389E-03;  1.0180706E+03;  4.1147357E-01;  1.4970005E+04;3; -5.8187965E+01;  0.0000000E+00; -2.4395065E+00;0;  1.9579779E+00;  9.8518857E+03;  0.0000000E+00; -1.5673639E-05;  1.0000000E+04;  0.0000000E+00;  9.9417168E+03;  1.8018074E+00;  0.0000000E+00;  1.5617050E-01;  2.8183320E+04;
  6.9835752E-01;  9.9999998E-03;  4.0116802E-02;2131; -4.2912579E-01;  0.0000000E+00;  2.5971632E-03;  1.0180555E+03;  4.1147378E-01;  1.4957463E+04;3; -5.7834274E+01;  0.0000000E+00; -4.8012433E+00;0;  1.9718305E+00;  9.8512881E+03;  0.0000000E+00; -9.0645430E-05;  1.0000000E+04;  0.0000000E+00;  9.9420205E+03;  1.8091047E+00;  0.0000000E+00;  1.6272585E-01;  2.8021896E+04;
  6.9835603E-01;  9.9999998E-03;  6.0172524E-02;2132; -4.2668208E-01;  0.0000000E+00;  4.5603071E-03;  1.0180236E+03;  4.1147390E-01;  1.4931096E+04;3; -5.7236607E+01;  0.0000000E+00; -7.0983911E+00;0;  1.9936852E+00;  9.8503076E+03;  0.0000000E+00; -2.6358635E-04;  1.0000000E+04;  0.0000000E+00;  9.9423770E+03;  1.8207166E+00;  0.0000000E+00;  1.7296861E-01;  2.7826088E+04;
  6.9835407E-01;  9.9999998E-03;  8.0227114E-02;2133; -4.2322147E-01;  0.0000000E+00;  6.8970299E-03;  1.0179700E+03;  4.1147420E-01;  1.4886655E+04;3; -5.6358368E+01;  0.0000000E+00; -9.5720186E+00;0;  2.0214913E+00;  9.8489512E+03;  0.0000000E+00; -5.0603290E-04;  1.0000000E+04;  0.0000000E+00;  9.9426885E+03;  1.8358240E+00;  0.0000000E+00;  1.8566725E-01;  2.7649375E+04;
  6.9835234E-01;  9.9999998E-03;  1.0028180E-01;2134; -4.1872808E-01;  0.0000000E+00;  9.4041582E-03;  1.0178948E+03;  4.1147420E-01;  1.4824439E+04;3; -5.5164494E+01;  0.0000000E+00; -1.2409984E+01;0;  2.0520201E+00;  9.8472324E+03;  0.0000000E+00; -6.9008296E-04;  1.0000000E+04;  0.0000000E+00;  9.9429414E+03;  1.8533660E+00;  0.0000000E+00;  1.9865413E-01;  2.7500520E+04;
  6.9835228E-01;  9.9999998E-03;  1.2033847E-01;2135; -4.1292340E-01;  0.0000000E+00;  1.2370767E-02;  1.0178045E+03;  4.1147482E-01;  1.4749583E+04;3; -5.3583927E+01;  0.0000000E+00; -1.5633670E+01;0;  2.0806861E+00;  9.8451641E+03;  0.0000000E+00; -6.0536386E-04;  1.0000000E+04;  0.0000000E+00;  9.9432451E+03;  1.8722755E+00;  0.0000000E+00;  2.0841071E-01;  2.7329281E+04;
  6.9835478E-01;  9.9999998E-03;  1.4039740E-01;2136; -4.0572438E-01;  0.0000000E+00;  1.6471369E-02;  1.0177078E+03;  4.1147533E-01;  1.4669493E+04;3; -5.1841663E+01;  0.0000000E+00; -1.8952261E+01;0;  2.1021886E+00;  9.8427188E+03;  0.0000000E+00;  7.6505703E-06;  1.0000000E+04;  0.0000000E+00;  9.9438018E+03;  1.8917481E+00;  0.0000000E+00;  2.1044047E-01;  2.7037846E+04;
  7.1855962E-01;  9.9999998E-03;  6.6559145E-12;2160; -4.0108246E-01;  0.0000000E+00;  4.0153257E-08;  1.0158839E+03;  4.1208538E-01;  1.3158188E+04;3; -5.5766018E+01;  0.0000000E+00;  2.5229354E-05;0;  2.7767410E+00;  9.7881016E+03;  0.0000000E+00;  9.0881960E-15;  1.0000000E+04;  0.0000000E+00;  9.9339248E+03;  2.6153564E+00;  0.0000000E+00;  1.6138470E-01;  3.1786346E+04;
  7.1855903E-01;  9.9999998E-03;  2.0080494E-02;2161; -4.0027538E-01;  0.0000000E+00;  5.4566707E-03;  1.0158828E+03;  4.1208515E-01;  1.3157201E+04;3; -5.5449703E+01;  0.0000000E+00; -2.9460742E+00;0;  2.7801087E+00;  9.7878955E+03;  0.0000000E+00; -5.5729915E-06;  1.0000000E+04;  0.0000000E+00;  9.9341104E+03;  2.6162968E+00;  0.0000000E+00;  1.6381197E-01;  3.1689994E+04;
  7.1855754E-01;  9.9999998E-03;  4.0158778E-02;2162; -3.9780280E-01;  0.0000000E+00;  1.1045733E-02;  1.0158756E+03;  4.1208532E-01;  1.3151276E+04;3; -5.4529926E+01;  0.0000000E+00; -5.6912856E+00;0;  2.7898664E+00;  9.7872842E+03;  0.0000000E+00; -4.3803153E-05;  1.0000000E+04;  0.0000000E+00;  9.9345879E+03;  2.6189103E+00;  0.0000000E+00;  1.7095624E-01;  3.1440094E+04;
  7.1855575E-01;  9.9999998E-03;  6.0234416E-02;2163; -3.9363107E-01;  0.0000000E+00;  1.6840465E-02;  1.0158549E+03;  4.1208568E-01;  1.3134192E+04;3; -5.3030197E+01;  0.0000000E+00; -8.2574701E+00;0;  2.8048515E+00;  9.7862910E+03;  0.0000000E+00; -1.3757254E-04;  1.0000000E+04;  0.0000000E+00;  9.9351816E+03;  2.6225863E+00;  0.0000000E+00;  1.8226533E-01;  3.1124516E+04;
  7.1855450E-01;  9.9999998E-03;  8.0309264E-02;2164; -3.8782007E-01;  0.0000000E+00;  2.2943355E-02;  1.0158152E+03;  4.1208628E-01;  1.3101308E+04;3; -5.1016685E+01;  0.0000000E+00; -1.0867475E+01;0;  2.8227634E+00;  9.7849521E+03;  0.0000000E+00; -2.3982364E-04;  1.0000000E+04;  0.0000000E+00;  9.9357549E+03;  2.6263523E+00;  0.0000000E+00;  1.9641125E-01;  3.0815424E+04;
  7.1855468E-01;  9.9999998E-03;  1.0038619E-01;2165; -3.8025439E-01;  0.0000000E+00;  2.9416073E-02;  1.0157590E+03;  4.1208649E-01;  1.3054696E+04;3; -4.8460472E+01;  0.0000000E+00; -1.3922360E+01;0;  2.8397341E+00;  9.7833105E+03;  0.0000000E+00; -2.1103161E-04;  1.0000000E+04;  0.0000000E+00;  9.9363057E+03;  2.6289976E+00;  0.0000000E+00;  2.1073648E-01;  3.0515725E+04;
  7.1855789E-01;  9.9999998E-03;  1.2046646E-01;2166; -3.7059385E-01;  0.0000000E+00;  3.6381323E-02;  1.0156979E+03;  4.1208717E-01;  1.3004135E+04;3; -4.5414337E+01;  0.0000000E+00; -1.7371944E+01;0;  2.8500583E+00;  9.7814258E+03;  0.0000000E+00;  1.3102520E-04;  1.0000000E+04;  0.0000000E+00;  9.9370127E+03;  2.6292992E+00;  0.0000000E+00;  2.2075908E-01;  3.0140213E+04;
  7.1856457E-01;  9.9999998E-03;  1.4054817E-01;2167; -3.5906267E-01;  0.0000000E+00;  4.4195052E-02;  1.0156494E+03;  4.1208792E-01;  1.2963942E+04;3; -4.2009182E+01;  0.0000000E+00; -2.0758112E+01;0;  2.8469136E+00;  9.7793145E+03;  0.0000000E+00;  9.5139170E-04;  1.0000000E+04;  0.0000000E+00;  9.9381943E+03;  2.6261461E+00;  0.0000000E+00;  2.2076742E-01;  2.9542369E+04;
  7.3904657E-01;  9.9999998E-03;  9.2388444E-11;2191; -2.7005887E-01;  0.0000000E+00;  2.1576589E-08;  1.0138116E+03;  4.1233009E-01;  1.1441055E+04;3; -3.5247074E+01;  0.0000000E+00; -7.1842805E-06;0;  3.3993797E+00;  9.7428076E+03;  0.0000000E+00;  3.6512978E-14;  1.0000000E+04;  0.0000000E+00;  9.9278652E+03;  3.2419367E+00;  0.0000000E+00;  1.5744311E-01;  3.4607199E+04;
  7.3904657E-01;  9.9999998E-03;  2.0085162E-02;2192; -2.6918954E-01;  0.0000000E+00;  4.2346520E-03;  1.0138151E+03;  4.1233033E-01;  1.1443918E+04;3; -3.4932125E+01;  0.0000000E+00; -3.9547715E+00;0;  3.4004083E+00;  9.7426230E+03;  0.0000000E+00;  1.1604592E-05;  1.0000000E+04;  0.0000000E+00;  9.9281152E+03;  3.2403948E+00;  0.0000000E+00;  1.6001339E-01;  3.4476004E+04;
  7.3904675E-01;  9.9999998E-03;  4.0167529E-02;2193; -2.6660323E-01;  0.0000000E+00;  8.6073577E-03;  1.0138212E+03;  4.1233033E-01;  1.1449053E+04;3; -3.4015202E+01;  0.0000000E+00; -7.6499238E+00;0;  3.4031994E+00;  9.7420801E+03;  0.0000000E+00;  3.1358610E-05;  1.0000000E+04;  0.0000000E+00;  9.9287871E+03;  3.2355912E+00;  0.0000000E+00;  1.6760820E-01;  3.4130488E+04;
  7.3904759E-01;  9.9999998E-03;  6.0246240E-02;2194; -2.6235363E-01;  0.0000000E+00;  1.3153562E-02;  1.0138211E+03;  4.1233072E-01;  1.1448954E+04;3; -3.2564537E+01;  0.0000000E+00; -1.1080885E+01;0;  3.4067028E+00;  9.7412227E+03;  0.0000000E+00;  4.2128861E-05;  1.0000000E+04;  0.0000000E+00;  9.9296504E+03;  3.2269945E+00;  0.0000000E+00;  1.7970821E-01;  3.3679047E+04;
  7.3904961E-01;  9.9999998E-03;  8.0322906E-02;2195; -2.5651416E-01;  0.0000000E+00;  1.7818563E-02;  1.0138088E+03;  4.1233122E-01;  1.1438783E+04;3; -3.0661417E+01;  0.0000000E+00; -1.4548996E+01;0;  3.4087403E+00;  9.7400957E+03;  0.0000000E+00;  6.9374786E-05;  1.0000000E+04;  0.0000000E+00;  9.9305400E+03;  3.2138109E+00;  0.0000000E+00;  1.9492929E-01;  3.3210391E+04;
  7.3905325E-01;  9.9999998E-03;  1.0040056E-01;2196; -2.4918498E-01;  0.0000000E+00;  2.2663543E-02;  1.0137885E+03;  4.1233173E-01;  1.1421897E+04;3; -2.8377150E+01;  0.0000000E+00; -1.8434860E+01;0;  3.4054477E+00;  9.7387871E+03;  0.0000000E+00;  1.8636894E-04;  1.0000000E+04;  0.0000000E+00;  9.9314619E+03;  3.1950996E+00;  0.0000000E+00;  2.1034814E-01;  3.2725875E+04;
  7.3905867E-01;  9.9999998E-03;  1.2048163E-01;2197; -2.4052685E-01;  0.0000000E+00;  2.8116329E-02;  1.0137755E+03;  4.1233242E-01;  1.1411134E+04;3; -2.5771170E+01;  0.0000000E+00; -2.2840773E+01;0;  3.3908453E+00;  9.7373721E+03;  0.0000000E+00;  4.7299580E-04;  1.0000000E+04;  0.0000000E+00;  9.9326387E+03;  3.1698630E+00;  0.0000000E+00;  2.2098224E-01;  3.2119713E+04;
  7.3906571E-01;  9.9999998E-03;  1.4056507E-01;2198; -2.3082942E-01;  0.0000000E+00;  3.4731213E-02;  1.0137945E+03;  4.1233307E-01;  1.1426934E+04;3; -2.2924370E+01;  0.0000000E+00; -2.7368608E+01;0;  3.3575583E+00;  9.7359521E+03;  0.0000000E+00;  9.7901723E-04;  1.0000000E+04;  0.0000000E+00;  9.9344248E+03;  3.1370294E+00;  0.0000000E+00;  2.2052895E-01;  3.1220547E+04;
  7.5942075E-01;  9.9999998E-03;  1.9878685E-10;2222; -1.7129183E-01;  0.0000000E+00;  1.8275697E-08;  1.0127539E+03;  4.1242260E-01;  1.0564432E+04;3; -2.2471502E+01;  0.0000000E+00; -4.9011898E-05;0;  3.7057045E+00;  9.7221797E+03;  0.0000000E+00;  2.3449817E-15;  1.0000000E+04;  0.0000000E+00;  9.9239775E+03;  3.5652361E+00;  0.0000000E+00;  1.4046828E-01;  3.6453008E+04;
  7.5942129E-01;  9.9999998E-03;  2.0086728E-02;2223; -1.7048813E-01;  0.0000000E+00;  2.5001382E-03;  1.0127629E+03;  4.1242290E-01;  1.0571837E+04;3; -2.2231091E+01;  0.0000000E+00; -4.8999758E+00;0;  3.7042465E+00;  9.7220449E+03;  0.0000000E+00;  1.9152627E-05;  1.0000000E+04;  0.0000000E+00;  9.9242959E+03;  3.5609672E+00;  0.0000000E+00;  1.4327919E-01;  3.6290691E+04;
  7.5942296E-01;  9.9999998E-03;  4.0170170E-02;2224; -1.6811137E-01;  0.0000000E+00;  5.1557831E-03;  1.0127857E+03;  4.1242307E-01;  1.0590697E+04;3; -2.1535114E+01;  0.0000000E+00; -9.4759417E+00;0;  3.6996770E+00;  9.7216523E+03;  0.0000000E+00;  6.6124747E-05;  1.0000000E+04;  0.0000000E+00;  9.9251348E+03;  3.5481110E+00;  0.0000000E+00;  1.5156604E-01;  3.5858578E+04;
  7.5942612E-01;  9.9999998E-03;  6.0249057E-02;2225; -1.6425703E-01;  0.0000000E+00;  7.9768803E-03;  1.0128118E+03;  4.1242328E-01;  1.0612322E+04;3; -2.0448986E+01;  0.0000000E+00; -1.3696512E+01;0;  3.6912699E+00;  9.7210439E+03;  0.0000000E+00;  1.2436129E-04;  1.0000000E+04;  0.0000000E+00;  9.9262510E+03;  3.5265179E+00;  0.0000000E+00;  1.6475198E-01;  3.5281059E+04;
  7.5943089E-01;  9.9999998E-03;  8.0324769E-02;2226; -1.5907098E-01;  0.0000000E+00;  1.0831815E-02;  1.0128336E+03;  4.1242376E-01;  1.0630393E+04;3; -1.9054911E+01;  0.0000000E+00; -1.7889315E+01;0;  3.6774397E+00;  9.7202813E+03;  0.0000000E+00;  1.9107515E-04;  1.0000000E+04;  0.0000000E+00;  9.9274424E+03;  3.4960437E+00;  0.0000000E+00;  1.8139596E-01;  3.4662305E+04;
  7.5943756E-01;  9.9999998E-03;  1.0040022E-01;2227; -1.5274683E-01;  0.0000000E+00;  1.3675538E-02;  1.0128548E+03;  4.1242430E-01;  1.0647969E+04;3; -1.7431479E+01;  0.0000000E+00; -2.2500242E+01;0;  3.6550734E+00;  9.7194365E+03;  0.0000000E+00;  2.7549078E-04;  1.0000000E+04;  0.0000000E+00;  9.9286973E+03;  3.4565749E+00;  0.0000000E+00;  1.9849849E-01;  3.4009961E+04;
  7.5944591E-01;  9.9999998E-03;  1.2047777E-01;2228; -1.4552936E-01;  0.0000000E+00;  1.6845070E-02;  1.0128923E+03;  4.1242492E-01;  1.0679072E+04;3; -1.5646828E+01;  0.0000000E+00; -2.7694881E+01;0;  3.6189337E+00;  9.7186133E+03;  0.0000000E+00;  3.8213827E-04;  1.0000000E+04;  0.0000000E+00;  9.9302461E+03;  3.4079409E+00;  0.0000000E+00;  2.1099274E-01;  3.3216027E+04;
  7.5945568E-01;  9.9999998E-03;  1.4055631E-01;2229; -1.3773178E-01;  0.0000000E+00;  2.0927867E-02;  1.0129727E+03;  4.1242555E-01;  1.0745626E+04;3; -1.3773692E+01;  0.0000000E+00; -3.3084545E+01;0;  3.5620472E+00;  9.7179639E+03;  0.0000000E+00;  5.0145108E-04;  1.0000000E+04;  0.0000000E+00;  9.9324551E+03;  3.3494766E+00;  0.0000000E+00;  2.1257067E-01;  3.2110125E+04;
  7.7970344E-01;  9.9999998E-03; -1.3542786E-10;2253; -9.7172573E-02;  0.0000000E+00; -6.7766635E-08;  1.0126884E+03;  4.1245547E-01;  1.0509421E+04;3; -1.4802006E+01;  0.0000000E+00;  1.1109805E-05;0;  3.7552941E+00;  9.7211699E+03;  0.0000000E+00;  1.8068094E-14;  1.0000000E+04;  0.0000000E+00;  9.9221924E+03;  3.6390851E+00;  0.0000000E+00;  1.1620905E-01;  3.7328957E+04;
  7.7970421E-01;  9.9999998E-03;  2.0086229E-02;2254; -9.6559457E-02;  0.0000000E+00;  8.3844760E-04;  1.0127031E+03;  4.1245544E-01;  1.0521565E+04;3; -1.4659359E+01;  0.0000000E+00; -5.5799036E+00;0;  3.7520528E+00;  9.7210957E+03;  0.0000000E+00;  1.3077948E-05;  1.0000000E+04;  0.0000000E+00;  9.9225527E+03;  3.6326113E+00;  0.0000000E+00;  1.1944142E-01;  3.7144840E+04;
  7.7970654E-01;  9.9999998E-03;  4.0168911E-02;2255; -9.4759531E-02;  0.0000000E+00;  1.9063889E-03;  1.0127418E+03;  4.1245574E-01;  1.0553655E+04;3; -1.4249945E+01;  0.0000000E+00; -1.0771065E+01;0;  3.7422457E+00;  9.7208799E+03;  0.0000000E+00;  4.6604000E-05;  1.0000000E+04;  0.0000000E+00;  9.9235137E+03;  3.6133409E+00;  0.0000000E+00;  1.2890480E-01;  3.6651941E+04;
  7.7971053E-01;  9.9999998E-03;  6.0246576E-02;2256; -9.1888256E-02;  0.0000000E+00;  3.2521074E-03;  1.0127914E+03;  4.1245583E-01;  1.0594729E+04;3; -1.3623475E+01;  0.0000000E+00; -1.5506483E+01;0;  3.7255938E+00;  9.7205605E+03;  0.0000000E+00;  8.9164510E-05;  1.0000000E+04;  0.0000000E+00;  9.9248047E+03;  3.5817475E+00;  0.0000000E+00;  1.4384618E-01;  3.5985863E+04;
  7.7971613E-01;  9.9999998E-03;  8.0320522E-02;2257; -8.8124201E-02;  0.0000000E+00;  4.7316556E-03;  1.0128431E+03;  4.1245618E-01;  1.0637582E+04;3; -1.2844032E+01;  0.0000000E+00; -2.0123144E+01;0;  3.7013502E+00;  9.7201680E+03;  0.0000000E+00;  1.2950429E-04;  1.0000000E+04;  0.0000000E+00;  9.9261992E+03;  3.5386534E+00;  0.0000000E+00;  1.6269691E-01;  3.5264445E+04;
  7.7972329E-01;  9.9999998E-03;  1.0039364E-01;2258; -8.3701029E-02;  0.0000000E+00;  6.2383218E-03;  1.0128978E+03;  4.1245675E-01;  1.0682803E+04;3; -1.1974771E+01;  0.0000000E+00; -2.5115675E+01;0;  3.6675477E+00;  9.7197549E+03;  0.0000000E+00;  1.5565974E-04;  1.0000000E+04;  0.0000000E+00;  9.9276650E+03;  3.4851575E+00;  0.0000000E+00;  1.8239032E-01;  3.4506875E+04;
  7.7973157E-01;  9.9999998E-03;  1.2046822E-01;2259; -7.8893572E-02;  0.0000000E+00;  8.0097280E-03;  1.0129703E+03;  4.1245717E-01;  1.0742934E+04;3; -1.1070583E+01;  0.0000000E+00; -3.0714510E+01;0;  3.6201077E+00;  9.7194111E+03;  0.0000000E+00;  1.5342970E-04;  1.0000000E+04;  0.0000000E+00;  9.9294082E+03;  3.4222205E+00;  0.0000000E+00;  1.9788723E-01;  3.3614316E+04;
  7.7974051E-01;  9.9999998E-03;  1.4054303E-01;2260; -7.3998332E-02;  0.0000000E+00;  1.0567929E-02;  1.0130875E+03;  4.1245776E-01;  1.0839993E+04;3; -1.0180314E+01;  0.0000000E+00; -3.6576347E+01;0;  3.5528996E+00;  9.7193213E+03;  0.0000000E+00;  1.0826709E-04;  1.0000000E+04;  0.0000000E+00;  9.9317637E+03;  3.3498230E+00;  0.0000000E+00;  2.0307665E-01;  3.2430873E+04;
  7.9994613E-01;  9.9999998E-03; -2.2874917E-10;2284; -3.1731717E-02;  0.0000000E+00; -8.4385379E-09;  1.0132315E+03;  4.1246402E-01;  1.0958278E+04;3; -8.2232161E+00;  0.0000000E+00; -1.2679084E-05;0;  3.6634858E+00;  9.7311768E+03;  0.0000000E+00; -3.5508360E-14;  1.0000000E+04;  0.0000000E+00;  9.9220557E+03;  3.5697904E+00;  0.0000000E+00;  9.3695395E-02;  3.7410098E+04;
  7.9994690E-01;  9.9999998E-03;  2.0084508E-02;2285; -3.1385645E-02;  0.0000000E+00; -3.8728226E-04;  1.0132493E+03;  4.1246390E-01;  1.0972989E+04;3; -8.1806803E+00;  0.0000000E+00; -5.8928719E+00;0;  3.6596978E+00;  9.7311523E+03;  0.0000000E+00;  3.6237172E-06;  1.0000000E+04;  0.0000000E+00;  9.9224346E+03;  3.5621879E+00;  0.0000000E+00;  9.7509906E-02;  3.7216992E+04;
  7.9994917E-01;  9.9999998E-03;  4.0165436E-02;2286; -3.0381821E-02;  0.0000000E+00; -4.3240612E-04;  1.0132974E+03;  4.1246420E-01;  1.1012876E+04;3; -8.0608959E+00;  0.0000000E+00; -1.1342955E+01;0;  3.6483476E+00;  9.7310762E+03;  0.0000000E+00;  1.3112001E-05;  1.0000000E+04;  0.0000000E+00;  9.9234414E+03;  3.5397670E+00;  0.0000000E+00;  1.0858069E-01;  3.6699508E+04;
  7.9995286E-01;  9.9999998E-03;  6.0241316E-02;2287; -2.8818011E-02;  0.0000000E+00; -3.4730956E-06;  1.0133614E+03;  4.1246441E-01;  1.1065794E+04;3; -7.8868752E+00;  0.0000000E+00; -1.6250019E+01;0;  3.6295302E+00;  9.7309561E+03;  0.0000000E+00;  2.5027441E-05;  1.0000000E+04;  0.0000000E+00;  9.9247988E+03;  3.5036728E+00;  0.0000000E+00;  1.2585732E-01;  3.5999430E+04;
  7.9995787E-01;  9.9999998E-03;  8.0313504E-02;2288; -2.6846336E-02;  0.0000000E+00;  7.9167442E-04;  1.0134283E+03;  4.1246471E-01;  1.1121279E+04;3; -7.6869426E+00;  0.0000000E+00; -2.0950361E+01;0;  3.6032951E+00;  9.7307969E+03;  0.0000000E+00;  3.4042994E-05;  1.0000000E+04;  0.0000000E+00;  9.9262588E+03;  3.4557829E+00;  0.0000000E+00;  1.4751217E-01;  3.5244152E+04;
  7.9996395E-01;  9.9999998E-03;  1.0038497E-01;2289; -2.4660369E-02;  0.0000000E+00;  1.8273594E-03;  1.0134962E+03;  4.1246504E-01;  1.1177455E+04;3; -7.4874148E+00;  0.0000000E+00; -2.5971615E+01;0;  3.5686877E+00;  9.7306006E+03;  0.0000000E+00;  3.2036045E-05;  1.0000000E+04;  0.0000000E+00;  9.9277627E+03;  3.3984189E+00;  0.0000000E+00;  1.7026888E-01;  3.4463938E+04;
  7.9997057E-01;  9.9999998E-03;  1.2045798E-01;2290; -2.2481015E-02;  0.0000000E+00;  3.2558115E-03;  1.0135773E+03;  4.1246548E-01;  1.1244689E+04;3; -7.3082981E+00;  0.0000000E+00; -3.1601664E+01;0;  3.5226233E+00;  9.7304199E+03;  0.0000000E+00;  1.0371901E-05;  1.0000000E+04;  0.0000000E+00;  9.9295049E+03;  3.3336585E+00;  0.0000000E+00;  1.8896489E-01;  3.3570414E+04;
  7.9997724E-01;  9.9999998E-03;  1.4053114E-01;2291; -2.0515276E-02;  0.0000000E+00;  5.4694037E-03;  1.0136962E+03;  4.1246608E-01;  1.1343122E+04;3; -7.1593852E+00;  0.0000000E+00; -3.7562248E+01;0;  3.4596524E+00;  9.7304404E+03;  0.0000000E+00; -3.5091693E-05;  1.0000000E+04;  0.0000000E+00;  9.9317900E+03;  3.2620728E+00;  0.0000000E+00;  1.9757964E-01;  3.2421512E+04;
  8.2018912E-01;  9.9999998E-03;  8.3253099E-11;2315;  3.5834484E-02;  0.0000000E+00;  3.4953782E-08;  1.0140029E+03;  4.1244584E-01;  1.1595734E+04;3; -5.4457313E-01;  0.0000000E+00; -1.1436589E-04;0;  3.5213585E+00;  9.7457256E+03;  0.0000000E+00;  1.1323049E-14;  1.0000000E+04;  0.0000000E+00;  9.9230078E+03;  3.4402692E+00;  0.0000000E+00;  8.1089139E-02;  3.6933949E+04;
  8.2018971E-01;  9.9999998E-03;  2.0082312E-02;2316;  3.5896577E-02;  0.0000000E+00; -9.0038561E-04;  1.0140212E+03;  4.1244584E-01;  1.1610937E+04;3; -5.8541298E-01;  0.0000000E+00; -5.6324730E+00;0;  3.5183525E+00;  9.7457158E+03;  0.0000000E+00; -9.5934013E-07;  1.0000000E+04;  0.0000000E+00;  9.9233799E+03;  3.4328396E+00;  0.0000000E+00;  8.5512795E-02;  3.6744465E+04;
  8.2019156E-01;  9.9999998E-03;  4.0161170E-02;2317;  3.6066219E-02;  0.0000000E+00; -1.4310774E-03;  1.0140700E+03;  4.1244593E-01;  1.1651311E+04;3; -7.0553529E-01;  0.0000000E+00; -1.1127425E+01;0;  3.5093851E+00;  9.7456807E+03;  0.0000000E+00; -3.2544999E-06;  1.0000000E+04;  0.0000000E+00;  9.9243623E+03;  3.4111304E+00;  0.0000000E+00;  9.8254792E-02;  3.6238375E+04;
  8.2019448E-01;  9.9999998E-03;  6.0235262E-02;2318;  3.6296919E-02;  0.0000000E+00; -1.2442413E-03;  1.0141334E+03;  4.1244620E-01;  1.1703729E+04;3; -8.9539343E-01;  0.0000000E+00; -1.5901941E+01;0;  3.4947209E+00;  9.7455928E+03;  0.0000000E+00; -5.9836657E-06;  1.0000000E+04;  0.0000000E+00;  9.9256758E+03;  3.3768246E+00;  0.0000000E+00;  1.1789642E-01;  3.5558730E+04;
  8.2019830E-01;  9.9999998E-03;  8.0306076E-02;2319;  3.6522936E-02;  0.0000000E+00; -4.1806488E-04;  1.0141964E+03;  4.1244644E-01;  1.1755950E+04;3; -1.1389600E+00;  0.0000000E+00; -2.0387932E+01;0;  3.4748104E+00;  9.7454248E+03;  0.0000000E+00; -9.7695565E-06;  1.0000000E+04;  0.0000000E+00;  9.9270635E+03;  3.3325896E+00;  0.0000000E+00;  1.4222078E-01;  3.4836355E+04;
  8.2020289E-01;  9.9999998E-03;  1.0037671E-01;2320;  3.6667001E-02;  0.0000000E+00;  9.2341140E-04;  1.0142534E+03;  4.1244671E-01;  1.1803136E+04;3; -1.4123647E+00;  0.0000000E+00; -2.5161428E+01;0;  3.4492099E+00;  9.7451260E+03;  0.0000000E+00; -1.8334620E-05;  1.0000000E+04;  0.0000000E+00;  9.9284629E+03;  3.2816389E+00;  0.0000000E+00;  1.6757110E-01;  3.4106895E+04;
  8.2020789E-01;  9.9999998E-03;  1.2044948E-01;2321;  3.6650963E-02;  0.0000000E+00;  2.8698612E-03;  1.0143146E+03;  4.1244724E-01;  1.1853777E+04;3; -1.6859449E+00;  0.0000000E+00; -3.0554598E+01;0;  3.4152014E+00;  9.7447109E+03;  0.0000000E+00; -3.5906942E-05;  1.0000000E+04;  0.0000000E+00;  9.9300537E+03;  3.2267649E+00;  0.0000000E+00;  1.8843642E-01;  3.3285992E+04;
  8.2021296E-01;  9.9999998E-03;  1.4052284E-01;2322;  3.6433827E-02;  0.0000000E+00;  5.6609963E-03;  1.0144022E+03;  4.1244769E-01;  1.1926334E+04;3; -1.9194688E+00;  0.0000000E+00; -3.6354374E+01;0;  3.3674514E+00;  9.7443281E+03;  0.0000000E+00; -5.7119312E-05;  1.0000000E+04;  0.0000000E+00;  9.9321367E+03;  3.1687803E+00;  0.0000000E+00;  1.9867119E-01;  3.2236537E+04;
  8.4044522E-01;  9.9999998E-03;  3.2699798E-10;2346;  1.0766234E-01;  0.0000000E+00;  6.8354176E-08;  1.0144778E+03;  4.1224185E-01;  1.1987034E+04;3;  8.3517656E+00;  0.0000000E+00; -9.3973184E-05;0;  3.3611867E+00;  9.7628438E+03;  0.0000000E+00; -2.1023283E-14;  1.0000000E+04;  0.0000000E+00;  9.9246045E+03;  3.2783611E+00;  0.0000000E+00;  8.2825691E-02;  3.6106992E+04;
  8.4044570E-01;  9.9999998E-03;  2.0080084E-02;2347;  1.0747445E-01;  0.0000000E+00; -7.7634770E-04;  1.0144935E+03;  4.1224197E-01;  1.2000063E+04;3;  8.2527018E+00;  0.0000000E+00; -5.3172350E+00;0;  3.3600006E+00;  9.7628086E+03;  0.0000000E+00; -8.5564045E-07;  1.0000000E+04;  0.0000000E+00;  9.9249502E+03;  3.2723145E+00;  0.0000000E+00;  8.7685987E-02;  3.5930391E+04;
  8.4044701E-01;  9.9999998E-03;  4.0156946E-02;2348;  1.0691778E-01;  0.0000000E+00; -1.0539540E-03;  1.0145341E+03;  4.1224197E-01;  1.2033620E+04;3;  7.9682646E+00;  0.0000000E+00; -1.0322379E+01;0;  3.3564444E+00;  9.7626934E+03;  0.0000000E+00; -3.4001268E-06;  1.0000000E+04;  0.0000000E+00;  9.9258555E+03;  3.2548277E+00;  0.0000000E+00;  1.0161664E-01;  3.5462074E+04;
  8.4044909E-01;  9.9999998E-03;  6.0229447E-02;2349;  1.0601952E-01;  0.0000000E+00; -4.7426391E-04;  1.0145831E+03;  4.1224211E-01;  1.2074186E+04;3;  7.5357928E+00;  0.0000000E+00; -1.4647399E+01;0;  3.3506825E+00;  9.7624521E+03;  0.0000000E+00; -7.9285446E-06;  1.0000000E+04;  0.0000000E+00;  9.9270410E+03;  3.2278061E+00;  0.0000000E+00;  1.2287634E-01;  3.4842605E+04;
  8.4045196E-01;  9.9999998E-03;  8.0299214E-02;2350;  1.0483566E-01;  0.0000000E+00;  9.3241903E-04;  1.0146237E+03;  4.1224268E-01;  1.2107843E+04;3;  7.0142350E+00;  0.0000000E+00; -1.8715317E+01;0;  3.3430321E+00;  9.7620146E+03;  0.0000000E+00; -1.6132832E-05;  1.0000000E+04;  0.0000000E+00;  9.9282705E+03;  3.1942103E+00;  0.0000000E+00;  1.4882173E-01;  3.4200008E+04;
  8.4045553E-01;  9.9999998E-03;  1.0036948E-01;2351;  1.0345599E-01;  0.0000000E+00;  3.0669007E-03;  1.0146493E+03;  4.1224292E-01;  1.2128964E+04;3;  6.4786086E+00;  0.0000000E+00; -2.3084652E+01;0;  3.3328440E+00;  9.7613057E+03;  0.0000000E+00; -3.0662668E-05;  1.0000000E+04;  0.0000000E+00;  9.9294688E+03;  3.1575019E+00;  0.0000000E+00;  1.7534210E-01;  3.3567141E+04;
  8.4045988E-01;  9.9999998E-03;  1.2044264E-01;2352;  1.0200642E-01;  0.0000000E+00;  5.9819091E-03;  1.0146682E+03;  4.1224334E-01;  1.2144559E+04;3;  6.0130663E+00;  0.0000000E+00; -2.8113844E+01;0;  3.3169870E+00;  9.7603027E+03;  0.0000000E+00; -5.0033803E-05;  1.0000000E+04;  0.0000000E+00;  9.9308428E+03;  3.1205244E+00;  0.0000000E+00;  1.9646254E-01;  3.2854758E+04;
  8.4046513E-01;  9.9999998E-03;  1.4051701E-01;2353;  1.0066545E-01;  0.0000000E+00;  9.7855302E-03;  1.0147028E+03;  4.1224378E-01;  1.2173278E+04;3;  5.7112927E+00;  0.0000000E+00; -3.3636848E+01;0;  3.2895637E+00;  9.7591240E+03;  0.0000000E+00; -5.8708683E-05;  1.0000000E+04;  0.0000000E+00;  9.9326914E+03;  3.0838230E+00;  0.0000000E+00;  2.0574059E-01;  3.1920215E+04;
  8.6070460E-01;  9.9999998E-03;  2.7743793E-10;2377;  1.8013977E-01;  0.0000000E+00;  9.5927426E-08;  1.0147066E+03;  4.1184166E-01;  1.2173707E+04;3;  1.7653307E+01;  0.0000000E+00;  7.9587917E-06;0;  3.1620803E+00;  9.7842939E+03;  0.0000000E+00;  3.9260970E-14;  1.0000000E+04;  0.0000000E+00;  9.9265947E+03;  3.0633876E+00;  0.0000000E+00;  9.8692730E-02;  3.5055363E+04;
  8.6070496E-01;  9.9999998E-03;  2.0077944E-02;2378;  1.7976266E-01;  0.0000000E+00; -5.3593572E-05;  1.0147173E+03;  4.1184169E-01;  1.2182588E+04;3;  1.7519817E+01;  0.0000000E+00; -4.7502937E+00;0;  3.1632395E+00;  9.7841992E+03;  0.0000000E+00;  2.5377247E-07;  1.0000000E+04;  0.0000000E+00;  9.9269043E+03;  3.0596089E+00;  0.0000000E+00;  1.0363057E-01;  3.4895941E+04;
  8.6070591E-01;  9.9999998E-03;  4.0152896E-02;2379;  1.7866370E-01;  0.0000000E+00;  4.5992350E-04;  1.0147435E+03;  4.1184163E-01;  1.2204198E+04;3;  1.7139172E+01;  0.0000000E+00; -9.0488539E+00;0;  3.1666174E+00;  9.7839004E+03;  0.0000000E+00; -3.4255180E-07;  1.0000000E+04;  0.0000000E+00;  9.9277129E+03;  3.0488622E+00;  0.0000000E+00;  1.1775529E-01;  3.4477559E+04;
  8.6070758E-01;  9.9999998E-03;  6.0223863E-02;2380;  1.7694631E-01;  0.0000000E+00;  1.8510852E-03;  1.0147676E+03;  4.1184190E-01;  1.2224131E+04;3;  1.6568510E+01;  0.0000000E+00; -1.2797265E+01;0;  3.1720612E+00;  9.7833398E+03;  0.0000000E+00; -5.2537157E-06;  1.0000000E+04;  0.0000000E+00;  9.9287422E+03;  3.0328658E+00;  0.0000000E+00;  1.3919543E-01;  3.3936453E+04;
  8.6070997E-01;  9.9999998E-03;  8.0292568E-02;2381;  1.7479433E-01;  0.0000000E+00;  4.1245297E-03;  1.0147744E+03;  4.1184220E-01;  1.2229756E+04;3;  1.5898215E+01;  0.0000000E+00; -1.6349819E+01;0;  3.1792810E+00;  9.7824453E+03;  0.0000000E+00; -1.8467117E-05;  1.0000000E+04;  0.0000000E+00;  9.9297666E+03;  3.0142450E+00;  0.0000000E+00;  1.6503589E-01;  3.3393844E+04;
  8.6071348E-01;  9.9999998E-03;  1.0036232E-01;2382;  1.7247497E-01;  0.0000000E+00;  7.1925092E-03;  1.0147562E+03;  4.1184255E-01;  1.2214755E+04;3;  1.5243996E+01;  0.0000000E+00; -2.0270649E+01;0;  3.1867785E+00;  9.7811172E+03;  0.0000000E+00; -3.9808747E-05;  1.0000000E+04;  0.0000000E+00;  9.9307422E+03;  2.9959741E+00;  0.0000000E+00;  1.9080451E-01;  3.2872996E+04;
  8.6071855E-01;  9.9999998E-03;  1.2043555E-01;2383;  1.7033263E-01;  0.0000000E+00;  1.1096074E-02;  1.0147231E+03;  4.1184306E-01;  1.2187421E+04;3;  1.4739263E+01;  0.0000000E+00; -2.4924614E+01;0;  3.1903868E+00;  9.7793281E+03;  0.0000000E+00; -5.8223406E-05;  1.0000000E+04;  0.0000000E+00;  9.9318877E+03;  2.9802613E+00;  0.0000000E+00;  2.1012551E-01;  3.2272838E+04;
  8.6072582E-01;  9.9999998E-03;  1.4051059E-01;2384;  1.6877703E-01;  0.0000000E+00;  1.5869727E-02;  1.0146964E+03;  4.1184345E-01;  1.2165218E+04;3;  1.4527207E+01;  0.0000000E+00; -3.0162781E+01;0;  3.1831775E+00;  9.7771719E+03;  0.0000000E+00; -5.3043659E-05;  1.0000000E+04;  0.0000000E+00;  9.9335469E+03;  2.9669459E+00;  0.0000000E+00;  2.1623148E-01;  3.1438008E+04;
  8.8095063E-01;  9.9999998E-03; -6.4228317E-11;2408;  2.4918427E-01;  0.0000000E+00;  6.6674190E-08;  1.0148835E+03;  4.1126746E-01;  1.2316404E+04;3;  2.6996439E+01;  0.0000000E+00;  3.3694785E-05;0;  2.8818128E+00;  9.8128359E+03;  0.0000000E+00; -5.4668701E-15;  1.0000000E+04;  0.0000000E+00;  9.9289150E+03;  2.7569399E+00;  0.0000000E+00;  1.2487298E-01;  3.3826785E+04;
  8.8095093E-01;  9.9999998E-03;  2.0075724E-02;2409;  2.4868365E-01;  0.0000000E+00;  1.0557445E-03;  1.0148883E+03;  4.1126737E-01;  1.2320351E+04;3;  2.6843946E+01;  0.0000000E+00; -3.9912257E+00;0;  2.8853238E+00;  9.8126563E+03;  0.0000000E+00;  7.8013301E-08;  1.0000000E+04;  0.0000000E+00;  9.9291885E+03;  2.7558937E+00;  0.0000000E+00;  1.2943010E-01;  3.3684242E+04;
  8.8095182E-01;  9.9999998E-03;  4.0148620E-02;2410;  2.4723619E-01;  0.0000000E+00;  2.6354587E-03;  1.0148969E+03;  4.1126752E-01;  1.2327453E+04;3;  2.6409021E+01;  0.0000000E+00; -7.5781307E+00;0;  2.8956385E+00;  9.8121152E+03;  0.0000000E+00; -1.6706625E-06;  1.0000000E+04;  0.0000000E+00;  9.9299023E+03;  2.7531502E+00;  0.0000000E+00;  1.4248823E-01;  3.3314898E+04;
  8.8095349E-01;  9.9999998E-03;  6.0217798E-02;2411;  2.4501130E-01;  0.0000000E+00;  5.0122393E-03;  1.0148934E+03;  4.1126755E-01;  1.2324592E+04;3;  2.5759275E+01;  0.0000000E+00; -1.0699779E+01;0;  2.9121993E+00;  9.8111592E+03;  0.0000000E+00; -9.5129290E-06;  1.0000000E+04;  0.0000000E+00;  9.9307871E+03;  2.7498586E+00;  0.0000000E+00;  1.6234075E-01;  3.2850723E+04;
  8.8095611E-01;  9.9999998E-03;  8.0284983E-02;2412;  2.4230012E-01;  0.0000000E+00;  8.1693595E-03;  1.0148623E+03;  4.1126785E-01;  1.2298843E+04;3;  2.5002083E+01;  0.0000000E+00; -1.3730252E+01;0;  2.9339128E+00;  9.8097295E+03;  0.0000000E+00; -2.6469121E-05;  1.0000000E+04;  0.0000000E+00;  9.9316182E+03;  2.7477546E+00;  0.0000000E+00;  1.8615824E-01;  3.2405088E+04;
  8.8096040E-01;  9.9999998E-03;  1.0035349E-01;2413;  2.3951811E-01;  0.0000000E+00;  1.2022762E-02;  1.0147994E+03;  4.1126829E-01;  1.2246756E+04;3;  2.4278593E+01;  0.0000000E+00; -1.7233854E+01;0;  2.9580934E+00;  9.8077324E+03;  0.0000000E+00; -4.6915517E-05;  1.0000000E+04;  0.0000000E+00;  9.9323838E+03;  2.7486992E+00;  0.0000000E+00;  2.0939416E-01;  3.1989430E+04;
  8.8096720E-01;  9.9999998E-03;  1.2042578E-01;2414;  2.3719341E-01;  0.0000000E+00;  1.6630433E-02;  1.0147147E+03;  4.1126880E-01;  1.2176715E+04;3;  2.3755804E+01;  0.0000000E+00; -2.1562243E+01;0;  2.9792881E+00;  9.8051465E+03;  0.0000000E+00; -5.4243243E-05;  1.0000000E+04;  0.0000000E+00;  9.9333379E+03;  2.7537971E+00;  0.0000000E+00;  2.2549094E-01;  3.1488412E+04;
  8.8097769E-01;  9.9999998E-03;  1.4050025E-01;2415;  2.3592900E-01;  0.0000000E+00;  2.2030149E-02;  1.0146313E+03;  4.1126937E-01;  1.2107758E+04;3;  2.3614372E+01;  0.0000000E+00; -2.6550896E+01;0;  2.9894991E+00;  9.8020322E+03;  0.0000000E+00; -3.8086015E-05;  1.0000000E+04;  0.0000000E+00;  9.9348447E+03;  2.7620504E+00;  0.0000000E+00;  2.2744869E-01;  3.0731998E+04;
  9.0116918E-01;  9.9999998E-03; -9.3303844E-11;2439;  3.1273070E-01;  0.0000000E+00;  3.6554070E-08;  1.0151191E+03;  4.1055125E-01;  1.2506199E+04;3;  3.6888802E+01;  0.0000000E+00;  2.5533489E-05;0;  2.4959898E+00;  9.8491387E+03;  0.0000000E+00;  3.4653107E-14;  1.0000000E+04;  0.0000000E+00;  9.9315732E+03;  2.3398168E+00;  0.0000000E+00;  1.5617304E-01;  3.2425119E+04;
  9.0116954E-01;  9.9999998E-03;  2.0073127E-02;2440;  3.1216979E-01;  0.0000000E+00;  2.2677090E-03;  1.0151191E+03;  4.1055116E-01;  1.2506298E+04;3;  3.6722408E+01;  0.0000000E+00; -3.2358880E+00;0;  2.5014365E+00;  9.8488887E+03;  0.0000000E+00; -1.3295520E-06;  1.0000000E+04;  0.0000000E+00;  9.9318232E+03;  2.3415127E+00;  0.0000000E+00;  1.5992390E-01;  3.2296689E+04;
  9.0117073E-01;  9.9999998E-03;  4.0143523E-02;2441;  3.1055823E-01;  0.0000000E+00;  4.9556345E-03;  1.0151118E+03;  4.1055104E-01;  1.2500184E+04;3;  3.6248161E+01;  0.0000000E+00; -6.1274953E+00;0;  2.5174792E+00;  9.8481143E+03;  0.0000000E+00; -6.5837603E-06;  1.0000000E+04;  0.0000000E+00;  9.9324580E+03;  2.3467271E+00;  0.0000000E+00;  1.7075214E-01;  3.1968334E+04;
  9.0117294E-01;  9.9999998E-03;  6.0210306E-02;2442;  3.0811217E-01;  0.0000000E+00;  8.2522910E-03;  1.0150827E+03;  4.1055110E-01;  1.2476124E+04;3;  3.5537014E+01;  0.0000000E+00; -8.6589174E+00;0;  2.5432324E+00;  9.8467959E+03;  0.0000000E+00; -1.7413771E-05;  1.0000000E+04;  0.0000000E+00;  9.9332227E+03;  2.3558106E+00;  0.0000000E+00;  1.8742184E-01;  3.1568564E+04;
  9.0117657E-01;  9.9999998E-03;  8.0275163E-02;2443;  3.0519289E-01;  0.0000000E+00;  1.2098082E-02;  1.0150198E+03;  4.1055125E-01;  1.2424156E+04;3;  3.4701065E+01;  0.0000000E+00; -1.1223159E+01;0;  2.5769000E+00;  9.8448916E+03;  0.0000000E+00; -3.1540647E-05;  1.0000000E+04;  0.0000000E+00;  9.9338975E+03;  2.3692796E+00;  0.0000000E+00;  2.0762047E-01;  3.1204010E+04;
  9.0118241E-01;  9.9999998E-03;  1.0034133E-01;2444;  3.0230516E-01;  0.0000000E+00;  1.6416272E-02;  1.0149203E+03;  4.1055170E-01;  1.2341817E+04;3;  3.3889099E+01;  0.0000000E+00; -1.4375420E+01;0;  2.6147408E+00;  9.8423467E+03;  0.0000000E+00; -3.7417885E-05;  1.0000000E+04;  0.0000000E+00;  9.9344990E+03;  2.3875899E+00;  0.0000000E+00;  2.2715081E-01;  3.0876170E+04;
  9.0119171E-01;  9.9999998E-03;  1.2041132E-01;2445;  3.0008221E-01;  0.0000000E+00;  2.1316726E-02;  1.0147955E+03;  4.1055223E-01;  1.2238474E+04;3;  3.3281124E+01;  0.0000000E+00; -1.8436131E+01;0;  2.6502140E+00;  9.8391309E+03;  0.0000000E+00; -2.1652459E-05;  1.0000000E+04;  0.0000000E+00;  9.9352852E+03;  2.4106169E+00;  0.0000000E+00;  2.3959707E-01;  3.0458211E+04;
  9.0120578E-01;  9.9999998E-03;  1.4048369E-01;2446;  2.9923886E-01;  0.0000000E+00;  2.6914710E-02;  1.0146683E+03;  4.1055262E-01;  1.2133255E+04;3;  3.3075169E+01;  0.0000000E+00; -2.3197973E+01;0;  2.6746268E+00;  9.8352793E+03;  0.0000000E+00; -2.2153160E-06;  1.0000000E+04;  0.0000000E+00;  9.9366719E+03;  2.4367621E+00;  0.0000000E+00;  2.3786478E-01;  2.9767951E+04;
  9.2131132E-01;  9.9999998E-03;  1.6334356E-11;2470;  3.6328399E-01;  0.0000000E+00;  1.4864556E-08;  1.0153449E+03;  4.0973061E-01;  1.2685952E+04;3;  4.8073303E+01;  0.0000000E+00; -1.0060758E-05;0;  2.0257759E+00;  9.8901230E+03;  0.0000000E+00; -2.0580346E-14;  1.0000000E+04;  0.0000000E+00;  9.9345586E+03;  1.8378346E+00;  0.0000000E+00;  1.8794119E-01;  3.0845143E+04;
  9.2131221E-01;  9.9999998E-03;  2.0070057E-02;2471;  3.6279410E-01;  0.0000000E+00;  3.3605222E-03;  1.0153409E+03;  4.0973055E-01;  1.2682700E+04;3;  4.7895466E+01;  0.0000000E+00; -2.5659244E+00;0;  2.0324116E+00;  9.8898154E+03;  0.0000000E+00; -2.1442529E-06;  1.0000000E+04;  0.0000000E+00;  9.9347900E+03;  1.8417959E+00;  0.0000000E+00;  1.9061577E-01;  3.0728313E+04;
  9.2131501E-01;  9.9999998E-03;  4.0137377E-02;2472;  3.6140305E-01;  0.0000000E+00;  6.9931168E-03;  1.0153234E+03;  4.0973070E-01;  1.2668211E+04;3;  4.7387081E+01;  0.0000000E+00; -4.8528714E+00;0;  2.0520017E+00;  9.8888975E+03;  0.0000000E+00; -8.1989238E-06;  1.0000000E+04;  0.0000000E+00;  9.9353682E+03;  1.8535211E+00;  0.0000000E+00;  1.9848059E-01;  3.0433262E+04;
  9.2132002E-01;  9.9999998E-03;  6.0200997E-02;2473;  3.5935023E-01;  0.0000000E+00;  1.0970855E-02;  1.0152791E+03;  4.0973061E-01;  1.2631547E+04;3;  4.6620102E+01;  0.0000000E+00; -6.8891654E+00;0;  2.0835600E+00;  9.8873564E+03;  0.0000000E+00; -1.5279535E-05;  1.0000000E+04;  0.0000000E+00;  9.9360439E+03;  1.8725632E+00;  0.0000000E+00;  2.1099669E-01;  3.0084863E+04;
  9.2132771E-01;  9.9999998E-03;  8.0262467E-02;2474;  3.5700923E-01;  0.0000000E+00;  1.5181852E-02;  1.0151965E+03;  4.0973097E-01;  1.2563346E+04;3;  4.5703823E+01;  0.0000000E+00; -9.0779572E+00;0;  2.1249595E+00;  9.8851895E+03;  0.0000000E+00; -1.4254673E-05;  1.0000000E+04;  0.0000000E+00;  9.9365986E+03;  1.8982476E+00;  0.0000000E+00;  2.2671175E-01;  2.9784457E+04;
  9.2133886E-01;  9.9999998E-03;  1.0032500E-01;2475;  3.5487631E-01;  0.0000000E+00;  1.9578656E-02;  1.0150762E+03;  4.0973115E-01;  1.2463900E+04;3;  4.4778313E+01;  0.0000000E+00; -1.1951507E+01;0;  2.1719041E+00;  9.8823691E+03;  0.0000000E+00;  1.1374044E-05;  1.0000000E+04;  0.0000000E+00;  9.9370645E+03;  1.9297373E+00;  0.0000000E+00;  2.4216674E-01;  2.9526941E+04;
  9.2135435E-01;  9.9999998E-03;  1.2039124E-01;2476;  3.5355505E-01;  0.0000000E+00;  2.4370430E-02;  1.0149294E+03;  4.0973136E-01;  1.2342477E+04;3;  4.4011475E+01;  0.0000000E+00; -1.5781948E+01;0;  2.2173653E+00;  9.8788545E+03;  0.0000000E+00;  6.7075569E-05;  1.0000000E+04;  0.0000000E+00;  9.9377266E+03;  1.9659561E+00;  0.0000000E+00;  2.5140911E-01;  2.9179295E+04;
  9.2137563E-01;  9.9999998E-03;  1.4046009E-01;2477;  3.5375097E-01;  0.0000000E+00;  2.9819900E-02;  1.0147775E+03;  4.0973157E-01;  1.2216913E+04;3;  4.3592030E+01;  0.0000000E+00; -2.0302952E+01;0;  2.2526245E+00;  9.8746338E+03;  0.0000000E+00;  9.7971970E-05;  1.0000000E+04;  0.0000000E+00;  9.9389902E+03;  2.0052516E+00;  0.0000000E+00;  2.4737278E-01;  2.8552566E+04;
  9.4136077E-01;  9.9999998E-03;  1.6812564E-10;2501;  3.9208999E-01;  0.0000000E+00;  3.5461301E-08;  1.0153715E+03;  4.0884694E-01;  1.2698604E+04;3;  6.0583752E+01;  0.0000000E+00;  8.2857732E-06;0;  1.5303880E+00;  9.9302295E+03;  0.0000000E+00;  1.1645965E-14;  1.0000000E+04;  0.0000000E+00;  9.9378252E+03;  1.3133610E+00;  0.0000000E+00;  2.1702693E-01;  2.9091031E+04;
  9.4136232E-01;  9.9999998E-03;  2.0066181E-02;2502;  3.9190063E-01;  0.0000000E+00;  4.1980161E-03;  1.0153661E+03;  4.0884697E-01;  1.2694071E+04;3;  6.0405396E+01;  0.0000000E+00; -2.0223386E+00;0;  1.5372577E+00;  9.9299150E+03;  0.0000000E+00; -1.0408797E-06;  1.0000000E+04;  0.0000000E+00;  9.9380381E+03;  1.3186877E+00;  0.0000000E+00;  2.1856998E-01;  2.8985363E+04;
  9.4136715E-01;  9.9999998E-03;  4.0129747E-02;2503;  3.9138824E-01;  0.0000000E+00;  8.5275676E-03;  1.0153449E+03;  4.0884694E-01;  1.2676540E+04;3;  5.9889591E+01;  0.0000000E+00; -3.8327196E+00;0;  1.5576404E+00;  9.9289678E+03;  0.0000000E+00; -2.1320031E-06;  1.0000000E+04;  0.0000000E+00;  9.9385703E+03;  1.3343114E+00;  0.0000000E+00;  2.2332905E-01;  2.8721279E+04;
  9.4137543E-01;  9.9999998E-03;  6.0189631E-02;2504;  3.9064983E-01;  0.0000000E+00;  1.2938058E-02;  1.0152952E+03;  4.0884694E-01;  1.2635469E+04;3;  5.9105247E+01;  0.0000000E+00; -5.4983525E+00;0;  1.5907706E+00;  9.9274014E+03;  0.0000000E+00;  4.1232115E-06;  1.0000000E+04;  0.0000000E+00;  9.9391650E+03;  1.3592287E+00;  0.0000000E+00;  2.3154189E-01;  2.8417900E+04;
  9.4138747E-01;  9.9999998E-03;  8.0247201E-02;2505;  3.8989806E-01;  0.0000000E+00;  1.7265044E-02;  1.0152084E+03;  4.0884697E-01;  1.2563868E+04;3;  5.8144009E+01;  0.0000000E+00; -7.4161110E+00;0;  1.6347166E+00;  9.9252344E+03;  0.0000000E+00;  3.1888521E-05;  1.0000000E+04;  0.0000000E+00;  9.9396289E+03;  1.3919469E+00;  0.0000000E+00;  2.4276975E-01;  2.8170805E+04;
  9.4140369E-01;  9.9999998E-03;  1.0030546E-01;2506;  3.8944098E-01;  0.0000000E+00;  2.1482375E-02;  1.0150847E+03;  4.0884706E-01;  1.2461538E+04;3;  5.7130138E+01;  0.0000000E+00; -1.0076934E+01;0;  1.6853143E+00;  9.9224531E+03;  0.0000000E+00;  1.0043088E-04;  1.0000000E+04;  0.0000000E+00;  9.9399912E+03;  1.4308103E+00;  0.0000000E+00;  2.5450400E-01;  2.7970631E+04;
  9.4142491E-01;  9.9999998E-03;  1.2036714E-01;2507;  3.8974580E-01;  0.0000000E+00;  2.5923828E-02;  1.0149371E+03;  4.0884709E-01;  1.2339610E+04;3;  5.6193295E+01;  0.0000000E+00; -1.3689839E+01;0;  1.7357812E+00;  9.9190205E+03;  0.0000000E+00;  2.1094545E-04;  1.0000000E+04;  0.0000000E+00;  9.9405352E+03;  1.4743378E+00;  0.0000000E+00;  2.6144338E-01;  2.7683180E+04;
  9.4145226E-01;  9.9999998E-03;  1.4043166E-01;2508;  3.9135936E-01;  0.0000000E+00;  3.1054655E-02;  1.0147816E+03;  4.0884715E-01;  1.2211177E+04;3;  5.5482944E+01;  0.0000000E+00; -1.7925449E+01;0;  1.7780851E+00;  9.9148350E+03;  0.0000000E+00;  2.8412341E-04;  1.0000000E+04;  0.0000000E+00;  9.9416846E+03;  1.5214558E+00;  0.0000000E+00;  2.5662932E-01;  2.7118896E+04;
  9.6136934E-01;  9.9999998E-03;  4.6558146E-11;2532;  4.0460861E-01;  0.0000000E+00; -6.8167592E-09;  1.0150352E+03;  4.0793794E-01;  1.2408410E+04;3;  7.1301674E+01;  0.0000000E+00; -3.0914234E-05;0;  1.0749590E+00;  9.9644980E+03;  0.0000000E+00;  6.1523120E-14;  1.0000000E+04;  0.0000000E+00;  9.9412705E+03;  8.3322459E-01;  0.0000000E+00;  2.4173443E-01;  2.7186760E+04;
  9.6137136E-01;  9.9999998E-03;  2.0061994E-02;2533;  4.0473473E-01;  0.0000000E+00;  5.0088768E-03;  1.0150302E+03;  4.0793777E-01;  1.2404276E+04;3;  7.1271889E+01;  0.0000000E+00; -1.5058242E+00;0;  1.0811821E+00;  9.9642041E+03;  0.0000000E+00;  1.1674034E-07;  1.0000000E+04;  0.0000000E+00;  9.9414609E+03;  8.3888626E-01;  0.0000000E+00;  2.4229591E-01;  2.7093863E+04;
  9.6137744E-01;  9.9999998E-03;  4.0121380E-02;2534;  4.0509409E-01;  0.0000000E+00;  9.9659897E-03;  1.0150101E+03;  4.0793794E-01;  1.2387646E+04;3;  7.1000137E+01;  0.0000000E+00; -2.9164507E+00;0;  1.0998118E+00;  9.9633369E+03;  0.0000000E+00;  4.6294549E-06;  1.0000000E+04;  0.0000000E+00;  9.9419355E+03;  8.5544950E-01;  0.0000000E+00;  2.4436225E-01;  2.6863760E+04;
  9.6138787E-01;  9.9999998E-03;  6.0177378E-02;2535;  4.0576532E-01;  0.0000000E+00;  1.4777773E-02;  1.0149639E+03;  4.0793782E-01;  1.2349467E+04;3;  7.0632050E+01;  0.0000000E+00; -4.2978258E+00;0;  1.1305618E+00;  9.9619121E+03;  0.0000000E+00;  2.4928235E-05;  1.0000000E+04;  0.0000000E+00;  9.9424521E+03;  8.8170040E-01;  0.0000000E+00;  2.4886145E-01;  2.6605660E+04;
  9.6140277E-01;  9.9999998E-03;  8.0231242E-02;2536;  4.0679300E-01;  0.0000000E+00;  1.9252338E-02;  1.0148841E+03;  4.0793774E-01;  1.2283638E+04;3;  7.0065414E+01;  0.0000000E+00; -6.0325150E+00;0;  1.1721512E+00;  9.9599561E+03;  0.0000000E+00;  7.7143435E-05;  1.0000000E+04;  0.0000000E+00;  9.9428369E+03;  9.1585416E-01;  0.0000000E+00;  2.5629708E-01;  2.6406256E+04;
  9.6142256E-01;  9.9999998E-03;  1.0028566E-01;2537;  4.0834218E-01;  0.0000000E+00;  2.3374077E-02;  1.0147714E+03;  4.0793771E-01;  1.2190654E+04;3;  6.9374039E+01;  0.0000000E+00; -8.5483885E+00;0;  1.2211239E+00;  9.9574707E+03;  0.0000000E+00;  1.8019120E-04;  1.0000000E+04;  0.0000000E+00;  9.9431143E+03;  9.5603096E-01;  0.0000000E+00;  2.6509297E-01;  2.6252215E+04;
  9.6144766E-01;  9.9999998E-03;  1.2034308E-01;2538;  4.1059899E-01;  0.0000000E+00;  2.7537664E-02;  1.0146379E+03;  4.0793765E-01;  1.2080449E+04;3;  6.8556068E+01;  0.0000000E+00; -1.1963103E+01;0;  1.2715468E+00;  9.9543936E+03;  0.0000000E+00;  3.3746817E-04;  1.0000000E+04;  0.0000000E+00;  9.9435791E+03;  1.0009396E+00;  0.0000000E+00;  2.7060723E-01;  2.6011676E+04;
  9.6147901E-01;  9.9999998E-03;  1.4040339E-01;2539;  4.1389596E-01;  0.0000000E+00;  3.2424815E-02;  1.0144958E+03;  4.0793747E-01;  1.1963059E+04;3;  6.7731850E+01;  0.0000000E+00; -1.5879390E+01;0;  1.3165599E+00;  9.9505625E+03;  0.0000000E+00;  4.7364406E-04;  1.0000000E+04;  0.0000000E+00;  9.9446250E+03;  1.0505383E+00;  0.0000000E+00;  2.6602161E-01;  2.5500555E+04;
  9.8136127E-01;  9.9999998E-03; -4.7459380E-11;2563;  4.0829888E-01;  0.0000000E+00; -3.6515759E-09;  1.0142946E+03;  4.0703845E-01;  1.1781266E+04;3;  7.6371849E+01;  0.0000000E+00;  3.7841965E-06;0;  7.0459557E-01;  9.9904609E+03;  0.0000000E+00;  1.0817604E-14;  1.0000000E+04;  0.0000000E+00;  9.9447783E+03;  4.4345996E-01;  0.0000000E+00;  2.6113558E-01;  2.5172227E+04;
  9.8136353E-01;  9.9999998E-03;  2.0057620E-02;2564;  4.0856925E-01;  0.0000000E+00;  5.6516798E-03;  1.0142903E+03;  4.0703848E-01;  1.1777825E+04;3;  7.6399979E+01;  0.0000000E+00; -9.9490398E-01;0;  7.0965636E-01;  9.9902109E+03;  0.0000000E+00; -1.3518666E-06;  1.0000000E+04;  0.0000000E+00;  9.9449414E+03;  4.4864589E-01;  0.0000000E+00;  2.6101044E-01;  2.5094543E+04;
  9.8137033E-01;  9.9999998E-03;  4.0113173E-02;2565;  4.0939102E-01;  0.0000000E+00;  1.1253175E-02;  1.0142734E+03;  4.0703836E-01;  1.1763866E+04;3;  7.6512566E+01;  0.0000000E+00; -1.9221650E+00;0;  7.2499609E-01;  9.9894736E+03;  0.0000000E+00;  1.6081331E-06;  1.0000000E+04;  0.0000000E+00;  9.9453467E+03;  4.6381643E-01;  0.0000000E+00;  2.6117969E-01;  2.4903361E+04;
  9.8138177E-01;  9.9999998E-03;  6.0165763E-02;2566;  4.1079172E-01;  0.0000000E+00;  1.6632166E-02;  1.0142347E+03;  4.0703827E-01;  1.1731926E+04;3;  7.6613152E+01;  0.0000000E+00; -2.8604565E+00;0;  7.5088829E-01;  9.9882725E+03;  0.0000000E+00;  2.5043513E-05;  1.0000000E+04;  0.0000000E+00;  9.9457822E+03;  4.8785803E-01;  0.0000000E+00;  2.6303026E-01;  2.4692525E+04;
  9.8139805E-01;  9.9999998E-03;  8.0216393E-02;2567;  4.1278988E-01;  0.0000000E+00;  2.1519834E-02;  1.0141666E+03;  4.0703830E-01;  1.1675811E+04;3;  7.6480278E+01;  0.0000000E+00; -4.2361937E+00;0;  7.8688383E-01;  9.9866260E+03;  0.0000000E+00;  8.4573869E-05;  1.0000000E+04;  0.0000000E+00;  9.9460918E+03;  5.1914465E-01;  0.0000000E+00;  2.6773918E-01;  2.4534764E+04;
  9.8141950E-01;  9.9999998E-03;  1.0026756E-01;2568;  4.1546816E-01;  0.0000000E+00;  2.5942631E-02;  1.0140712E+03;  4.0703806E-01;  1.1597191E+04;3;  7.6387695E+01;  0.0000000E+00; -6.3717675E+00;0;  8.3050007E-01;  9.9845332E+03;  0.0000000E+00;  1.9130633E-04;  1.0000000E+04;  0.0000000E+00;  9.9463154E+03;  5.5605674E-01;  0.0000000E+00;  2.7444333E-01;  2.4411729E+04;
  9.8144656E-01;  9.9999998E-03;  1.2032168E-01;2569;  4.1888481E-01;  0.0000000E+00;  3.0354034E-02;  1.0139594E+03;  4.0703791E-01;  1.1505008E+04;3;  7.5900764E+01;  0.0000000E+00; -9.3639212E+00;0;  8.7686551E-01;  9.9819160E+03;  0.0000000E+00;  3.4972007E-04;  1.0000000E+04;  0.0000000E+00;  9.9467383E+03;  5.9783566E-01;  0.0000000E+00;  2.7902985E-01;  2.4196807E+04;
  9.8147994E-01;  9.9999998E-03;  1.4037868E-01;2570;  4.2325795E-01;  0.0000000E+00;  3.5489067E-02;  1.0138392E+03;  4.0703776E-01;  1.1405846E+04;3;  7.5298546E+01;  0.0000000E+00; -1.2741521E+01;0;  9.2038804E-01;  9.9785508E+03;  0.0000000E+00;  5.1413185E-04;  1.0000000E+04;  0.0000000E+00;  9.9477383E+03;  6.4554495E-01;  0.0000000E+00;  2.7484310E-01;  2.3717135E+04;
  1.0013440E+00;  9.9999998E-03;  8.5826387E-13;2594;  4.0807691E-01;  0.0000000E+00; -1.1923500E-08;  1.0132276E+03;  4.0617770E-01;  1.0882330E+04;3;  7.8803749E+01;  0.0000000E+00; -1.4781952E-05;0;  4.3329185E-01;  1.0008256E+04;  0.0000000E+00; -2.4261993E-14;  1.0000000E+04;  0.0000000E+00;  9.9482490E+03;  1.5853427E-01;  0.0000000E+00;  2.7475759E-01;  2.3089121E+04;
  1.0013465E+00;  9.9999998E-03;  2.0053850E-02;2595;  4.0842381E-01;  0.0000000E+00;  6.1864723E-03;  1.0132242E+03;  4.0617761E-01;  1.0879581E+04;3;  7.8829689E+01;  0.0000000E+00; -6.0745716E-01;0;  4.3712085E-01;  1.0008055E+04;  0.0000000E+00; -5.3015192E-06;  1.0000000E+04;  0.0000000E+00;  9.9483818E+03;  1.6283391E-01;  0.0000000E+00;  2.7428693E-01;  2.3028107E+04;
  1.0013539E+00;  9.9999998E-03;  4.0105924E-02;2596;  4.0948620E-01;  0.0000000E+00;  1.2200076E-02;  1.0132105E+03;  4.0617749E-01;  1.0868294E+04;3;  7.8967293E+01;  0.0000000E+00; -1.2085911E+00;0;  4.4891226E-01;  1.0007450E+04;  0.0000000E+00; -1.0586567E-05;  1.0000000E+04;  0.0000000E+00;  9.9487080E+03;  1.7544469E-01;  0.0000000E+00;  2.7346757E-01;  2.2878195E+04;
  1.0013663E+00;  9.9999998E-03;  6.0155574E-02;2597;  4.1131967E-01;  0.0000000E+00;  1.7879793E-02;  1.0131784E+03;  4.0617740E-01;  1.0841800E+04;3;  7.9174431E+01;  0.0000000E+00; -1.9025223E+00;0;  4.6937668E-01;  1.0006459E+04;  0.0000000E+00;  5.8811902E-06;  1.0000000E+04;  0.0000000E+00;  9.9490596E+03;  1.9554168E-01;  0.0000000E+00;  2.7383500E-01;  2.2712578E+04;
  1.0013837E+00;  9.9999998E-03;  8.0203667E-02;2598;  4.1389799E-01;  0.0000000E+00;  2.3045471E-02;  1.0131221E+03;  4.0617728E-01;  1.0795491E+04;3;  7.9441696E+01;  0.0000000E+00; -3.0469513E+00;0;  4.9877840E-01;  1.0005100E+04;  0.0000000E+00;  5.6133900E-05;  1.0000000E+04;  0.0000000E+00;  9.9493184E+03;  2.2193088E-01;  0.0000000E+00;  2.7684754E-01;  2.2584676E+04;
  1.0014061E+00;  9.9999998E-03;  1.0025219E-01;2599;  4.1721407E-01;  0.0000000E+00;  2.7800331E-02;  1.0130439E+03;  4.0617719E-01;  1.0731228E+04;3;  7.9600220E+01;  0.0000000E+00; -4.7312517E+00;0;  5.3552079E-01;  1.0003348E+04;  0.0000000E+00;  1.3147919E-04;  1.0000000E+04;  0.0000000E+00;  9.9495342E+03;  2.5349066E-01;  0.0000000E+00;  2.8203017E-01;  2.2470322E+04;
  1.0014343E+00;  9.9999998E-03;  1.2030339E-01;2600;  4.2127621E-01;  0.0000000E+00;  3.2725789E-02;  1.0129526E+03;  4.0617678E-01;  1.0655975E+04;3;  7.9405876E+01;  0.0000000E+00; -6.9779506E+00;0;  5.7564539E-01;  1.0001110E+04;  0.0000000E+00;  2.2233768E-04;  1.0000000E+04;  0.0000000E+00;  9.9499756E+03;  2.9000986E-01;  0.0000000E+00;  2.8563553E-01;  2.2251854E+04;
  1.0014693E+00;  9.9999998E-03;  1.4035676E-01;2601;  4.2629945E-01;  0.0000000E+00;  3.8254764E-02;  1.0128544E+03;  4.0617666E-01;  1.0575223E+04;3;  7.9110161E+01;  0.0000000E+00; -9.6178036E+00;0;  6.1455011E-01;  9.9981543E+03;  0.0000000E+00;  3.2069688E-04;  1.0000000E+04;  0.0000000E+00;  9.9509990E+03;  3.3329511E-01;  0.0000000E+00;  2.8125501E-01;  2.1774326E+04;
  1.0213215E+00;  9.9999998E-03;  3.1630771E-11;2625;  4.0574926E-01;  0.0000000E+00; -3.2678209E-09;  1.0119804E+03;  4.0537810E-01;  9.8325430E+03;3;  7.9945694E+01;  0.0000000E+00; -1.7741128E-05;0;  2.4924091E-01;  1.0019627E+04;  0.0000000E+00;  4.9352619E-14;  1.0000000E+04;  0.0000000E+00;  9.9516221E+03; -3.3354670E-02;  0.0000000E+00;  2.8259557E-01;  2.0970635E+04;
  1.0213243E+00;  9.9999998E-03;  2.0049881E-02;2626;  4.0617266E-01;  0.0000000E+00;  6.1423681E-03;  1.0119771E+03;  4.0537828E-01;  9.8297998E+03;3;  8.0066833E+01;  0.0000000E+00; -5.0529838E-01;0;  2.5210336E-01;  1.0019456E+04;  0.0000000E+00; -8.3106797E-06;  1.0000000E+04;  0.0000000E+00;  9.9517217E+03; -2.9968824E-02;  0.0000000E+00;  2.8207219E-01;  2.0925572E+04;
  1.0213321E+00;  9.9999998E-03;  4.0098336E-02;2627;  4.0744954E-01;  0.0000000E+00;  1.2164231E-02;  1.0119644E+03;  4.0537819E-01;  9.8194180E+03;3;  8.0365005E+01;  0.0000000E+00; -9.6444297E-01;0;  2.6104638E-01;  1.0018952E+04;  0.0000000E+00; -1.9337313E-05;  1.0000000E+04;  0.0000000E+00;  9.9519766E+03; -1.9973928E-02;  0.0000000E+00;  2.8102031E-01;  2.0813311E+04;
  1.0213453E+00;  9.9999998E-03;  6.0144689E-02;2628;  4.0955657E-01;  0.0000000E+00;  1.7857648E-02;  1.0119364E+03;  4.0537801E-01;  9.7964092E+03;3;  8.0713860E+01;  0.0000000E+00; -1.5462835E+00;0;  2.7696446E-01;  1.0018115E+04;  0.0000000E+00; -7.4630702E-06;  1.0000000E+04;  0.0000000E+00;  9.9522598E+03; -3.8357771E-03;  0.0000000E+00;  2.8080022E-01;  2.0682850E+04;
  1.0213633E+00;  9.9999998E-03;  8.0189943E-02;2629;  4.1245359E-01;  0.0000000E+00;  2.3302084E-02;  1.0118887E+03;  4.0537801E-01;  9.7571523E+03;3;  8.1013695E+01;  0.0000000E+00; -2.2807589E+00;0;  3.0052757E-01;  1.0016929E+04;  0.0000000E+00;  2.9934365E-05;  1.0000000E+04;  0.0000000E+00;  9.9525078E+03;  1.7774371E-02;  0.0000000E+00;  2.8275320E-01;  2.0565342E+04;
  1.0213866E+00;  9.9999998E-03;  1.0023618E-01;2630;  4.1614783E-01;  0.0000000E+00;  2.8604960E-02;  1.0118229E+03;  4.0537772E-01;  9.7032119E+03;3;  8.1204277E+01;  0.0000000E+00; -3.6211863E+00;0;  3.3074230E-01;  1.0015364E+04;  0.0000000E+00;  5.3217238E-05;  1.0000000E+04;  0.0000000E+00;  9.9527783E+03;  4.4255242E-02;  0.0000000E+00;  2.8648707E-01;  2.0431574E+04;
  1.0214158E+00;  9.9999998E-03;  1.2028494E-01;2631;  4.2068037E-01;  0.0000000E+00;  3.3994377E-02;  1.0117466E+03;  4.0537751E-01;  9.6404600E+03;3;  8.1417847E+01;  0.0000000E+00; -5.4965353E+00;0;  3.6425838E-01;  1.0013321E+04;  0.0000000E+00;  1.8050185E-05;  1.0000000E+04;  0.0000000E+00;  9.9533125E+03;  7.5724214E-02;  0.0000000E+00;  2.8853416E-01;  2.0178561E+04;
  1.0214522E+00;  9.9999998E-03;  1.4033508E-01;2632;  4.2619717E-01;  0.0000000E+00;  4.0005609E-02;  1.0116638E+03;  4.0537709E-01;  9.5725137E+03;3;  8.1221230E+01;  0.0000000E+00; -7.4886012E+00;0;  3.9704642E-01;  1.0010585E+04;  0.0000000E+00; -5.6016936E-05;  1.0000000E+04;  0.0000000E+00;  9.9544238E+03;  1.1411764E-01;  0.0000000E+00;  2.8292876E-01;  1.9677246E+04;
  1.0412939E+00;  9.9999998E-03;  1.8967983E-11;2656;  4.0230918E-01;  0.0000000E+00; -5.8289285E-09;  1.0106996E+03;  4.0465599E-01;  8.7531025E+03;3;  8.0982780E+01;  0.0000000E+00;  6.6403300E-07;0;  1.2815560E-01;  1.0026696E+04;  0.0000000E+00; -1.4300827E-14;  1.0000000E+04;  0.0000000E+00;  9.9548740E+03; -1.5703334E-01;  0.0000000E+00;  2.8518894E-01;  1.8840098E+04;
  1.0412966E+00;  9.9999998E-03;  2.0045688E-02;2657;  4.0275827E-01;  0.0000000E+00;  5.8199400E-03;  1.0106959E+03;  4.0465593E-01;  8.7500752E+03;3;  8.1054779E+01;  0.0000000E+00; -5.2255201E-01;0;  1.3043889E-01;  1.0026545E+04;  0.0000000E+00; -6.6863249E-06;  1.0000000E+04;  0.0000000E+00;  9.9549512E+03; -1.5432605E-01;  0.0000000E+00;  2.8476495E-01;  1.8807357E+04;
  1.0413049E+00;  9.9999998E-03;  4.0090527E-02;2658;  4.0407923E-01;  0.0000000E+00;  1.1753182E-02;  1.0106829E+03;  4.0465596E-01;  8.7393340E+03;3;  8.1183975E+01;  0.0000000E+00; -9.6175480E-01;0;  1.3760865E-01;  1.0026081E+04;  0.0000000E+00; -1.1819555E-05;  1.0000000E+04;  0.0000000E+00;  9.9551523E+03; -1.4624757E-01;  0.0000000E+00;  2.8385621E-01;  1.8721605E+04;
  1.0413187E+00;  9.9999998E-03;  6.0134299E-02;2659;  4.0631485E-01;  0.0000000E+00;  1.7601671E-02;  1.0106559E+03;  4.0465587E-01;  8.7173691E+03;3;  8.1491783E+01;  0.0000000E+00; -1.5108335E+00;0;  1.5049392E-01;  1.0025300E+04;  0.0000000E+00;  6.7922988E-06;  1.0000000E+04;  0.0000000E+00;  9.9554053E+03; -1.3292649E-01;  0.0000000E+00;  2.8342041E-01;  1.8607752E+04;
  1.0413374E+00;  9.9999998E-03;  8.0177434E-02;2660;  4.0945840E-01;  0.0000000E+00;  2.3090707E-02;  1.0106129E+03;  4.0465569E-01;  8.6820361E+03;3;  8.1900314E+01;  0.0000000E+00; -2.3868861E+00;0;  1.6981384E-01;  1.0024157E+04;  0.0000000E+00;  3.3397846E-05;  1.0000000E+04;  0.0000000E+00;  9.9556943E+03; -1.1456671E-01;  0.0000000E+00;  2.8438056E-01;  1.8475799E+04;
  1.0413616E+00;  9.9999998E-03;  1.0022162E-01;2661;  4.1353139E-01;  0.0000000E+00;  2.8573003E-02;  1.0105540E+03;  4.0465549E-01;  8.6339189E+03;3;  8.2485962E+01;  0.0000000E+00; -3.4095464E+00;0;  1.9485825E-01;  1.0022604E+04;  0.0000000E+00; -6.4103333E-06;  1.0000000E+04;  0.0000000E+00;  9.9560889E+03; -9.1365725E-02;  0.0000000E+00;  2.8622398E-01;  1.8294625E+04;
  1.0413921E+00;  9.9999998E-03;  1.2026766E-01;2662;  4.1850671E-01;  0.0000000E+00;  3.4410395E-02;  1.0104852E+03;  4.0465522E-01;  8.5775029E+03;3;  8.2634636E+01;  0.0000000E+00; -4.7599483E+00;0;  2.2264048E-01;  1.0020537E+04;  0.0000000E+00; -1.9608102E-04;  1.0000000E+04;  0.0000000E+00;  9.9567871E+03; -6.3160576E-02;  0.0000000E+00;  2.8580105E-01;  1.7983242E+04;
  1.0414301E+00;  9.9999998E-03;  1.4031464E-01;2663;  4.2445746E-01;  0.0000000E+00;  4.0714074E-02;  1.0104089E+03;  4.0465495E-01;  8.5150293E+03;3;  8.2493980E+01;  0.0000000E+00; -6.2186446E+00;0;  2.4940512E-01;  1.0017796E+04;  0.0000000E+00; -4.9984397E-04;  1.0000000E+04;  0.0000000E+00;  9.9580273E+03; -2.8489467E-02;  0.0000000E+00;  2.7789459E-01;  1.7446912E+04;
  1.0612613E+00;  9.9999998E-03;  5.0325737E-11;2687;  3.9770600E-01;  0.0000000E+00; -4.7999951E-09;  1.0094943E+03;  4.0402028E-01;  7.7337251E+03;3;  8.2051376E+01;  0.0000000E+00;  7.0407696E-06;0;  4.5832247E-02;  1.0031110E+04;  0.0000000E+00;  4.4545670E-15;  1.0000000E+04;  0.0000000E+00;  9.9580117E+03; -2.3751491E-01;  0.0000000E+00;  2.8334716E-01;  1.6711965E+04;
  1.0612642E+00;  9.9999998E-03;  2.0041944E-02;2688;  3.9812151E-01;  0.0000000E+00;  5.8132568E-03;  1.0094897E+03;  4.0402025E-01;  7.7300298E+03;3;  8.2098862E+01;  0.0000000E+00; -4.6706149E-01;0;  4.7862455E-02;  1.0030958E+04;  0.0000000E+00;  4.8481974E-07;  1.0000000E+04;  0.0000000E+00;  9.9580771E+03; -2.3513828E-01;  0.0000000E+00;  2.8300074E-01;  1.6685186E+04;
  1.0612729E+00;  9.9999998E-03;  4.0083528E-02;2689;  3.9955440E-01;  0.0000000E+00;  1.1499609E-02;  1.0094754E+03;  4.0402028E-01;  7.7182637E+03;3;  8.2243179E+01;  0.0000000E+00; -1.0491214E+00;0;  5.4205939E-02;  1.0030494E+04;  0.0000000E+00;  1.2334622E-05;  1.0000000E+04;  0.0000000E+00;  9.9582607E+03; -2.2795804E-01;  0.0000000E+00;  2.8216398E-01;  1.6608752E+04;
  1.0612870E+00;  9.9999998E-03;  6.0124595E-02;2690;  4.0199259E-01;  0.0000000E+00;  1.7052069E-02;  1.0094485E+03;  4.0402022E-01;  7.6963887E+03;3;  8.2482895E+01;  0.0000000E+00; -1.7235965E+00;0;  6.5498799E-02;  1.0029673E+04;  0.0000000E+00;  4.1765055E-05;  1.0000000E+04;  0.0000000E+00;  9.9585449E+03; -2.1584198E-01;  0.0000000E+00;  2.8134078E-01;  1.6488404E+04;
  1.0613066E+00;  9.9999998E-03;  8.0165841E-02;2691;  4.0537408E-01;  0.0000000E+00;  2.2581713E-02;  1.0094063E+03;  4.0402001E-01;  7.6618799E+03;3;  8.2836220E+01;  0.0000000E+00; -2.4777808E+00;0;  8.2236141E-02;  1.0028440E+04;  0.0000000E+00;  4.3796917E-05;  1.0000000E+04;  0.0000000E+00;  9.9589414E+03; -1.9865835E-01;  0.0000000E+00;  2.8089449E-01;  1.6319133E+04;
  1.0613319E+00;  9.9999998E-03;  1.0020793E-01;2692;  4.0964481E-01;  0.0000000E+00;  2.8216194E-02;  1.0093492E+03;  4.0401980E-01;  7.6154170E+03;3;  8.3123474E+01;  0.0000000E+00; -3.4042687E+00;0;  1.0369185E-01;  1.0026729E+04;  0.0000000E+00; -8.3970524E-05;  1.0000000E+04;  0.0000000E+00;  9.9595176E+03; -1.7639309E-01;  0.0000000E+00;  2.8008494E-01;  1.6073197E+04;
  1.0613638E+00;  9.9999998E-03;  1.2025086E-01;2693;  4.1491497E-01;  0.0000000E+00;  3.4109820E-02;  1.0092797E+03;  4.0401977E-01;  7.5586494E+03;3;  8.3388489E+01;  0.0000000E+00; -4.2980585E+00;0;  1.2716961E-01;  1.0024456E+04;  0.0000000E+00; -4.3494877E-04;  1.0000000E+04;  0.0000000E+00;  9.9604111E+03; -1.4908090E-01;  0.0000000E+00;  2.7625051E-01;  1.5697533E+04;
  1.0614039E+00;  9.9999998E-03;  1.4029302E-01;2694;  4.2136922E-01;  0.0000000E+00;  4.0350243E-02;  1.0091991E+03;  4.0401947E-01;  7.4930317E+03;3;  8.3419693E+01;  0.0000000E+00; -5.2292509E+00;0;  1.4916559E-01;  1.0021503E+04;  0.0000000E+00; -1.3060306E-03;  1.0000000E+04;  0.0000000E+00;  9.9617676E+03; -1.1616044E-01;  0.0000000E+00;  2.6532602E-01;  1.5138786E+04;
  1.0812248E+00;  9.9999998E-03;  1.9877539E-11;2718;  3.9170942E-01;  0.0000000E+00; -3.0320382E-09;  1.0084197E+03;  4.0347466E-01;  6.8192773E+03;3;  8.2924484E+01;  0.0000000E+00; -1.5717960E-06;0; -1.4282614E-02;  1.0033754E+04;  0.0000000E+00; -4.6460617E-15;  1.0000000E+04;  0.0000000E+00;  9.9610869E+03; -2.9198459E-01;  0.0000000E+00;  2.7770197E-01;  1.4594299E+04;
  1.0812278E+00;  9.9999998E-03;  2.0038622E-02;2719;  3.9224088E-01;  0.0000000E+00;  5.5474127E-03;  1.0084147E+03;  4.0347448E-01;  6.8153125E+03;3;  8.2983131E+01;  0.0000000E+00; -4.9428242E-01;0; -1.2307495E-02;  1.0033585E+04;  0.0000000E+00;  8.9966579E-06;  1.0000000E+04;  0.0000000E+00;  9.9611572E+03; -2.8960687E-01;  0.0000000E+00;  2.7729937E-01;  1.4566577E+04;
  1.0812368E+00;  9.9999998E-03;  4.0077124E-02;2720;  3.9377743E-01;  0.0000000E+00;  1.0989909E-02;  1.0083989E+03;  4.0347451E-01;  6.8024507E+03;3;  8.3097244E+01;  0.0000000E+00; -1.0829582E+00;0; -6.1941743E-03;  1.0033058E+04;  0.0000000E+00;  3.4687171E-05;  1.0000000E+04;  0.0000000E+00;  9.9613740E+03; -2.8235739E-01;  0.0000000E+00;  2.7616322E-01;  1.4482265E+04;
  1.0812515E+00;  9.9999998E-03;  6.0115878E-02;2721;  3.9637595E-01;  0.0000000E+00;  1.6483121E-02;  1.0083700E+03;  4.0347427E-01;  6.7790527E+03;3;  8.3321396E+01;  0.0000000E+00; -1.7322980E+00;0;  4.4797361E-03;  1.0032119E+04;  0.0000000E+00;  5.2219930E-05;  1.0000000E+04;  0.0000000E+00;  9.9617393E+03; -2.6992857E-01;  0.0000000E+00;  2.7440831E-01;  1.4336573E+04;
  1.0812720E+00;  9.9999998E-03;  8.0155142E-02;2722;  3.9999443E-01;  0.0000000E+00;  2.2122089E-02;  1.0083259E+03;  4.0347427E-01;  6.7431875E+03;3;  8.3596222E+01;  0.0000000E+00; -2.3952708E+00;0;  1.9872844E-02;  1.0030696E+04;  0.0000000E+00; -1.5500931E-05;  1.0000000E+04;  0.0000000E+00;  9.9622852E+03; -2.5201601E-01;  0.0000000E+00;  2.7188885E-01;  1.4119052E+04;
  1.0812987E+00;  9.9999998E-03;  1.0019471E-01;2723;  4.0460348E-01;  0.0000000E+00;  2.7882392E-02;  1.0082642E+03;  4.0347406E-01;  6.6932134E+03;3;  8.3854935E+01;  0.0000000E+00; -3.0456374E+00;0;  3.9086178E-02;  1.0028699E+04;  0.0000000E+00; -2.7394059E-04;  1.0000000E+04;  0.0000000E+00;  9.9630596E+03; -2.2861828E-01;  0.0000000E+00;  2.6770446E-01;  1.3811729E+04;
  1.0813327E+00;  9.9999998E-03;  1.2023400E-01;2724;  4.1027555E-01;  0.0000000E+00;  3.3738866E-02;  1.0081857E+03;  4.0347403E-01;  6.6295137E+03;3;  8.4014839E+01;  0.0000000E+00; -3.7341402E+00;0;  5.9731215E-02;  1.0026074E+04;  0.0000000E+00; -7.6866144E-04;  1.0000000E+04;  0.0000000E+00;  9.9641230E+03; -2.0016643E-01;  0.0000000E+00;  2.5989765E-01;  1.3391711E+04;
  1.0813749E+00;  9.9999998E-03;  1.4027095E-01;2725;  4.1724971E-01;  0.0000000E+00;  3.9579034E-02;  1.0080923E+03;  4.0347394E-01;  6.5538262E+03;3;  8.4003632E+01;  0.0000000E+00; -4.2754917E+00;0;  7.8601003E-02;  1.0022826E+04;  0.0000000E+00; -7.8393705E-03;  1.0000000E+04;  0.0000000E+00;  9.9655029E+03; -1.6742860E-01;  0.0000000E+00;  2.4602960E-01;  1.2852747E+04;
  1.1011860E+00;  9.9999998E-03; -5.3384064E-12;2748;  3.8463315E-01;  0.0000000E+00; -2.3410129E-09;  1.0074880E+03;  4.0301636E-01;  6.0191426E+03;3;  8.3542686E+01;  0.0000000E+00; -4.0058294E-06;0; -5.9791476E-02;  1.0034880E+04;  0.0000000E+00; -9.9714773E-16;  1.0000000E+04;  0.0000000E+00;  9.9641768E+03; -3.2826161E-01;  0.0000000E+00;  2.6847014E-01;  1.2497893E+04;
  1.1011891E+00;  9.9999998E-03;  2.0035548E-02;2749;  3.8518858E-01;  0.0000000E+00;  5.3312476E-03;  1.0074824E+03;  4.0301666E-01;  6.0146313E+03;3;  8.3580162E+01;  0.0000000E+00; -4.7286147E-01;0; -5.7797283E-02;  1.0034679E+04;  0.0000000E+00;  9.1283036E-06;  1.0000000E+04;  0.0000000E+00;  9.9642627E+03; -3.2562828E-01;  0.0000000E+00;  2.6783100E-01;  1.2464915E+04;
  1.1011983E+00;  9.9999998E-03;  4.0071320E-02;2750;  3.8680425E-01;  0.0000000E+00;  1.0571589E-02;  1.0074645E+03;  4.0301657E-01;  6.0002334E+03;3;  8.3702263E+01;  0.0000000E+00; -1.0087711E+00;0; -5.1663280E-02;  1.0034041E+04;  0.0000000E+00;  1.8380868E-05;  1.0000000E+04;  0.0000000E+00;  9.9645381E+03; -3.1757072E-01;  0.0000000E+00;  2.6590744E-01;  1.2363587E+04;
  1.1012137E+00;  9.9999998E-03;  6.0107879E-02;2751;  3.8956526E-01;  0.0000000E+00;  1.6040931E-02;  1.0074316E+03;  4.0301645E-01;  5.9737466E+03;3;  8.3889954E+01;  0.0000000E+00; -1.5950302E+00;0; -4.1137516E-02;  1.0032913E+04;  0.0000000E+00; -3.0934796E-05;  1.0000000E+04;  0.0000000E+00;  9.9650127E+03; -3.0371562E-01;  0.0000000E+00;  2.6257810E-01;  1.2187763E+04;
  1.1012353E+00;  9.9999998E-03;  8.0144867E-02;2752;  3.9348590E-01;  0.0000000E+00;  2.1759724E-02;  1.0073802E+03;  4.0301642E-01;  5.9323911E+03;3;  8.4105011E+01;  0.0000000E+00; -2.1204689E+00;0; -2.6374996E-02;  1.0031189E+04;  0.0000000E+00; -2.2697389E-04;  1.0000000E+04;  0.0000000E+00;  9.9657119E+03; -2.8378135E-01;  0.0000000E+00;  2.5740635E-01;  1.1930765E+04;
  1.1012638E+00;  9.9999998E-03;  1.0018172E-01;2753;  3.9853454E-01;  0.0000000E+00;  2.7540382E-02;  1.0073070E+03;  4.0301621E-01;  5.8734834E+03;3;  8.4323814E+01;  0.0000000E+00; -2.6128266E+00;0; -8.4376335E-03;  1.0028811E+04;  0.0000000E+00; -6.3077162E-04;  1.0000000E+04;  0.0000000E+00;  9.9666299E+03; -2.5800669E-01;  0.0000000E+00;  2.4956906E-01;  1.1589363E+04;
  1.1012999E+00;  9.9999998E-03;  1.2021611E-01;2754;  4.0477875E-01;  0.0000000E+00;  3.3071097E-02;  1.0072120E+03;  4.0301612E-01;  5.7970234E+03;3;  8.4422066E+01;  0.0000000E+00; -3.0345619E+00;0;  1.0542631E-02;  1.0025784E+04;  0.0000000E+00; -3.4951763E-03;  1.0000000E+04;  0.0000000E+00;  9.9677637E+03; -2.2751871E-01;  0.0000000E+00;  2.3806134E-01;  1.1170492E+04;
  1.1013458E+00;  9.9999998E-03;  1.4024788E-01;2755;  4.1252959E-01;  0.0000000E+00;  3.8180228E-02;  1.0071031E+03;  4.0301612E-01;  5.7094258E+03;3;  8.4437759E+01;  0.0000000E+00; -3.3761001E+00;0;  2.7291417E-02;  1.0022389E+04;  0.0000000E+00; -4.3379348E-02;  1.0000000E+04;  0.0000000E+00;  9.9689873E+03; -1.9525634E-01;  0.0000000E+00;  2.2254775E-01;  1.0719331E+04;
  1.1211467E+00;  9.9999998E-03; -1.4387718E-11;2777;  3.7669173E-01;  0.0000000E+00; -1.0437881E-09;  1.0066874E+03;  4.0264127E-01;  5.3226182E+03;3;  8.3796127E+01;  0.0000000E+00; -3.2724201E-06;0; -9.2381179E-02;  1.0034439E+04;  0.0000000E+00;  6.4417563E-15;  1.0000000E+04;  0.0000000E+00;  9.9673301E+03; -3.4774351E-01;  0.0000000E+00;  2.5536233E-01;  1.0450288E+04;
  1.1211499E+00;  9.9999998E-03;  2.0032980E-02;2778;  3.7728640E-01;  0.0000000E+00;  5.2068559E-03;  1.0066803E+03;  4.0264115E-01;  5.3169155E+03;3;  8.3838737E+01;  0.0000000E+00; -4.3198892E-01;0; -9.0352297E-02;  1.0034188E+04;  0.0000000E+00; -1.0260741E-05;  1.0000000E+04;  0.0000000E+00;  9.9674424E+03; -3.4469485E-01;  0.0000000E+00;  2.5434256E-01;  1.0412420E+04;
  1.1211594E+00;  9.9999998E-03;  4.0066283E-02;2779;  3.7905458E-01;  0.0000000E+00;  1.0416223E-02;  1.0066575E+03;  4.0264118E-01;  5.2987651E+03;3;  8.3954636E+01;  0.0000000E+00; -8.6216849E-01;0; -8.4146976E-02;  1.0033395E+04;  0.0000000E+00; -6.8632689E-05;  1.0000000E+04;  0.0000000E+00;  9.9677803E+03; -3.3540076E-01;  0.0000000E+00;  2.5125378E-01;  1.0297800E+04;
  1.1211754E+00;  9.9999998E-03;  6.0100149E-02;2780;  3.8195714E-01;  0.0000000E+00;  1.5641062E-02;  1.0066157E+03;  4.0264130E-01;  5.2654141E+03;3;  8.4087021E+01;  0.0000000E+00; -1.3817718E+00;0; -7.3633432E-02;  1.0031993E+04;  0.0000000E+00; -2.4160740E-04;  1.0000000E+04;  0.0000000E+00;  9.9683447E+03; -3.1957319E-01;  0.0000000E+00;  2.4593976E-01;  1.0104997E+04;
  1.1211985E+00;  9.9999998E-03;  8.0134496E-02;2781;  3.8623688E-01;  0.0000000E+00;  2.1267526E-02;  1.0065504E+03;  4.0264121E-01;  5.2134473E+03;3;  8.4280663E+01;  0.0000000E+00; -1.8009329E+00;0; -5.9172109E-02;  1.0029906E+04;  0.0000000E+00; -5.8317883E-04;  1.0000000E+04;  0.0000000E+00;  9.9691250E+03; -2.9717773E-01;  0.0000000E+00;  2.3800562E-01;  9.8368242E+03;
  1.1212291E+00;  9.9999998E-03;  1.0016691E-01;2782;  3.9186579E-01;  0.0000000E+00;  2.6779538E-02;  1.0064588E+03;  4.0264106E-01;  5.1403975E+03;3;  8.4444931E+01;  0.0000000E+00; -2.0709634E+00;0; -4.1992947E-02;  1.0027127E+04;  0.0000000E+00; -3.1498105E-03;  1.0000000E+04;  0.0000000E+00;  9.9700732E+03; -2.6905459E-01;  0.0000000E+00;  2.2706164E-01;  9.5075342E+03;
  1.1212683E+00;  9.9999998E-03;  1.2019604E-01;2783;  3.9884937E-01;  0.0000000E+00;  3.1572014E-02;  1.0063468E+03;  4.0264112E-01;  5.0511963E+03;3;  8.4619965E+01;  0.0000000E+00; -2.3380039E+00;0; -2.4535120E-02;  1.0023882E+04;  0.0000000E+00; -3.1612340E-02;  1.0000000E+04;  0.0000000E+00;  9.9710850E+03; -2.3796652E-01;  0.0000000E+00;  2.1343140E-01;  9.1560332E+03;
  1.1213179E+00;  9.9999998E-03;  1.4022051E-01;2784;  4.0767255E-01;  0.0000000E+00;  3.5543375E-02;  1.0062333E+03;  4.0264076E-01;  4.9607373E+03;3;  8.4846169E+01;  0.0000000E+00; -2.4844153E+00;0; -1.0320410E-02;  1.0020758E+04;  0.0000000E+00; -1.6711310E-01;  1.0000000E+04;  0.0000000E+00;  9.9719502E+03; -2.0886560E-01;  0.0000000E+00;  1.9854519E-01;  8.8673340E+03;
  1.1411088E+00;  9.9999998E-03;  1.3971825E-11;2805;  3.6840343E-01;  0.0000000E+00;  7.5081213E-10;  1.0059882E+03;  4.0234020E-01;  4.7051548E+03;3;  8.3792183E+01;  0.0000000E+00;  3.5398459E-06;0; -1.1170918E-01;  1.0032257E+04;  0.0000000E+00; -1.6327416E-14;  1.0000000E+04;  0.0000000E+00;  9.9705576E+03; -3.4948206E-01;  0.0000000E+00;  2.3777288E-01;  8.5034199E+03;
  1.1411120E+00;  9.9999998E-03;  2.0030510E-02;2806;  3.6904052E-01;  0.0000000E+00;  5.0747572E-03;  1.0059781E+03;  4.0234008E-01;  4.6971821E+03;3;  8.3826721E+01;  0.0000000E+00; -3.5575286E-01;0; -1.0965472E-01;  1.0031933E+04;  0.0000000E+00; -4.7373731E-05;  1.0000000E+04;  0.0000000E+00;  9.9706816E+03; -3.4599525E-01;  0.0000000E+00;  2.3634052E-01;  8.4651045E+03;
  1.1411220E+00;  9.9999998E-03;  4.0061176E-02;2807;  3.7097326E-01;  0.0000000E+00;  1.0200981E-02;  1.0059471E+03;  4.0234017E-01;  4.6727949E+03;3;  8.3934807E+01;  0.0000000E+00; -6.9585288E-01;0; -1.0341631E-01;  1.0030952E+04;  0.0000000E+00; -2.0795458E-04;  1.0000000E+04;  0.0000000E+00;  9.9710430E+03; -3.3546507E-01;  0.0000000E+00;  2.3204876E-01;  8.3514004E+03;
  1.1411389E+00;  9.9999998E-03;  6.0092032E-02;2808;  3.7414226E-01;  0.0000000E+00;  1.5211881E-02;  1.0058910E+03;  4.0234014E-01;  4.6286216E+03;3;  8.4077736E+01;  0.0000000E+00; -1.0388453E+00;0; -9.2978835E-02;  1.0029250E+04;  0.0000000E+00; -7.3200371E-04;  1.0000000E+04;  0.0000000E+00;  9.9716211E+03; -3.1788823E-01;  0.0000000E+00;  2.2490939E-01;  8.1676963E+03;
  1.1411635E+00;  9.9999998E-03;  8.0122113E-02;2809;  3.7885350E-01;  0.0000000E+00;  2.0390188E-02;  1.0058081E+03;  4.0234017E-01;  4.5634419E+03;3;  8.4190460E+01;  0.0000000E+00; -1.3358933E+00;0; -7.9002008E-02;  1.0026850E+04;  0.0000000E+00; -5.7079596E-03;  1.0000000E+04;  0.0000000E+00;  9.9723594E+03; -2.9397035E-01;  0.0000000E+00;  2.1496834E-01;  7.9296128E+03;
  1.1411966E+00;  9.9999998E-03;  1.0014946E-01;2810;  3.8512582E-01;  0.0000000E+00;  2.5104720E-02;  1.0057017E+03;  4.0234002E-01;  4.4797856E+03;3;  8.4449287E+01;  0.0000000E+00; -1.5396856E+00;0; -6.3319802E-02;  1.0023939E+04;  0.0000000E+00; -3.7243832E-02;  1.0000000E+04;  0.0000000E+00;  9.9731465E+03; -2.6603934E-01;  0.0000000E+00;  2.0271954E-01;  7.6712915E+03;
  1.1412396E+00;  9.9999998E-03;  1.2017196E-01;2811;  3.9327136E-01;  0.0000000E+00;  2.8930634E-02;  1.0055873E+03;  4.0234008E-01;  4.3897339E+03;3;  8.4784309E+01;  0.0000000E+00; -1.6250986E+00;0; -4.8798651E-02;  1.0020987E+04;  0.0000000E+00; -1.5936950E-01;  1.0000000E+04;  0.0000000E+00;  9.9738164E+03; -2.3839684E-01;  0.0000000E+00;  1.8959819E-01;  7.4578828E+03;
  1.1412932E+00;  9.9999998E-03;  1.4019041E-01;2812;  4.0292805E-01;  0.0000000E+00;  3.1800181E-02;  1.0054915E+03;  4.0233999E-01;  4.3142637E+03;3;  8.5721252E+01;  0.0000000E+00; -1.4151793E+00;0; -3.8806722E-02;  1.0018671E+04;  0.0000000E+00; -4.8256660E-01;  1.0000000E+04;  0.0000000E+00;  9.9742236E+03; -2.1631762E-01;  0.0000000E+00;  1.7751090E-01;  7.4386343E+03;
  1.1610736E+00;  9.9999998E-03;  1.9805324E-11;2832;  3.6037630E-01;  0.0000000E+00;  6.0309397E-09;  1.0053572E+03;  4.0210402E-01;  4.1402520E+03;3;  8.3661087E+01;  0.0000000E+00;  2.3486642E-05;0; -1.1839749E-01;  1.0028207E+04;  0.0000000E+00;  3.5769397E-15;  1.0000000E+04;  0.0000000E+00;  9.9737764E+03; -3.3361417E-01;  0.0000000E+00;  2.1521668E-01;  6.7247939E+03;
  1.1610770E+00;  9.9999998E-03;  2.0027712E-02;2833;  3.6106020E-01;  0.0000000E+00;  4.8966208E-03;  1.0053439E+03;  4.0210396E-01;  4.1299204E+03;3;  8.3688599E+01;  0.0000000E+00; -2.4198827E-01;0; -1.1638001E-01;  1.0027831E+04;  0.0000000E+00; -1.5637137E-04;  1.0000000E+04;  0.0000000E+00;  9.9738838E+03; -3.2988557E-01;  0.0000000E+00;  2.1350557E-01;  6.6920796E+03;
  1.1610875E+00;  9.9999998E-03;  4.0055163E-02;2834;  3.6316267E-01;  0.0000000E+00;  9.7352872E-03;  1.0053032E+03;  4.0210396E-01;  4.0983730E+03;3;  8.3809158E+01;  0.0000000E+00; -4.8701188E-01;0; -1.1038858E-01;  1.0026705E+04;  0.0000000E+00; -2.1499649E-03;  1.0000000E+04;  0.0000000E+00;  9.9742021E+03; -3.1889990E-01;  0.0000000E+00;  2.0851132E-01;  6.5979907E+03;
  1.1611055E+00;  9.9999998E-03;  6.0081981E-02;2835;  3.6674497E-01;  0.0000000E+00;  1.4365527E-02;  1.0052356E+03;  4.0210393E-01;  4.0460686E+03;3;  8.3957993E+01;  0.0000000E+00; -6.7596525E-01;0; -1.0078590E-01;  1.0024883E+04;  0.0000000E+00; -1.3431888E-02;  1.0000000E+04;  0.0000000E+00;  9.9746641E+03; -3.0143988E-01;  0.0000000E+00;  2.0065399E-01;  6.4561392E+03;
  1.1611322E+00;  9.9999998E-03;  8.0107078E-02;2836;  3.7189609E-01;  0.0000000E+00;  1.8626733E-02;  1.0051448E+03;  4.0210402E-01;  3.9758618E+03;3;  8.4180290E+01;  0.0000000E+00; -8.9446431E-01;0; -8.8829264E-02;  1.0022556E+04;  0.0000000E+00; -5.8833376E-02;  1.0000000E+04;  0.0000000E+00;  9.9751768E+03; -2.7952531E-01;  0.0000000E+00;  1.9069605E-01;  6.2951870E+03;
  1.1611685E+00;  9.9999998E-03;  1.0012803E-01;2837;  3.7915510E-01;  0.0000000E+00;  2.2330914E-02;  1.0050426E+03;  4.0210396E-01;  3.8966877E+03;3;  8.4644508E+01;  0.0000000E+00; -9.9714512E-01;0; -7.6730251E-02;  1.0020083E+04;  0.0000000E+00; -1.9282691E-01;  1.0000000E+04;  0.0000000E+00;  9.9756152E+03; -2.5652656E-01;  0.0000000E+00;  1.7979631E-01;  6.1672983E+03;
  1.1612149E+00;  9.9999998E-03;  1.2014492E-01;2838;  3.8803709E-01;  0.0000000E+00;  2.5131235E-02;  1.0049513E+03;  4.0210402E-01;  3.8259575E+03;3;  8.5709381E+01;  0.0000000E+00; -7.2818840E-01;0; -6.7448705E-02;  1.0018028E+04;  0.0000000E+00; -5.0909179E-01;  1.0000000E+04;  0.0000000E+00;  9.9758535E+03; -2.3700605E-01;  0.0000000E+00;  1.6955735E-01;  6.1965615E+03;
  1.1612744E+00;  9.9999998E-03;  1.4016131E-01;2839;  3.9894977E-01;  0.0000000E+00;  2.7384842E-02;  1.0048972E+03;  4.0210402E-01;  3.7839255E+03;3;  8.7653938E+01;  0.0000000E+00; -4.8826542E-01;0; -6.3251123E-02;  1.0016963E+04;  0.0000000E+00; -1.1021433E+00;  1.0000000E+04;  0.0000000E+00;  9.9758438E+03; -2.2468413E-01;  0.0000000E+00;  1.6143301E-01;  6.6748916E+03;
  1.1810429E+00;  9.9999998E-03;  2.1850698E-11;2858;  3.5331428E-01;  0.0000000E+00;  5.3226548E-09;  1.0047799E+03;  4.0192249E-01;  3.6173899E+03;3;  8.3612610E+01;  0.0000000E+00;  1.5549762E-05;0; -1.1673570E-01;  1.0022689E+04;  0.0000000E+00; -1.4601974E-14;  1.0000000E+04;  0.0000000E+00;  9.9768086E+03; -3.0466884E-01;  0.0000000E+00;  1.8793315E-01;  5.1820542E+03;
  1.1810465E+00;  9.9999998E-03;  2.0024078E-02;2859;  3.5406557E-01;  0.0000000E+00;  4.5103566E-03;  1.0047650E+03;  4.0192258E-01;  3.6060977E+03;3;  8.3694496E+01;  0.0000000E+00; -1.3992965E-01;0; -1.1501119E-01;  1.0022322E+04;  0.0000000E+00; -3.0169818E-03;  1.0000000E+04;  0.0000000E+00;  9.9768750E+03; -3.0135819E-01;  0.0000000E+00;  1.8634701E-01;  5.1614951E+03;
  1.1810577E+00;  9.9999998E-03;  4.0047634E-02;2860;  3.5635659E-01;  0.0000000E+00;  8.8332631E-03;  1.0047217E+03;  4.0192273E-01;  3.5732124E+03;3;  8.3820450E+01;  0.0000000E+00; -2.6790386E-01;0; -1.1011671E-01;  1.0021286E+04;  0.0000000E+00; -2.1896789E-02;  1.0000000E+04;  0.0000000E+00;  9.9770488E+03; -2.9200035E-01;  0.0000000E+00;  1.8188365E-01;  5.1060151E+03;
  1.1810770E+00;  9.9999998E-03;  6.0069572E-02;2861;  3.6029032E-01;  0.0000000E+00;  1.2683284E-02;  1.0046560E+03;  4.0192249E-01;  3.5234243E+03;3;  8.4159447E+01;  0.0000000E+00; -3.2473284E-01;0; -1.0293223E-01;  1.0019762E+04;  0.0000000E+00; -8.6042725E-02;  1.0000000E+04;  0.0000000E+00;  9.9772646E+03; -2.7829435E-01;  0.0000000E+00;  1.7536213E-01;  5.0361802E+03;
  1.1811060E+00;  9.9999998E-03;  8.0088608E-02;2862;  3.6614394E-01;  0.0000000E+00;  1.5901247E-02;  1.0045788E+03;  4.0192264E-01;  3.4649395E+03;3;  8.4678619E+01;  0.0000000E+00; -4.8477075E-01;0; -9.5164210E-02;  1.0018062E+04;  0.0000000E+00; -2.5040776E-01;  1.0000000E+04;  0.0000000E+00;  9.9774229E+03; -2.6304752E-01;  0.0000000E+00;  1.6788331E-01;  4.9978745E+03;
  1.1811453E+00;  9.9999998E-03;  1.0010449E-01;2863;  3.7382877E-01;  0.0000000E+00;  1.8523572E-02;  1.0045084E+03;  4.0192258E-01;  3.4114685E+03;3;  8.5890854E+01;  0.0000000E+00; -3.0160177E-01;0; -8.9136943E-02;  1.0016634E+04;  0.0000000E+00; -5.9209478E-01;  1.0000000E+04;  0.0000000E+00;  9.9774463E+03; -2.4967781E-01;  0.0000000E+00;  1.6054086E-01;  5.1017515E+03;
  1.1811968E+00;  9.9999998E-03;  1.2011984E-01;2864;  3.8376373E-01;  0.0000000E+00;  2.0821210E-02;  1.0044666E+03;  4.0192258E-01;  3.3796013E+03;3;  8.8138145E+01;  0.0000000E+00; -3.8504526E-02;0; -8.6780608E-02;  1.0015951E+04;  0.0000000E+00; -1.1915710E+00;  1.0000000E+04;  0.0000000E+00;  9.9772979E+03; -2.4126753E-01;  0.0000000E+00;  1.5448692E-01;  5.5915405E+03;
  1.1812627E+00;  9.9999998E-03;  1.4013712E-01;2865;  3.9580011E-01;  0.0000000E+00;  2.2944115E-02;  1.0044671E+03;  4.0192249E-01;  3.3797908E+03;3;  9.1924950E+01;  0.0000000E+00;  3.5278004E-01;0; -8.7598369E-02;  1.0016253E+04;  0.0000000E+00; -2.0676467E+00;  1.0000000E+04;  0.0000000E+00;  9.9770166E+03; -2.3805289E-01;  0.0000000E+00;  1.5045452E-01;  6.7390532E+03;
  1.2010176E+00;  9.9999998E-03;  3.1430261E-11;2882;  3.4755272E-01;  0.0000000E+00;  1.3834677E-08;  1.0042742E+03;  4.0178600E-01;  3.1513186E+03;3;  8.4279869E+01;  0.0000000E+00;  1.3403427E-05;0; -1.1481705E-01;  1.0016782E+04;  0.0000000E+00; -1.9867529E-14;  1.0000000E+04;  0.0000000E+00;  9.9794219E+03; -2.7247503E-01;  0.0000000E+00;  1.5765798E-01;  3.9285437E+03;
  1.2010214E+00;  9.9999998E-03;  2.0019710E-02;2883;  3.4836718E-01;  0.0000000E+00;  3.8149464E-03;  1.0042618E+03;  4.0178603E-01;  3.1421604E+03;3;  8.4389656E+01;  0.0000000E+00; -2.7854435E-02;0; -1.1371531E-01;  1.0016540E+04;  0.0000000E+00; -1.6299674E-02;  1.0000000E+04;  0.0000000E+00;  9.9794238E+03; -2.7046412E-01;  0.0000000E+00;  1.5674882E-01;  3.9238540E+03;
  1.2010334E+00;  9.9999998E-03;  4.0038470E-02;2884;  3.5079986E-01;  0.0000000E+00;  7.2858282E-03;  1.0042275E+03;  4.0178600E-01;  3.1168813E+03;3;  8.4734589E+01;  0.0000000E+00; -5.5664599E-02;0; -1.1085208E-01;  1.0015881E+04;  0.0000000E+00; -8.7120511E-02;  1.0000000E+04;  0.0000000E+00;  9.9793965E+03; -2.6515958E-01;  0.0000000E+00;  1.5430750E-01;  3.9174258E+03;
  1.2010543E+00;  9.9999998E-03;  6.0055073E-02;2885;  3.5508165E-01;  0.0000000E+00;  1.0064469E-02;  1.0041830E+03;  4.0178615E-01;  3.0839167E+03;3;  8.5418869E+01;  0.0000000E+00; -5.7852708E-02;0; -1.0755280E-01;  1.0015079E+04;  0.0000000E+00; -2.7192891E-01;  1.0000000E+04;  0.0000000E+00;  9.9793037E+03; -2.5863838E-01;  0.0000000E+00;  1.5108559E-01;  3.9441196E+03;
  1.2010856E+00;  9.9999998E-03;  8.0069557E-02;2886;  3.6111888E-01;  0.0000000E+00;  1.2267800E-02;  1.0041448E+03;  4.0178609E-01;  3.0556543E+03;3;  8.6782509E+01;  0.0000000E+00;  4.6419963E-02;0; -1.0594007E-01;  1.0014513E+04;  0.0000000E+00; -6.4788508E-01;  1.0000000E+04;  0.0000000E+00;  9.9791094E+03; -2.5374642E-01;  0.0000000E+00;  1.4780635E-01;  4.1052290E+03;
  1.2011291E+00;  9.9999998E-03;  1.0008428E-01;2887;  3.6958525E-01;  0.0000000E+00;  1.4467277E-02;  1.0041302E+03;  4.0178603E-01;  3.0447412E+03;3;  8.9112999E+01;  0.0000000E+00;  1.4413242E-01;0; -1.0702452E-01;  1.0014539E+04;  0.0000000E+00; -1.2789018E+00;  1.0000000E+04;  0.0000000E+00;  9.9787979E+03; -2.5221765E-01;  0.0000000E+00;  1.4519313E-01;  4.6075244E+03;
  1.2011867E+00;  9.9999998E-03;  1.2010147E-01;2888;  3.8018471E-01;  0.0000000E+00;  1.6529638E-02;  1.0041471E+03;  4.0178594E-01;  3.0568779E+03;3;  9.3230598E+01;  0.0000000E+00;  4.8993582E-01;0; -1.1039698E-01;  1.0015299E+04;  0.0000000E+00; -2.1727114E+00;  1.0000000E+04;  0.0000000E+00;  9.9783877E+03; -2.5380501E-01;  0.0000000E+00;  1.4340803E-01;  5.6507915E+03;
  1.2012627E+00;  9.9999998E-03;  1.4012437E-01;2889;  3.9314261E-01;  0.0000000E+00;  1.8835640E-02;  1.0041595E+03;  4.0178579E-01;  3.0657678E+03;3;  9.9750496E+01;  0.0000000E+00;  8.8430965E-01;0; -1.0952808E-01;  1.0016152E+04;  0.0000000E+00; -3.2435343E+00;  1.0000000E+04;  0.0000000E+00;  9.9778008E+03; -2.5252166E-01;  0.0000000E+00;  1.4299358E-01;  7.1894741E+03;
  1.2209975E+00;  9.9999998E-03;  3.6659609E-11;2905;  3.4257379E-01;  0.0000000E+00;  1.7031342E-08;  1.0038750E+03;  4.0168542E-01;  2.7679089E+03;3;  8.6719604E+01;  0.0000000E+00;  9.6220174E-06;0; -1.2044330E-01;  1.0011810E+04;  0.0000000E+00; -1.5046399E-14;  1.0000000E+04;  0.0000000E+00;  9.9814443E+03; -2.4757433E-01;  0.0000000E+00;  1.2713103E-01;  2.9812756E+03;
  1.2210017E+00;  9.9999998E-03;  2.0015325E-02;2906;  3.4342712E-01;  0.0000000E+00;  2.7837500E-03;  1.0038693E+03;  4.0168551E-01;  2.7638013E+03;3;  8.6922028E+01;  0.0000000E+00;  8.5043050E-02;0; -1.2018196E-01;  1.0011763E+04;  0.0000000E+00; -4.3802090E-02;  1.0000000E+04;  0.0000000E+00;  9.9813750E+03; -2.4743450E-01;  0.0000000E+00;  1.2725253E-01;  2.9913555E+03;
  1.2210150E+00;  9.9999998E-03;  4.0029362E-02;2907;  3.4597990E-01;  0.0000000E+00;  5.0317040E-03;  1.0038568E+03;  4.0168551E-01;  2.7547974E+03;3;  8.7595673E+01;  0.0000000E+00;  6.6876873E-02;0; -1.1998577E-01;  1.0011727E+04;  0.0000000E+00; -2.0701244E-01;  1.0000000E+04;  0.0000000E+00;  9.9811650E+03; -2.4768488E-01;  0.0000000E+00;  1.2769911E-01;  3.0359573E+03;
  1.2210381E+00;  9.9999998E-03;  6.0041975E-02;2908;  3.5030884E-01;  0.0000000E+00;  6.7939358E-03;  1.0038517E+03;  4.0168539E-01;  2.7511108E+03;3;  8.9074387E+01;  0.0000000E+00;  1.3184388E-01;0; -1.2165657E-01;  1.0011963E+04;  0.0000000E+00; -5.6605929E-01;  1.0000000E+04;  0.0000000E+00;  9.9808291E+03; -2.5026459E-01;  0.0000000E+00;  1.2860802E-01;  3.1850847E+03;
  1.2210734E+00;  9.9999998E-03;  8.0056250E-02;2909;  3.5697320E-01;  0.0000000E+00;  8.7493900E-03;  1.0038674E+03;  4.0168542E-01;  2.7620967E+03;3;  9.1696976E+01;  0.0000000E+00;  2.8351977E-01;0; -1.2573759E-01;  1.0012736E+04;  0.0000000E+00; -1.1952531E+00;  1.0000000E+04;  0.0000000E+00;  9.9803750E+03; -2.5597411E-01;  0.0000000E+00;  1.3023652E-01;  3.6109055E+03;
  1.2211238E+00;  9.9999998E-03;  1.0007459E-01;2910;  3.6604065E-01;  0.0000000E+00;  1.0791745E-02;  1.0038984E+03;  4.0168542E-01;  2.7839893E+03;3;  9.5906334E+01;  0.0000000E+00;  4.0953416E-01;0; -1.3051195E-01;  1.0013963E+04;  0.0000000E+00; -2.1049852E+00;  1.0000000E+04;  0.0000000E+00;  9.9797793E+03; -2.6289612E-01;  0.0000000E+00;  1.3238417E-01;  4.4934092E+03;
  1.2211933E+00;  9.9999998E-03;  1.2009869E-01;2911;  3.7717611E-01;  0.0000000E+00;  1.2944330E-02;  1.0038934E+03;  4.0168527E-01;  2.7800786E+03;3;  1.0257723E+02;  0.0000000E+00;  6.2393701E-01;0; -1.3078883E-01;  1.0014724E+04;  0.0000000E+00; -3.2062786E+00;  1.0000000E+04;  0.0000000E+00;  9.9789336E+03; -2.6526204E-01;  0.0000000E+00;  1.3447320E-01;  5.7982480E+03;
  1.2212796E+00;  9.9999998E-03;  1.4012596E-01;2912;  3.9007068E-01;  0.0000000E+00;  1.5146921E-02;  1.0037766E+03;  4.0168518E-01;  2.6963406E+03;3;  1.1214100E+02;  0.0000000E+00;  9.4744956E-01;0; -1.1663097E-01;  1.0013519E+04;  0.0000000E+00; -4.2507071E+00;  1.0000000E+04;  0.0000000E+00;  9.9778232E+03; -2.5185314E-01;  0.0000000E+00;  1.3522217E-01;  7.1549155E+03;
  1.2409850E+00;  9.9999998E-03;  4.6505626E-11;2926;  3.3767369E-01;  0.0000000E+00;  1.3086523E-08;  1.0036192E+03;  4.0161294E-01;  2.4901050E+03;3;  9.2422989E+01;  0.0000000E+00; -9.5964642E-06;0; -1.3687259E-01;  1.0008933E+04;  0.0000000E+00;  6.3455575E-14;  1.0000000E+04;  0.0000000E+00;  9.9828369E+03; -2.3563343E-01;  0.0000000E+00;  9.8760836E-02;  2.3203691E+03;
  1.2409902E+00;  9.9999998E-03;  2.0012463E-02;2927;  3.3850911E-01;  0.0000000E+00;  1.5267199E-03;  1.0036213E+03;  4.0161288E-01;  2.4914739E+03;3;  9.2829117E+01;  0.0000000E+00;  1.3236488E-01;0; -1.3745737E-01;  1.0009096E+04;  0.0000000E+00; -7.6231137E-02;  1.0000000E+04;  0.0000000E+00;  9.9827148E+03; -2.3734330E-01;  0.0000000E+00;  9.9885933E-02;  2.3409131E+03;
  1.2410060E+00;  9.9999998E-03;  4.0024523E-02;2928;  3.4127864E-01;  0.0000000E+00;  2.7956332E-03;  1.0036310E+03;  4.0161270E-01;  2.4981196E+03;3;  9.4015717E+01;  0.0000000E+00;  9.9277802E-02;0; -1.3944656E-01;  1.0009637E+04;  0.0000000E+00; -3.3832258E-01;  1.0000000E+04;  0.0000000E+00;  9.9823760E+03; -2.4255158E-01;  0.0000000E+00;  1.0310503E-01;  2.4266760E+03;
  1.2410344E+00;  9.9999998E-03;  6.0039021E-02;2929;  3.4606826E-01;  0.0000000E+00;  4.2322562E-03;  1.0036515E+03;  4.0161270E-01;  2.5120825E+03;3;  9.6576111E+01;  0.0000000E+00;  1.7370498E-01;0; -1.4357987E-01;  1.0010588E+04;  0.0000000E+00; -8.6059761E-01;  1.0000000E+04;  0.0000000E+00;  9.9818389E+03; -2.5168607E-01;  0.0000000E+00;  1.0810620E-01;  2.6794961E+03;
  1.2410787E+00;  9.9999998E-03;  8.0058575E-02;2930;  3.5305804E-01;  0.0000000E+00;  5.9559890E-03;  1.0036599E+03;  4.0161270E-01;  2.5176802E+03;3;  1.0096687E+02;  0.0000000E+00;  2.9479143E-01;0; -1.4769295E-01;  1.0011562E+04;  0.0000000E+00; -1.6952325E+00;  1.0000000E+04;  0.0000000E+00;  9.9810410E+03; -2.6192245E-01;  0.0000000E+00;  1.1422951E-01;  3.2721882E+03;
  1.2411412E+00;  9.9999998E-03;  1.0008258E-01;2931;  3.6276275E-01;  0.0000000E+00;  8.1890142E-03;  1.0036030E+03;  4.0161273E-01;  2.4781699E+03;3;  1.0752673E+02;  0.0000000E+00;  3.3910745E-01;0; -1.4332968E-01;  1.0011559E+04;  0.0000000E+00; -2.7727599E+00;  1.0000000E+04;  0.0000000E+00;  9.9799248E+03; -2.6423028E-01;  0.0000000E+00;  1.2090060E-01;  4.2429624E+03;
  1.2412145E+00;  9.9999998E-03;  1.2010588E-01;2932;  3.7322384E-01;  0.0000000E+00;  9.8790890E-03;  1.0034643E+03;  4.0161288E-01;  2.3824595E+03;3;  1.1670557E+02;  0.0000000E+00;  4.9717712E-01;0; -1.3076550E-01;  1.0009980E+04;  0.0000000E+00; -3.7489884E+00;  1.0000000E+04;  0.0000000E+00;  9.9787432E+03; -2.5468621E-01;  0.0000000E+00;  1.2392070E-01;  5.2240498E+03;
  1.2412901E+00;  9.9999998E-03;  1.4012782E-01;2933;  3.8456050E-01;  0.0000000E+00;  1.2179646E-02;  1.0032518E+03;  4.0161294E-01;  2.2359456E+03;3;  1.2927376E+02;  0.0000000E+00;  1.1877984E+00;0; -9.7988188E-02;  1.0006692E+04;  0.0000000E+00; -4.0111246E+00;  1.0000000E+04;  0.0000000E+00;  9.9777988E+03; -2.2236468E-01;  0.0000000E+00;  1.2437649E-01;  5.5015918E+03;
  1.2609981E+00;  9.9999998E-03;  3.6907762E-11;2944;  3.3225253E-01;  0.0000000E+00;  1.4378124E-08;  1.0033697E+03;  4.0156144E-01;  2.2210583E+03;3;  1.0311900E+02;  0.0000000E+00;  3.6774436E-06;0; -1.5674929E-01;  1.0005645E+04;  0.0000000E+00; -2.8800970E-14;  1.0000000E+04;  0.0000000E+00;  9.9837129E+03; -2.3069496E-01;  0.0000000E+00;  7.3945671E-02;  1.8166487E+03;
  1.2610046E+00;  9.9999998E-03;  2.0014049E-02;2945;  3.3323708E-01;  0.0000000E+00;  5.2380020E-04;  1.0033657E+03;  4.0156147E-01;  2.2184326E+03;3;  1.0372025E+02;  0.0000000E+00;  3.0618351E-02;0; -1.5737674E-01;  1.0005742E+04;  0.0000000E+00; -9.3844302E-02;  1.0000000E+04;  0.0000000E+00;  9.9835439E+03; -2.3312981E-01;  0.0000000E+00;  7.5753085E-02;  1.8382588E+03;
  1.2610240E+00;  9.9999998E-03;  4.0029965E-02;2946;  3.3624530E-01;  0.0000000E+00;  1.3718149E-03;  1.0033542E+03;  4.0156159E-01;  2.2107141E+03;3;  1.0568854E+02;  0.0000000E+00;  1.1865467E-02;0; -1.5881017E-01;  1.0006018E+04;  0.0000000E+00; -4.0681225E-01;  1.0000000E+04;  0.0000000E+00;  9.9830313E+03; -2.3986939E-01;  0.0000000E+00;  8.1059210E-02;  1.9317668E+03;
  1.2610565E+00;  9.9999998E-03;  6.0048461E-02;2947;  3.4103873E-01;  0.0000000E+00;  2.2676864E-03;  1.0033248E+03;  4.0156150E-01;  2.1912244E+03;3;  1.0935654E+02;  0.0000000E+00; -5.0818831E-02;0; -1.6116107E-01;  1.0006298E+04;  0.0000000E+00; -9.8902982E-01;  1.0000000E+04;  0.0000000E+00;  9.9821816E+03; -2.4995105E-01;  0.0000000E+00;  8.8789985E-02;  2.1882791E+03;
  1.2611004E+00;  9.9999998E-03;  8.0067918E-02;2948;  3.4792393E-01;  0.0000000E+00;  3.7155007E-03;  1.0032701E+03;  4.0156138E-01;  2.1548706E+03;3;  1.1539204E+02;  0.0000000E+00;  1.3687003E-01;0; -1.5739107E-01;  1.0006329E+04;  0.0000000E+00; -1.7818183E+00;  1.0000000E+04;  0.0000000E+00;  9.9810693E+03; -2.5521827E-01;  0.0000000E+00;  9.7827189E-02;  2.6695959E+03;
  1.2611547E+00;  9.9999998E-03;  1.0008784E-01;2949;  3.5699862E-01;  0.0000000E+00;  5.8747907E-03;  1.0031645E+03;  4.0156150E-01;  2.0850925E+03;3;  1.2428699E+02;  0.0000000E+00;  5.8070314E-01;0; -1.3766780E-01;  1.0005402E+04;  0.0000000E+00; -2.4891350E+00;  1.0000000E+04;  0.0000000E+00;  9.9798955E+03; -2.4430297E-01;  0.0000000E+00;  1.0663517E-01;  3.1798633E+03;
  1.2612113E+00;  9.9999998E-03;  1.2010374E-01;2950;  3.6590609E-01;  0.0000000E+00;  7.4434169E-03;  1.0030768E+03;  4.0156150E-01;  2.0270217E+03;3;  1.3569582E+02;  0.0000000E+00;  1.0870917E+00;0; -1.2019268E-01;  1.0004231E+04;  0.0000000E+00; -2.5113387E+00;  1.0000000E+04;  0.0000000E+00;  9.9793115E+03; -2.2913465E-01;  0.0000000E+00;  1.0894197E-01;  3.2138701E+03;
  1.2612691E+00;  9.9999998E-03;  1.4012259E-01;2951;  3.7478212E-01;  0.0000000E+00;  1.0622604E-02;  1.0029532E+03;  4.0156156E-01;  1.9453247E+03;3;  1.4971362E+02;  0.0000000E+00;  2.2759440E+00;0; -8.5290127E-02;  1.0002262E+04;  0.0000000E+00; -1.3861679E+00;  1.0000000E+04;  0.0000000E+00;  9.9788242E+03; -2.0102972E-01;  0.0000000E+00;  1.1573959E-01;  2.5637563E+03;
  1.2810100E+00;  9.9999998E-03;  3.3341597E-11;2959;  3.2557684E-01;  0.0000000E+00;  7.4119075E-09;  1.0030662E+03;  4.0152594E-01;  1.9276510E+03;3;  1.1973750E+02;  0.0000000E+00; -4.6973582E-06;0; -1.7636357E-01;  1.0000846E+04;  0.0000000E+00;  3.9992268E-14;  1.0000000E+04;  0.0000000E+00;  9.9842510E+03; -2.2960871E-01;  0.0000000E+00;  5.3245138E-02;  1.3802762E+03;
  1.2810149E+00;  9.9999998E-03;  2.0013420E-02;2960;  3.2641980E-01;  0.0000000E+00; -3.8810589E-04;  1.0030736E+03;  4.0152586E-01;  1.9322745E+03;3;  1.2051861E+02;  0.0000000E+00; -7.7752247E-02;0; -1.7721918E-01;  1.0001165E+04;  0.0000000E+00; -6.2102694E-02;  1.0000000E+04;  0.0000000E+00;  9.9840703E+03; -2.3249033E-01;  0.0000000E+00;  5.5271141E-02;  1.4053347E+03;
  1.2810299E+00;  9.9999998E-03;  4.0029179E-02;2961;  3.2895005E-01;  0.0000000E+00; -6.2474847E-04;  1.0030881E+03;  4.0152586E-01;  1.9413458E+03;3;  1.2291549E+02;  0.0000000E+00; -2.1992505E-01;0; -1.7977974E-01;  1.0002009E+04;  0.0000000E+00; -2.5406939E-01;  1.0000000E+04;  0.0000000E+00;  9.9835283E+03; -2.4047478E-01;  0.0000000E+00;  6.0695037E-02;  1.4857362E+03;
  1.2810552E+00;  9.9999998E-03;  6.0046822E-02;2962;  3.3338967E-01;  0.0000000E+00; -4.2963202E-05;  1.0031002E+03;  4.0152586E-01;  1.9488691E+03;3;  1.2728491E+02;  0.0000000E+00; -2.8384322E-01;0; -1.8074456E-01;  1.0003109E+04;  0.0000000E+00; -5.4447454E-01;  1.0000000E+04;  0.0000000E+00;  9.9826689E+03; -2.4919720E-01;  0.0000000E+00;  6.8452641E-02;  1.6275045E+03;
  1.2810887E+00;  9.9999998E-03;  8.0063827E-02;2963;  3.3918419E-01;  0.0000000E+00;  1.1559897E-03;  1.0031153E+03;  4.0152580E-01;  1.9581509E+03;3;  1.3424539E+02;  0.0000000E+00;  1.0598761E-01;0; -1.7858747E-01;  1.0004355E+04;  0.0000000E+00; -7.5551665E-01;  1.0000000E+04;  0.0000000E+00;  9.9817246E+03; -2.5576341E-01;  0.0000000E+00;  7.7175938E-02;  1.7810012E+03;
  1.2811316E+00;  9.9999998E-03;  1.0008195E-01;2964;  3.4649357E-01;  0.0000000E+00;  3.5933207E-03;  1.0030701E+03;  4.0152580E-01;  1.9295496E+03;3;  1.4408311E+02;  0.0000000E+00;  9.3653023E-01;0; -1.5972644E-01;  1.0004371E+04;  0.0000000E+00; -5.3873444E-01;  1.0000000E+04;  0.0000000E+00;  9.9808145E+03; -2.4792403E-01;  0.0000000E+00;  8.8197589E-02;  1.8157972E+03;
  1.2811730E+00;  9.9999998E-03;  1.2009552E-01;2965;  3.5273889E-01;  0.0000000E+00;  5.6582550E-03;  1.0031440E+03;  4.0152574E-01;  1.9758013E+03;3;  1.5600620E+02;  0.0000000E+00;  1.8545926E+00;0; -1.6358791E-01;  1.0005856E+04;  0.0000000E+00;  4.5926845E-01;  1.0000000E+04;  0.0000000E+00;  9.9808057E+03; -2.5753549E-01;  0.0000000E+00;  9.3947574E-02;  1.8454449E+03;
  1.3009838E+00;  9.9999998E-03;  2.7907314E-11;2970;  3.1679085E-01;  0.0000000E+00;  4.8090008E-09;  1.0033112E+03;  4.0150154E-01;  1.9802208E+03;3;  1.4012392E+02;  0.0000000E+00; -1.3394783E-05;0; -2.2384176E-01;  1.0006592E+04;  0.0000000E+00;  4.7993964E-14;  1.0000000E+04;  0.0000000E+00;  9.9845986E+03; -2.6054609E-01;  0.0000000E+00;  3.6704328E-02;  1.3237919E+03;
  1.3009880E+00;  9.9999998E-03;  2.0010836E-02;2971;  3.1749141E-01;  0.0000000E+00; -8.1469992E-04;  1.0033238E+03;  4.0150151E-01;  1.9877574E+03;3;  1.4093736E+02;  0.0000000E+00; -8.8800691E-02;0; -2.2506103E-01;  1.0006977E+04;  0.0000000E+00;  1.0795196E-02;  1.0000000E+04;  0.0000000E+00;  9.9844658E+03; -2.6371598E-01;  0.0000000E+00;  3.8654961E-02;  1.3446077E+03;
  1.3010002E+00;  9.9999998E-03;  4.0023614E-02;2972;  3.1947586E-01;  0.0000000E+00; -1.4710209E-03;  1.0033559E+03;  4.0150157E-01;  2.0068722E+03;3;  1.4345290E+02;  0.0000000E+00; -8.9374229E-02;0; -2.3020393E-01;  1.0008013E+04;  0.0000000E+00;  6.9727138E-02;  1.0000000E+04;  0.0000000E+00;  9.9840762E+03; -2.7392495E-01;  0.0000000E+00;  4.3721016E-02;  1.4028767E+03;
  1.3010205E+00;  9.9999998E-03;  6.0038894E-02;2973;  3.2245833E-01;  0.0000000E+00; -1.7537685E-03;  1.0033962E+03;  4.0150133E-01;  2.0309346E+03;3;  1.4789073E+02;  0.0000000E+00;  5.6691825E-02;0; -2.4227245E-01;  1.0009431E+04;  0.0000000E+00;  2.6496425E-01;  1.0000000E+04;  0.0000000E+00;  9.9834668E+03; -2.9196829E-01;  0.0000000E+00;  4.9695835E-02;  1.4945446E+03;
  1.3010477E+00;  9.9999998E-03;  8.0056898E-02;2974;  3.2633579E-01;  0.0000000E+00; -5.4470904E-04;  1.0034382E+03;  4.0150127E-01;  2.0558857E+03;3;  1.5444383E+02;  0.0000000E+00;  5.1371557E-01;0; -2.5657362E-01;  1.0011117E+04;  0.0000000E+00;  7.5344843E-01;  1.0000000E+04;  0.0000000E+00;  9.9826152E+03; -3.1480074E-01;  0.0000000E+00;  5.8227126E-02;  1.6521149E+03;
 -1.8483523E-05;  9.9999998E-03;  1.6000178E-01;1053; -8.5998150E-03;  0.0000000E+00;  9.4005559E-04;  1.0003742E+03;  4.0000001E-01;  3.1001587E+02;3; -4.5402508E+00;  0.0000000E+00;  5.6054211E-01;0; -1.6224273E-01;  1.0007764E+04;  0.0000000E+00; -1.7284562E-07;  1.0000000E+04;  0.0000000E+00;  9.9997266E+03; -1.6789921E-01;  0.0000000E+00;  5.6564840E-03;  1.5942427E+02;
 -1.7932431E-05;  9.9999998E-03;  1.8000221E-01;1054; -8.3120242E-03;  0.0000000E+00;  1.1253610E-03;  1.0003615E+03;  4.0000001E-01;  2.9954703E+02;3; -4.3719883E+00;  0.0000000E+00;  6.5033650E-01;0; -1.5637016E-01;  1.0007505E+04;  0.0000000E+00; -1.9355512E-07;  1.0000000E+04;  0.0000000E+00;  9.9997266E+03; -1.6179535E-01;  0.0000000E+00;  5.4251836E-03;  1.5802618E+02;
 -1.7116025E-05;  9.9999998E-03;  2.0000266E-01;1055; -7.9034045E-03;  0.0000000E+00;  1.3136584E-03;  1.0003446E+03;  4.0000001E-01;  2.8552274E+02;3; -4.1547813E+00;  0.0000000E+00;  7.4013758E-01;0; -1.4863729E-01;  1.0007131E+04;  0.0000000E+00; -4.8846324E-08;  1.0000000E+04;  0.0000000E+00;  9.9997646E+03; -1.5314440E-01;  0.0000000E+00;  4.5071039E-03;  1.3998560E+02;
 -1.5960472E-05;  9.9999998E-03;  2.2000313E-01;1056; -7.3409392E-03;  0.0000000E+00;  1.5087262E-03;  1.0003225E+03;  4.0000001E-01;  2.6715289E+02;3; -3.8863468E+00;  0.0000000E+00;  8.3909559E-01;0; -1.3867578E-01;  1.0006604E+04;  0.0000000E+00; -1.9969836E-08;  1.0000000E+04;  0.0000000E+00;  9.9998477E+03; -1.4127240E-01;  0.0000000E+00;  2.5966177E-03;  9.8084419E+01;
 -1.4410476E-05;  9.9999998E-03;  2.4000357E-01;1057; -6.5976018E-03;  0.0000000E+00;  1.6923945E-03;  1.0002941E+03;  4.0000001E-01;  2.4364740E+02;3; -3.5639076E+00;  0.0000000E+00;  9.4880247E-01;0; -1.2607762E-01;  1.0005895E+04;  0.0000000E+00; -9.5790631E-07;  1.0000000E+04;  0.0000000E+00;  9.9999883E+03; -1.2568337E-01;  0.0000000E+00; -3.9424864E-04;  3.0167742E+01;
 -1.2458605E-05;  9.9999998E-03;  2.6000389E-01;1058; -5.6778863E-03;  0.0000000E+00;  1.8257571E-03;  1.0002584E+03;  4.0000001E-01;  2.1401860E+02;3; -3.1877079E+00;  0.0000000E+00;  1.0545440E+00;0; -1.1055132E-01;  1.0005009E+04;  0.0000000E+00; -3.8803482E-06;  1.0000000E+04;  0.0000000E+00;  1.0000166E+04; -1.0640229E-01;  0.0000000E+00; -4.1490295E-03;  5.6605591E+01;
 -1.0173616E-05;  9.9999998E-03;  2.8000402E-01;1059; -4.6121641E-03;  0.0000000E+00;  1.8721469E-03;  1.0002158E+03;  4.0000001E-01;  1.7876035E+02;3; -2.7397366E+00;  0.0000000E+00;  1.1417193E+00;0; -9.2139766E-02;  1.0003977E+04;  0.0000000E+00; -8.7256549E-06;  1.0000000E+04;  0.0000000E+00;  1.0000341E+04; -8.4348530E-02;  0.0000000E+00; -7.7912365E-03;  1.4241652E+02;
  1.9973969E-02;  9.9999998E-03;  1.6000240E-01;1083; -1.2002804E-02;  0.0000000E+00;  1.2666497E-03;  1.0004355E+03;  4.0000001E-01;  3.6087863E+02;3; -5.4186726E+00;  0.0000000E+00;  6.6517162E-01;0; -1.8636155E-01;  1.0009070E+04;  0.0000000E+00;  7.0399284E-07;  1.0000000E+04;  0.0000000E+00;  9.9996445E+03; -1.9357520E-01;  0.0000000E+00;  7.2136521E-03;  2.0294528E+02;
  1.9974684E-02;  9.9999998E-03;  1.8000294E-01;1084; -1.1626136E-02;  0.0000000E+00;  1.4980227E-03;  1.0004219E+03;  4.0000001E-01;  3.4952094E+02;3; -5.2234097E+00;  0.0000000E+00;  7.5989139E-01;0; -1.8012954E-01;  1.0008797E+04;  0.0000000E+00;  1.3843419E-06;  1.0000000E+04;  0.0000000E+00;  9.9996484E+03; -1.8700424E-01;  0.0000000E+00;  6.8746894E-03;  2.0111288E+02;
  1.9975791E-02;  9.9999998E-03;  2.0000353E-01;1085; -1.1072982E-02;  0.0000000E+00;  1.7417148E-03;  1.0004039E+03;  4.0000001E-01;  3.3460776E+02;3; -4.9735241E+00;  0.0000000E+00;  8.5708547E-01;0; -1.7188391E-01;  1.0008390E+04;  0.0000000E+00;  2.5614243E-06;  1.0000000E+04;  0.0000000E+00;  9.9996914E+03; -1.7758101E-01;  0.0000000E+00;  5.6970990E-03;  1.7850790E+02;
  1.9977396E-02;  9.9999998E-03;  2.2000410E-01;1086; -1.0297624E-02;  0.0000000E+00;  1.9662655E-03;  1.0003798E+03;  4.0000001E-01;  3.1465771E+02;3; -4.6744385E+00;  0.0000000E+00;  9.5291638E-01;0; -1.6116972E-01;  1.0007799E+04;  0.0000000E+00;  3.8919484E-06;  1.0000000E+04;  0.0000000E+00;  9.9997988E+03; -1.6447574E-01;  0.0000000E+00;  3.3060156E-03;  1.2600008E+02;
  1.9979609E-02;  9.9999998E-03;  2.4000457E-01;1087; -9.2474725E-03;  0.0000000E+00;  2.1505796E-03;  1.0003483E+03;  4.0000001E-01;  2.8858438E+02;3; -4.3229485E+00;  0.0000000E+00;  1.0542917E+00;0; -1.4745726E-01;  1.0006993E+04;  0.0000000E+00;  4.1842741E-06;  1.0000000E+04;  0.0000000E+00;  9.9999756E+03; -1.4703825E-01;  0.0000000E+00; -4.1901181E-04;  4.0542263E+01;
  1.9982498E-02;  9.9999998E-03;  2.6000485E-01;1088; -7.9003759E-03;  0.0000000E+00;  2.2469428E-03;  1.0003087E+03;  4.0000001E-01;  2.5569643E+02;3; -3.9023609E+00;  0.0000000E+00;  1.1488843E+00;0; -1.3034229E-01;  1.0005974E+04;  0.0000000E+00;  1.8995421E-06;  1.0000000E+04;  0.0000000E+00;  1.0000202E+04; -1.2521684E-01;  0.0000000E+00; -5.1254453E-03;  6.9701851E+01;
  1.9986041E-02;  9.9999998E-03;  2.8000486E-01;1089; -6.2636146E-03;  0.0000000E+00;  2.2272652E-03;  1.0002606E+03;  4.0000001E-01;  2.1589510E+02;3; -3.3483658E+00;  0.0000000E+00;  1.2254143E+00;0; -1.0981049E-01;  1.0004782E+04;  0.0000000E+00; -3.2468372E-06;  1.0000000E+04;  0.0000000E+00;  1.0000428E+04; -1.0001079E-01;  0.0000000E+00; -9.7996984E-03;  1.8122392E+02;
  1.9990146E-02;  9.9999998E-03;  3.0000523E-01;1090; -4.3828730E-03;  0.0000000E+00;  2.4096330E-03;  1.0002053E+03;  4.0000001E-01;  1.7006924E+02;3; -2.5683403E+00;  0.0000000E+00;  1.4631329E+00;0; -8.6449742E-02;  1.0003528E+04;  0.0000000E+00; -8.9392834E-06;  1.0000000E+04;  0.0000000E+00;  1.0000581E+04; -7.3673934E-02;  0.0000000E+00; -1.2775806E-02;  2.5634076E+02;
  3.9964408E-02;  9.9999998E-03;  1.6000280E-01;1114; -1.6283479E-02;  0.0000000E+00;  1.4707878E-03;  1.0004843E+03;  4.0000001E-01;  4.0117377E+02;3; -6.4052372E+00;  0.0000000E+00;  6.9349742E-01;0; -2.0378548E-01;  1.0010108E+04;  0.0000000E+00;  1.4187301E-06;  1.0000000E+04;  0.0000000E+00;  9.9995801E+03; -2.1206984E-01;  0.0000000E+00;  8.2843592E-03;  2.3662027E+02;
  3.9965305E-02;  9.9999998E-03;  1.8000339E-01;1115; -1.5803652E-02;  0.0000000E+00;  1.7150203E-03;  1.0004710E+03;  4.0000001E-01;  3.9021112E+02;3; -6.1796856E+00;  0.0000000E+00;  7.7426964E-01;0; -1.9767541E-01;  1.0009841E+04;  0.0000000E+00;  2.4675282E-06;  1.0000000E+04;  0.0000000E+00;  9.9995859E+03; -2.0550708E-01;  0.0000000E+00;  7.8316750E-03;  2.3443452E+02;
  3.9966740E-02;  9.9999998E-03;  2.0000401E-01;1116; -1.5087214E-02;  0.0000000E+00;  1.9583504E-03;  1.0004528E+03;  4.0000001E-01;  3.7519922E+02;3; -5.8956738E+00;  0.0000000E+00;  8.5484016E-01;0; -1.8945843E-01;  1.0009421E+04;  0.0000000E+00;  3.9319580E-06;  1.0000000E+04;  0.0000000E+00;  9.9996377E+03; -1.9592784E-01;  0.0000000E+00;  6.4694085E-03;  2.0890707E+02;
  3.9968882E-02;  9.9999998E-03;  2.2000459E-01;1117; -1.4056476E-02;  0.0000000E+00;  2.1808555E-03;  1.0004278E+03;  4.0000001E-01;  3.5445905E+02;3; -5.5668087E+00;  0.0000000E+00;  9.3352365E-01;0; -1.7856930E-01;  1.0008804E+04;  0.0000000E+00;  5.3881195E-06;  1.0000000E+04;  0.0000000E+00;  9.9997588E+03; -1.8233910E-01;  0.0000000E+00;  3.7698073E-03;  1.4921609E+02;
  3.9971884E-02;  9.9999998E-03;  2.4000503E-01;1118; -1.2644358E-02;  0.0000000E+00;  2.3324080E-03;  1.0003950E+03;  4.0000001E-01;  3.2720056E+02;3; -5.2005806E+00;  0.0000000E+00;  1.0111713E+00;0; -1.6432181E-01;  1.0007939E+04;  0.0000000E+00;  5.6024855E-06;  1.0000000E+04;  0.0000000E+00;  9.9999619E+03; -1.6389322E-01;  0.0000000E+00; -4.2858953E-04;  5.1161228E+01;
  3.9975870E-02;  9.9999998E-03;  2.6000533E-01;1119; -1.0799523E-02;  0.0000000E+00;  2.4171039E-03;  1.0003521E+03;  4.0000001E-01;  2.9174478E+02;3; -4.7652473E+00;  0.0000000E+00;  1.1030207E+00;0; -1.4615187E-01;  1.0006819E+04;  0.0000000E+00;  3.1727200E-06;  1.0000000E+04;  0.0000000E+00;  1.0000224E+04; -1.4037272E-01;  0.0000000E+00; -5.7791467E-03;  7.6953323E+01;
  3.9980739E-02;  9.9999998E-03;  2.8000540E-01;1120; -8.5693803E-03;  0.0000000E+00;  2.4246916E-03;  1.0002992E+03;  4.0000001E-01;  2.4789418E+02;3; -4.1803484E+00;  0.0000000E+00;  1.2147551E+00;0; -1.2395760E-01;  1.0005486E+04;  0.0000000E+00; -1.6423770E-06;  1.0000000E+04;  0.0000000E+00;  1.0000497E+04; -1.1273272E-01;  0.0000000E+00; -1.1224871E-02;  2.0970486E+02;
  3.9986372E-02;  9.9999998E-03;  3.0000564E-01;1121; -6.0097803E-03;  0.0000000E+00;  2.5588805E-03;  1.0002380E+03;  4.0000001E-01;  1.9722896E+02;3; -3.2892227E+00;  0.0000000E+00;  1.4518633E+00;0; -9.8465249E-02;  1.0004068E+04;  0.0000000E+00; -6.0040111E-06;  1.0000000E+04;  0.0000000E+00;  1.0000692E+04; -8.3452463E-02;  0.0000000E+00; -1.5012783E-02;  3.0614111E+02;
  5.9953682E-02;  9.9999998E-03;  1.6000299E-01;1145; -2.0992860E-02;  0.0000000E+00;  1.5660995E-03;  1.0005293E+03;  4.0000001E-01;  4.3850604E+02;3; -7.4522018E+00;  0.0000000E+00;  6.8232501E-01;0; -2.1824583E-01;  1.0011048E+04;  0.0000000E+00;  1.5856567E-06;  1.0000000E+04;  0.0000000E+00;  9.9995459E+03; -2.2696845E-01;  0.0000000E+00;  8.7226247E-03;  2.5789624E+02;
  5.9954755E-02;  9.9999998E-03;  1.8000358E-01;1146; -2.0411860E-02;  0.0000000E+00;  1.8046791E-03;  1.0005170E+03;  4.0000001E-01;  4.2833350E+02;3; -7.1926813E+00;  0.0000000E+00;  7.5134802E-01;0; -2.1256123E-01;  1.0010795E+04;  0.0000000E+00;  2.2803370E-06;  1.0000000E+04;  0.0000000E+00;  9.9995498E+03; -2.2072436E-01;  0.0000000E+00;  8.1631290E-03;  2.5554311E+02;
  5.9956506E-02;  9.9999998E-03;  2.0000421E-01;1147; -1.9534409E-02;  0.0000000E+00;  2.0360281E-03;  1.0004993E+03;  4.0000001E-01;  4.1361786E+02;3; -6.8744688E+00;  0.0000000E+00;  8.1223434E-01;0; -2.0466268E-01;  1.0010389E+04;  0.0000000E+00;  2.5850602E-06;  1.0000000E+04;  0.0000000E+00;  9.9996025E+03; -2.1138653E-01;  0.0000000E+00;  6.7238463E-03;  2.2928700E+02;
  5.9959184E-02;  9.9999998E-03;  2.2000480E-01;1148; -1.8251035E-02;  0.0000000E+00;  2.2429824E-03;  1.0004745E+03;  4.0000001E-01;  3.9307526E+02;3; -6.5173006E+00;  0.0000000E+00;  8.7426424E-01;0; -1.9385515E-01;  1.0009761E+04;  0.0000000E+00;  1.8305033E-06;  1.0000000E+04;  0.0000000E+00;  9.9997314E+03; -1.9779108E-01;  0.0000000E+00;  3.9359313E-03;  1.6676286E+02;
  5.9962995E-02;  9.9999998E-03;  2.4000521E-01;1149; -1.6476857E-02;  0.0000000E+00;  2.3641777E-03;  1.0004398E+03;  4.0000001E-01;  3.6433533E+02;3; -6.1492443E+00;  0.0000000E+00;  9.2848825E-01;0; -1.7927335E-01;  1.0008854E+04;  0.0000000E+00; -8.3191378E-07;  1.0000000E+04;  0.0000000E+00;  9.9999482E+03; -1.7885144E-01;  0.0000000E+00; -4.2191520E-04;  6.2143204E+01;
  5.9968084E-02;  9.9999998E-03;  2.6000547E-01;1150; -1.4145788E-02;  0.0000000E+00;  2.4181821E-03;  1.0003940E+03;  4.0000001E-01;  3.2641046E+02;3; -5.7311831E+00;  0.0000000E+00;  1.0056000E+00;0; -1.6017731E-01;  1.0007650E+04;  0.0000000E+00; -5.5006321E-06;  1.0000000E+04;  0.0000000E+00;  1.0000234E+04; -1.5411600E-01;  0.0000000E+00; -6.0613002E-03;  7.7226021E+01;
  5.9974354E-02;  9.9999998E-03;  2.8000548E-01;1151; -1.1308527E-02;  0.0000000E+00;  2.3987226E-03;  1.0003364E+03;  4.0000001E-01;  2.7870813E+02;3; -5.1521320E+00;  0.0000000E+00;  1.1063366E+00;0; -1.3640833E-01;  1.0006191E+04;  0.0000000E+00; -2.0309135E-05;  1.0000000E+04;  0.0000000E+00;  1.0000534E+04; -1.2445021E-01;  0.0000000E+00; -1.1958121E-02;  2.2545168E+02;
  5.9981737E-02;  9.9999998E-03;  3.0000585E-01;1152; -7.9896301E-03;  0.0000000E+00;  2.5758103E-03;  1.0002687E+03;  4.0000001E-01;  2.2261096E+02;3; -4.1616888E+00;  0.0000000E+00;  1.3779974E+00;0; -1.0885276E-01;  1.0004607E+04;  0.0000000E+00; -5.0960120E-05;  1.0000000E+04;  0.0000000E+00;  1.0000766E+04; -9.2553064E-02;  0.0000000E+00; -1.6299691E-02;  3.3852408E+02;
  7.9942159E-02;  9.9999998E-03;  1.6000301E-01;1176; -2.5919218E-02;  0.0000000E+00;  1.5723518E-03;  1.0005780E+03;  4.0000001E-01;  4.7889996E+02;3; -8.6206627E+00;  0.0000000E+00;  6.5668052E-01;0; -2.3302588E-01;  1.0012031E+04;  0.0000000E+00;  1.1741871E-06;  1.0000000E+04;  0.0000000E+00;  9.9995342E+03; -2.4159031E-01;  0.0000000E+00;  8.5644228E-03;  2.6799063E+02;
  7.9943374E-02;  9.9999998E-03;  1.8000360E-01;1177; -2.5250135E-02;  0.0000000E+00;  1.7939028E-03;  1.0005671E+03;  4.0000001E-01;  4.6991257E+02;3; -8.3266678E+00;  0.0000000E+00;  7.1237826E-01;0; -2.2792374E-01;  1.0011809E+04;  0.0000000E+00;  7.2369807E-07;  1.0000000E+04;  0.0000000E+00;  9.9995361E+03; -2.3582739E-01;  0.0000000E+00;  7.9036457E-03;  2.6548532E+02;
  7.9945400E-02;  9.9999998E-03;  2.0000421E-01;1178; -2.4231214E-02;  0.0000000E+00;  2.0036502E-03;  1.0005501E+03;  4.0000001E-01;  4.5578952E+02;3; -7.9720516E+00;  0.0000000E+00;  7.5738114E-01;0; -2.2045587E-01;  1.0011420E+04;  0.0000000E+00; -1.8314995E-06;  1.0000000E+04;  0.0000000E+00;  9.9995918E+03; -2.2694241E-01;  0.0000000E+00;  6.4865304E-03;  2.4041458E+02;
  7.9948559E-02;  9.9999998E-03;  2.2000477E-01;1179; -2.2724481E-02;  0.0000000E+00;  2.1805980E-03;  1.0005257E+03;  4.0000001E-01;  4.3554318E+02;3; -7.5885973E+00;  0.0000000E+00;  7.9723358E-01;0; -2.0978017E-01;  1.0010798E+04;  0.0000000E+00; -7.8898929E-06;  1.0000000E+04;  0.0000000E+00;  9.9997148E+03; -2.1359424E-01;  0.0000000E+00;  3.8140658E-03;  1.7902679E+02;
  7.9953127E-02;  9.9999998E-03;  2.4000514E-01;1180; -2.0621791E-02;  0.0000000E+00;  2.2644659E-03;  1.0004896E+03;  4.0000001E-01;  4.0561810E+02;3; -7.2205777E+00;  0.0000000E+00;  8.2894754E-01;0; -1.9484808E-01;  1.0009863E+04;  0.0000000E+00; -1.0812771E-04;  1.0000000E+04;  0.0000000E+00;  9.9999326E+03; -1.9443864E-01;  0.0000000E+00; -4.0944619E-04;  7.3493988E+01;
  7.9959311E-02;  9.9999998E-03;  2.6000535E-01;1181; -1.7822914E-02;  0.0000000E+00;  2.2903103E-03;  1.0004405E+03;  4.0000001E-01;  3.6492789E+02;3; -6.8259430E+00;  0.0000000E+00;  8.8569832E-01;0; -1.7482729E-01;  1.0008585E+04;  0.0000000E+00; -8.6847565E-04;  1.0000000E+04;  0.0000000E+00;  1.0000226E+04; -1.6882727E-01;  0.0000000E+00; -6.0000308E-03;  7.0924652E+01;
  7.9967044E-02;  9.9999998E-03;  2.8000543E-01;1182; -1.4369866E-02;  0.0000000E+00;  2.2632291E-03;  1.0003777E+03;  4.0000001E-01;  3.1288000E+02;3; -6.2578735E+00;  0.0000000E+00;  9.7530937E-01;0; -1.4953186E-01;  1.0007007E+04;  0.0000000E+00; -2.4552573E-03;  1.0000000E+04;  0.0000000E+00;  1.0000551E+04; -1.3749714E-01;  0.0000000E+00; -1.2034715E-02;  2.2912175E+02;
  7.9976343E-02;  9.9999998E-03;  3.0000600E-01;1183; -1.0248400E-02;  0.0000000E+00;  2.5486208E-03;  1.0003034E+03;  4.0000001E-01;  2.5135088E+02;3; -5.1687565E+00;  0.0000000E+00;  1.2980061E+00;0; -1.1988801E-01;  1.0005261E+04;  0.0000000E+00; -4.3486734E-03;  1.0000000E+04;  0.0000000E+00;  1.0000804E+04; -1.0319880E-01;  0.0000000E+00; -1.6689207E-02;  3.5486722E+02;
  9.9929817E-02;  9.9999998E-03;  1.6000293E-01;1207; -3.1046567E-02;  0.0000000E+00;  1.5232939E-03;  1.0006359E+03;  4.0000001E-01;  5.2679987E+02;3; -9.9509706E+00;  0.0000000E+00;  6.2187850E-01;0; -2.5020802E-01;  1.0013184E+04;  0.0000000E+00;  2.9497971E-07;  1.0000000E+04;  0.0000000E+00;  9.9995400E+03; -2.5819772E-01;  0.0000000E+00;  7.9897046E-03;  2.7107632E+02;
  9.9931128E-02;  9.9999998E-03;  1.8000349E-01;1208; -3.0304594E-02;  0.0000000E+00;  1.7221328E-03;  1.0006266E+03;  4.0000001E-01;  5.1919513E+02;3; -9.6221428E+00;  0.0000000E+00;  6.6536438E-01;0; -2.4578674E-01;  1.0012995E+04;  0.0000000E+00; -1.9664310E-06;  1.0000000E+04;  0.0000000E+00;  9.9995459E+03; -2.5299418E-01;  0.0000000E+00;  7.2074374E-03;  2.6781229E+02;
  9.9933371E-02;  9.9999998E-03;  2.0000404E-01;1209; -2.9168008E-02;  0.0000000E+00;  1.8943724E-03;  1.0006111E+03;  4.0000001E-01;  5.0625720E+02;3; -9.2307234E+00;  0.0000000E+00;  6.9364387E-01;0; -2.3881613E-01;  1.0012634E+04;  0.0000000E+00; -9.0624490E-06;  1.0000000E+04;  0.0000000E+00;  9.9995928E+03; -2.4467704E-01;  0.0000000E+00;  5.8609075E-03;  2.4473410E+02;
  9.9936947E-02;  9.9999998E-03;  2.2000454E-01;1210; -2.7473100E-02;  0.0000000E+00;  2.0240049E-03;  1.0005866E+03;  4.0000001E-01;  4.8601086E+02;3; -8.8228006E+00;  0.0000000E+00;  7.0815015E-01;0; -2.2833979E-01;  1.0012021E+04;  0.0000000E+00; -3.6947167E-04;  1.0000000E+04;  0.0000000E+00;  9.9997100E+03; -2.3178478E-01;  0.0000000E+00;  3.4449839E-03;  1.8719557E+02;
  9.9942200E-02;  9.9999998E-03;  2.4000487E-01;1211; -2.5074078E-02;  0.0000000E+00;  2.0600599E-03;  1.0005499E+03;  4.0000001E-01;  4.5559198E+02;3; -8.4530296E+00;  0.0000000E+00;  7.1260023E-01;0; -2.1336456E-01;  1.0011086E+04;  0.0000000E+00; -3.1326788E-03;  1.0000000E+04;  0.0000000E+00;  9.9999199E+03; -2.1294709E-01;  0.0000000E+00; -4.1747140E-04;  8.6813385E+01;
  9.9949449E-02;  9.9999998E-03;  2.6000509E-01;1212; -2.1837642E-02;  0.0000000E+00;  2.0634749E-03;  1.0004992E+03;  4.0000001E-01;  4.1361786E+02;3; -8.0814238E+00;  0.0000000E+00;  7.4859810E-01;0; -1.9306764E-01;  1.0009777E+04;  0.0000000E+00; -1.1217129E-02;  1.0000000E+04;  0.0000000E+00;  1.0000211E+04; -1.8736519E-01;  0.0000000E+00; -5.7024499E-03;  8.4127922E+01;
  9.9958688E-02;  9.9999998E-03;  2.8000522E-01;1213; -1.7778546E-02;  0.0000000E+00;  2.0650891E-03;  1.0004331E+03;  4.0000001E-01;  3.5880463E+02;3; -7.5314817E+00;  0.0000000E+00;  8.3757401E-01;0; -1.6702890E-01;  1.0008112E+04;  0.0000000E+00; -2.4177818E-02;  1.0000000E+04;  0.0000000E+00;  1.0000546E+04; -1.5536788E-01;  0.0000000E+00; -1.1661023E-02;  2.5763025E+02;
  9.9970080E-02;  9.9999998E-03;  3.0000621E-01;1214; -1.2807547E-02;  0.0000000E+00;  2.5412927E-03;  1.0003520E+03;  4.0000001E-01;  2.9164603E+02;3; -6.3300800E+00;  0.0000000E+00;  1.2459526E+00;0; -1.3569981E-01;  1.0006225E+04;  0.0000000E+00; -3.8061775E-02;  1.0000000E+04;  0.0000000E+00;  1.0000816E+04; -1.1924412E-01;  0.0000000E+00; -1.6455695E-02;  4.1141321E+02;
  1.1991637E-01;  9.9999998E-03;  1.6000287E-01;1238; -3.6482472E-02;  0.0000000E+00;  1.4700698E-03;  1.0007047E+03;  4.0000001E-01;  5.8388464E+02;3; -1.1434361E+01;  0.0000000E+00;  5.8705008E-01;0; -2.7044255E-01;  1.0014552E+04;  0.0000000E+00; -8.1247174E-07;  1.0000000E+04;  0.0000000E+00;  9.9995449E+03; -2.7771550E-01;  0.0000000E+00;  7.2729536E-03;  2.7335049E+02;
  1.1991773E-01;  9.9999998E-03;  1.8000337E-01;1239; -3.5684157E-02;  0.0000000E+00;  1.6327227E-03;  1.0006978E+03;  4.0000001E-01;  5.7815637E+02;3; -1.1071251E+01;  0.0000000E+00;  6.1650634E-01;0; -2.6681089E-01;  1.0014399E+04;  0.0000000E+00; -5.6037725E-06;  1.0000000E+04;  0.0000000E+00;  9.9995596E+03; -2.7312741E-01;  0.0000000E+00;  6.3165152E-03;  2.6807349E+02;
  1.1992013E-01;  9.9999998E-03;  2.0000383E-01;1240; -3.4449238E-02;  0.0000000E+00;  1.7514706E-03;  1.0006840E+03;  4.0000001E-01;  5.6669995E+02;3; -1.0644670E+01;  0.0000000E+00;  6.2332290E-01;0; -2.6051477E-01;  1.0014078E+04;  0.0000000E+00; -2.9764959E-04;  1.0000000E+04;  0.0000000E+00;  9.9996025E+03; -2.6555282E-01;  0.0000000E+00;  5.0380575E-03;  2.4686591E+02;
  1.1992408E-01;  9.9999998E-03;  2.2000425E-01;1241; -3.2587104E-02;  0.0000000E+00;  1.8181076E-03;  1.0006608E+03;  4.0000001E-01;  5.4744122E+02;3; -1.0213493E+01;  0.0000000E+00;  6.0899043E-01;0; -2.5079760E-01;  1.0013515E+04;  0.0000000E+00; -3.9468291E-03;  1.0000000E+04;  0.0000000E+00;  9.9997070E+03; -2.5375190E-01;  0.0000000E+00;  2.9542993E-03;  1.9598201E+02;
  1.1992998E-01;  9.9999998E-03;  2.4000449E-01;1242; -2.9911496E-02;  0.0000000E+00;  1.8079525E-03;  1.0006269E+03;  4.0000001E-01;  5.1939264E+02;3; -9.8447647E+00;  0.0000000E+00;  5.8903551E-01;0; -2.3704134E-01;  1.0012638E+04;  0.0000000E+00; -1.9344149E-02;  1.0000000E+04;  0.0000000E+00;  9.9999033E+03; -2.3660521E-01;  0.0000000E+00; -4.3612951E-04;  1.4308789E+02;
  1.1993826E-01;  9.9999998E-03;  2.6000473E-01;1243; -2.6264533E-02;  0.0000000E+00;  1.7997214E-03;  1.0005797E+03;  4.0000001E-01;  4.8028265E+02;3; -9.5154161E+00;  0.0000000E+00;  6.0120773E-01;0; -2.1846303E-01;  1.0011399E+04;  0.0000000E+00; -5.5070557E-02;  1.0000000E+04;  0.0000000E+00;  1.0000192E+04; -2.1312904E-01;  0.0000000E+00; -5.3339908E-03;  2.9781546E+02;
  1.1994903E-01;  9.9999998E-03;  2.8000507E-01;1244; -2.1609213E-02;  0.0000000E+00;  1.8926408E-03;  1.0005153E+03;  4.0000001E-01;  4.2695084E+02;3; -8.9888754E+00;  0.0000000E+00;  7.2587013E-01;0; -1.9399866E-01;  1.0009771E+04;  0.0000000E+00; -1.0886467E-01;  1.0000000E+04;  0.0000000E+00;  1.0000537E+04; -1.8281376E-01;  0.0000000E+00; -1.1184906E-02;  6.2031403E+02;
  1.1996271E-01;  9.9999998E-03;  3.0000672E-01;1245; -1.5729465E-02;  0.0000000E+00;  2.6702217E-03;  1.0004310E+03;  4.0000001E-01;  3.5702689E+02;3; -7.6622677E+00;  0.0000000E+00;  1.2840691E+00;0; -1.6213633E-01;  1.0007798E+04;  0.0000000E+00; -1.5851194E-01;  1.0000000E+04;  0.0000000E+00;  1.0000823E+04; -1.4615640E-01;  0.0000000E+00; -1.5979931E-02;  9.1973706E+02;
  1.3990146E-01;  9.9999998E-03;  1.6000293E-01;1269; -4.2359993E-02;  0.0000000E+00;  1.4684894E-03;  1.0007839E+03;  4.0000001E-01;  6.4946301E+02;3; -1.3039658E+01;  0.0000000E+00;  5.6474078E-01;0; -2.9321182E-01;  1.0016144E+04;  0.0000000E+00; -1.7908437E-06;  1.0000000E+04;  0.0000000E+00;  9.9995400E+03; -2.9997849E-01;  0.0000000E+00;  6.7666620E-03;  2.8291882E+02;
  1.3990282E-01;  9.9999998E-03;  1.8000337E-01;1270; -4.1519519E-02;  0.0000000E+00;  1.5849017E-03;  1.0007797E+03;  4.0000001E-01;  6.4590753E+02;3; -1.2642957E+01;  0.0000000E+00;  5.7551241E-01;0; -2.9048654E-01;  1.0016040E+04;  0.0000000E+00; -5.9211638E-05;  1.0000000E+04;  0.0000000E+00;  9.9995605E+03; -2.9607844E-01;  0.0000000E+00;  5.5919075E-03;  2.7484918E+02;
  1.3990533E-01;  9.9999998E-03;  2.0000373E-01;1271; -4.0200163E-02;  0.0000000E+00;  1.6436781E-03;  1.0007687E+03;  4.0000001E-01;  6.3682141E+02;3; -1.2182679E+01;  0.0000000E+00;  5.5979115E-01;0; -2.8532329E-01;  1.0015781E+04;  0.0000000E+00; -2.1777165E-03;  1.0000000E+04;  0.0000000E+00;  9.9996006E+03; -2.8970176E-01;  0.0000000E+00;  4.3784678E-03;  2.5622125E+02;
  1.3990960E-01;  9.9999998E-03;  2.2000405E-01;1272; -3.8182519E-02;  0.0000000E+00;  1.6459816E-03;  1.0007509E+03;  4.0000001E-01;  6.2210577E+02;3; -1.1732885E+01;  0.0000000E+00;  5.1754332E-01;0; -2.7759507E-01;  1.0015325E+04;  0.0000000E+00; -1.6534382E-02;  1.0000000E+04;  0.0000000E+00;  9.9996924E+03; -2.8021848E-01;  0.0000000E+00;  2.6234183E-03;  2.2808745E+02;
  1.3991611E-01;  9.9999998E-03;  2.4000421E-01;1273; -3.5244178E-02;  0.0000000E+00;  1.5992280E-03;  1.0007255E+03;  4.0000001E-01;  6.0106934E+02;3; -1.1370672E+01;  0.0000000E+00;  4.9134779E-01;0; -2.6744089E-01;  1.0014638E+04;  0.0000000E+00; -6.5123737E-02;  1.0000000E+04;  0.0000000E+00;  9.9998779E+03; -2.6706192E-01;  0.0000000E+00; -3.7896656E-04;  3.6829761E+02;
  1.3992545E-01;  9.9999998E-03;  2.6000455E-01;1274; -3.1192953E-02;  0.0000000E+00;  1.6105708E-03;  1.0006909E+03;  4.0000001E-01;  5.7232941E+02;3; -1.1100267E+01;  0.0000000E+00;  4.9451065E-01;0; -2.5430021E-01;  1.0013650E+04;  0.0000000E+00; -1.6952024E-01;  1.0000000E+04;  0.0000000E+00;  1.0000174E+04; -2.4920635E-01;  0.0000000E+00; -5.0938716E-03;  9.0794318E+02;
  1.3993776E-01;  9.9999998E-03;  2.8000522E-01;1275; -2.5955640E-02;  0.0000000E+00;  1.8566232E-03;  1.0006406E+03;  4.0000001E-01;  5.3065155E+02;3; -1.0625224E+01;  0.0000000E+00;  6.9531631E-01;0; -2.3583513E-01;  1.0012271E+04;  0.0000000E+00; -3.2208052E-01;  1.0000000E+04;  0.0000000E+00;  1.0000544E+04; -2.2478449E-01;  0.0000000E+00; -1.1050638E-02;  1.7371846E+03;
  1.3995390E-01;  9.9999998E-03;  3.0000773E-01;1276; -1.9123524E-02;  0.0000000E+00;  3.0427000E-03;  1.0005595E+03;  4.0000001E-01;  4.6359177E+02;3; -9.1973190E+00;  0.0000000E+00;  1.4640961E+00;0; -2.0612395E-01;  1.0010353E+04;  0.0000000E+00; -4.5661294E-01;  1.0000000E+04;  0.0000000E+00;  1.0000841E+04; -1.9051437E-01;  0.0000000E+00; -1.5609580E-02;  2.4710176E+03;
  1.5988481E-01;  9.9999998E-03;  1.6000329E-01;1300; -4.8757147E-02;  0.0000000E+00;  1.5908554E-03;  1.0008720E+03;  4.0000001E-01;  7.2244861E+02;3; -1.4736506E+01;  0.0000000E+00;  5.7693779E-01;0; -3.1749368E-01;  1.0017945E+04;  0.0000000E+00; -2.6017301E-06;  1.0000000E+04;  0.0000000E+00;  9.9995000E+03; -3.2443327E-01;  0.0000000E+00;  6.9395914E-03;  3.1095129E+02;
  1.5988611E-01;  9.9999998E-03;  1.8000367E-01;1301; -4.7886971E-02;  0.0000000E+00;  1.6613696E-03;  1.0008705E+03;  4.0000001E-01;  7.2116467E+02;3; -1.4307720E+01;  0.0000000E+00;  5.5863887E-01;0; -3.1579912E-01;  1.0017896E+04;  0.0000000E+00; -4.5147410E-04;  1.0000000E+04;  0.0000000E+00;  9.9995244E+03; -3.2136670E-01;  0.0000000E+00;  5.5675698E-03;  3.0148441E+02;
  1.5988870E-01;  9.9999998E-03;  2.0000395E-01;1302; -4.6498232E-02;  0.0000000E+00;  1.6647016E-03;  1.0008646E+03;  4.0000001E-01;  7.1632532E+02;3; -1.3817139E+01;  0.0000000E+00;  5.2282739E-01;0; -3.1235790E-01;  1.0017742E+04;  0.0000000E+00; -7.2654746E-03;  1.0000000E+04;  0.0000000E+00;  9.9995508E+03; -3.1680399E-01;  0.0000000E+00;  4.4460781E-03;  2.8969269E+02;
  1.5989323E-01;  9.9999998E-03;  2.2000420E-01;1303; -4.4329491E-02;  0.0000000E+00;  1.6296234E-03;  1.0008556E+03;  4.0000001E-01;  7.0881934E+02;3; -1.3349127E+01;  0.0000000E+00;  4.8129582E-01;0; -3.0813992E-01;  1.0017484E+04;  0.0000000E+00; -4.2927768E-02;  1.0000000E+04;  0.0000000E+00;  9.9996309E+03; -3.1106645E-01;  0.0000000E+00;  2.9265180E-03;  3.3769763E+02;
  1.5990037E-01;  9.9999998E-03;  2.4000432E-01;1304; -4.1129343E-02;  0.0000000E+00;  1.5513195E-03;  1.0008470E+03;  4.0000001E-01;  7.0180719E+02;3; -1.3006496E+01;  0.0000000E+00;  4.5116520E-01;0; -3.0454007E-01;  1.0017120E+04;  0.0000000E+00; -1.5227762E-01;  1.0000000E+04;  0.0000000E+00;  9.9998223E+03; -3.0452713E-01;  0.0000000E+00; -1.2927456E-05;  8.3012402E+02;
  1.5991080E-01;  9.9999998E-03;  2.6000479E-01;1305; -3.6640611E-02;  0.0000000E+00;  1.6356186E-03;  1.0008381E+03;  4.0000001E-01;  6.9440002E+02;3; -1.2792303E+01;  0.0000000E+00;  4.8150253E-01;0; -3.0164778E-01;  1.0016619E+04;  0.0000000E+00; -3.8205823E-01;  1.0000000E+04;  0.0000000E+00;  1.0000149E+04; -2.9656404E-01;  0.0000000E+00; -5.0837249E-03;  2.0471227E+03;
  1.5992457E-01;  9.9999998E-03;  2.8000569E-01;1306; -3.0882921E-02;  0.0000000E+00;  1.9946906E-03;  1.0008192E+03;  4.0000001E-01;  6.7869678E+02;3; -1.2438995E+01;  0.0000000E+00;  7.4524117E-01;0; -2.9570898E-01;  1.0015806E+04;  0.0000000E+00; -7.1992069E-01;  1.0000000E+04;  0.0000000E+00;  1.0000578E+04; -2.8400952E-01;  0.0000000E+00; -1.1699467E-02;  3.8644138E+03;
  1.5994298E-01;  9.9999998E-03;  3.0000892E-01;1307; -2.3245804E-02;  0.0000000E+00;  3.4751771E-03;  1.0007563E+03;  4.0000001E-01;  6.2664886E+02;3; -1.1047110E+01;  0.0000000E+00;  1.6697884E+00;0; -2.7381945E-01;  1.0014248E+04;  0.0000000E+00; -1.0283713E+00;  1.0000000E+04;  0.0000000E+00;  1.0000886E+04; -2.5798854E-01;  0.0000000E+00; -1.5830915E-02;  5.5242324E+03;
  1.7986627E-01;  9.9999998E-03;  1.6000412E-01;1331; -5.5687565E-02;  0.0000000E+00;  1.9164432E-03;  1.0009675E+03;  4.0000001E-01;  8.0155743E+02;3; -1.6503685E+01;  0.0000000E+00;  6.3785440E-01;0; -3.4249905E-01;  1.0019967E+04;  0.0000000E+00; -7.7063487E-06;  1.0000000E+04;  0.0000000E+00;  9.9993887E+03; -3.5089225E-01;  0.0000000E+00;  8.3931908E-03;  3.7237396E+02;
  1.7986746E-01;  9.9999998E-03;  1.8000449E-01;1332; -5.4798536E-02;  0.0000000E+00;  1.9605388E-03;  1.0009695E+03;  4.0000001E-01;  8.0323645E+02;3; -1.6043638E+01;  0.0000000E+00;  6.0706091E-01;0; -3.4184298E-01;  1.0019991E+04;  0.0000000E+00; -1.3324667E-03;  1.0000000E+04;  0.0000000E+00;  9.9994063E+03; -3.4878740E-01;  0.0000000E+00;  6.9444282E-03;  3.6628854E+02;
  1.7987004E-01;  9.9999998E-03;  2.0000476E-01;1333; -5.3357441E-02;  0.0000000E+00;  1.9368890E-03;  1.0009690E+03;  4.0000001E-01;  8.0284137E+02;3; -1.5526827E+01;  0.0000000E+00;  5.6633711E-01;0; -3.4048283E-01;  1.0019970E+04;  0.0000000E+00; -1.5396317E-02;  1.0000000E+04;  0.0000000E+00;  9.9994170E+03; -3.4646520E-01;  0.0000000E+00;  5.9823701E-03;  3.7004300E+02;
  1.7987478E-01;  9.9999998E-03;  2.2000492E-01;1334; -5.1066373E-02;  0.0000000E+00;  1.8579536E-03;  1.0009719E+03;  4.0000001E-01;  8.0521167E+02;3; -1.5057690E+01;  0.0000000E+00;  5.1291490E-01;0; -3.4077176E-01;  1.0019962E+04;  0.0000000E+00; -8.0175944E-02;  1.0000000E+04;  0.0000000E+00;  9.9994883E+03; -3.4533608E-01;  0.0000000E+00;  4.5643058E-03;  5.4000568E+02;
  1.7988253E-01;  9.9999998E-03;  2.4000499E-01;1335; -4.7601555E-02;  0.0000000E+00;  1.7425374E-03;  1.0009857E+03;  4.0000001E-01;  8.1666815E+02;3; -1.4739083E+01;  0.0000000E+00;  4.8102665E-01;0; -3.4584662E-01;  1.0020026E+04;  0.0000000E+00; -2.7015463E-01;  1.0000000E+04;  0.0000000E+00;  9.9996963E+03; -3.4702626E-01;  0.0000000E+00;  1.1796502E-03;  1.4651895E+03;
  1.7989394E-01;  9.9999998E-03;  2.6000538E-01;1336; -4.2721681E-02;  0.0000000E+00;  1.8101168E-03;  1.0010144E+03;  4.0000001E-01;  8.4037115E+02;3; -1.4607109E+01;  0.0000000E+00;  5.3694344E-01;0; -3.5716555E-01;  1.0020189E+04;  0.0000000E+00; -6.7013741E-01;  1.0000000E+04;  0.0000000E+00;  1.0000110E+04; -3.5194933E-01;  0.0000000E+00; -5.2162171E-03;  3.5938386E+03;
  1.7990901E-01;  9.9999998E-03;  2.8000626E-01;1337; -3.6559958E-02;  0.0000000E+00;  2.1105378E-03;  1.0010457E+03;  4.0000001E-01;  8.6634576E+02;3; -1.4484135E+01;  0.0000000E+00;  7.6741791E-01;0; -3.7066585E-01;  1.0020254E+04;  0.0000000E+00; -1.2749279E+00;  1.0000000E+04;  0.0000000E+00;  1.0000670E+04; -3.5678899E-01;  0.0000000E+00; -1.3876845E-02;  6.8438125E+03;
  1.7992871E-01;  9.9999998E-03;  3.0000898E-01;1338; -2.8669484E-02;  0.0000000E+00;  3.2557170E-03;  1.0010296E+03;  4.0000001E-01;  8.5301276E+02;3; -1.3513660E+01;  0.0000000E+00;  1.4769669E+00;0; -3.6756000E-01;  1.0019517E+04;  0.0000000E+00; -1.8553553E+00;  1.0000000E+04;  0.0000000E+00;  1.0001081E+04; -3.4817266E-01;  0.0000000E+00; -1.9387331E-02;  9.9646387E+03;
  1.9984566E-01;  9.9999998E-03;  1.6000563E-01;1362; -6.3151062E-02;  0.0000000E+00;  2.5277538E-03;  1.0010696E+03;  4.0000001E-01;  8.8609827E+02;3; -1.8320192E+01;  0.0000000E+00;  7.8405768E-01;0; -3.6757028E-01;  1.0022233E+04;  0.0000000E+00; -2.4008516E-05;  1.0000000E+04;  0.0000000E+00;  9.9991738E+03; -3.7934849E-01;  0.0000000E+00;  1.1778210E-02;  4.8403983E+02;
  1.9984671E-01;  9.9999998E-03;  1.8000607E-01;1363; -6.2249981E-02;  0.0000000E+00;  2.5740999E-03;  1.0010745E+03;  4.0000001E-01;  8.9014752E+02;3; -1.7830545E+01;  0.0000000E+00;  7.4377179E-01;0; -3.6770082E-01;  1.0022333E+04;  0.0000000E+00; -2.3251772E-03;  1.0000000E+04;  0.0000000E+00;  9.9991660E+03; -3.7817594E-01;  0.0000000E+00;  1.0475122E-02;  4.8962366E+02;
  1.9984922E-01;  9.9999998E-03;  2.0000634E-01;1364; -6.0782459E-02;  0.0000000E+00;  2.5253415E-03;  1.0010790E+03;  4.0000001E-01;  8.9399927E+02;3; -1.7296692E+01;  0.0000000E+00;  6.9554627E-01;0; -3.6818045E-01;  1.0022447E+04;  0.0000000E+00; -2.3326462E-02;  1.0000000E+04;  0.0000000E+00;  9.9991455E+03; -3.7800252E-01;  0.0000000E+00;  9.8220743E-03;  5.1603021E+02;
  1.9985408E-01;  9.9999998E-03;  2.2000642E-01;1365; -5.8408570E-02;  0.0000000E+00;  2.3932802E-03;  1.0010930E+03;  4.0000001E-01;  9.0545575E+02;3; -1.6829340E+01;  0.0000000E+00;  6.2933660E-01;0; -3.7269413E-01;  1.0022681E+04;  0.0000000E+00; -1.1423793E-01;  1.0000000E+04;  0.0000000E+00;  9.9991924E+03; -3.8113859E-01;  0.0000000E+00;  8.4444610E-03;  7.7633826E+02;
  1.9986227E-01;  9.9999998E-03;  2.4000630E-01;1366; -5.4725949E-02;  0.0000000E+00;  2.2102420E-03;  1.0011295E+03;  4.0000001E-01;  9.3577588E+02;3; -1.6552343E+01;  0.0000000E+00;  6.0815716E-01;0; -3.8624471E-01;  1.0023159E+04;  0.0000000E+00; -3.7603879E-01;  1.0000000E+04;  0.0000000E+00;  9.9994521E+03; -3.9032680E-01;  0.0000000E+00;  4.0820776E-03;  2.0480771E+03;
  1.9987443E-01;  9.9999998E-03;  2.6000628E-01;1367; -4.9588464E-02;  0.0000000E+00;  2.0840694E-03;  1.0011984E+03;  4.0000001E-01;  9.9286066E+02;3; -1.6605324E+01;  0.0000000E+00;  6.1157799E-01;0; -4.1250515E-01;  1.0023969E+04;  0.0000000E+00; -9.3260163E-01;  1.0000000E+04;  0.0000000E+00;  1.0000017E+04; -4.0728757E-01;  0.0000000E+00; -5.2175745E-03;  5.0064868E+03;
  1.9989029E-01;  9.9999998E-03;  2.8000671E-01;1368; -4.3260258E-02;  0.0000000E+00;  2.1197146E-03;  1.0012906E+03;  4.0000001E-01;  1.0692042E+03;3; -1.6873272E+01;  0.0000000E+00;  7.1226501E-01;0; -4.4891050E-01;  1.0024965E+04;  0.0000000E+00; -1.7954587E+00;  1.0000000E+04;  0.0000000E+00;  1.0000868E+04; -4.3000114E-01;  0.0000000E+00; -1.8909354E-02;  9.6475205E+03;
  1.9990994E-01;  9.9999998E-03;  3.0000779E-01;1369; -3.5845939E-02;  0.0000000E+00;  2.3307705E-03;  1.0013507E+03;  4.0000001E-01;  1.1190793E+03;3; -1.6820621E+01;  0.0000000E+00;  8.6880875E-01;0; -4.7736305E-01;  1.0025375E+04;  0.0000000E+00; -2.6286194E+00;  1.0000000E+04;  0.0000000E+00;  1.0001651E+04; -4.4553280E-01;  0.0000000E+00; -3.1830236E-02;  1.4141068E+04;
  2.1982281E-01;  9.9999998E-03;  1.6000791E-01;1393; -7.1166418E-02;  0.0000000E+00;  3.4818535E-03;  1.0011776E+03;  4.0000001E-01;  9.7567596E+02;3; -2.0174385E+01;  0.0000000E+00;  1.0279601E+00;0; -3.9209759E-01;  1.0024748E+04;  0.0000000E+00; -2.6746395E-05;  1.0000000E+04;  0.0000000E+00;  9.9988223E+03; -4.0970173E-01;  0.0000000E+00;  1.7604150E-02;  6.6027362E+02;
  2.1982369E-01;  9.9999998E-03;  1.8000855E-01;1394; -7.0252635E-02;  0.0000000E+00;  3.5656448E-03;  1.0011837E+03;  4.0000001E-01;  9.8071283E+02;3; -1.9646080E+01;  0.0000000E+00;  9.9558526E-01;0; -3.9248753E-01;  1.0024918E+04;  0.0000000E+00; -2.6620757E-03;  1.0000000E+04;  0.0000000E+00;  9.9987734E+03; -4.0922013E-01;  0.0000000E+00;  1.6732611E-02;  6.8805463E+02;
  2.1982607E-01;  9.9999998E-03;  2.0000891E-01;1395; -6.8763778E-02;  0.0000000E+00;  3.5326779E-03;  1.0011914E+03;  4.0000001E-01;  9.8703369E+02;3; -1.9103464E+01;  0.0000000E+00;  9.2683864E-01;0; -3.9388847E-01;  1.0025151E+04;  0.0000000E+00; -2.6228866E-02;  1.0000000E+04;  0.0000000E+00;  9.9986953E+03; -4.1053402E-01;  0.0000000E+00;  1.6645545E-02;  7.4049750E+02;
  2.1983087E-01;  9.9999998E-03;  2.2000891E-01;1396; -6.6365682E-02;  0.0000000E+00;  3.3352505E-03;  1.0012122E+03;  4.0000001E-01;  1.0043171E+03;3; -1.8660429E+01;  0.0000000E+00;  8.6111593E-01;0; -4.0088552E-01;  1.0025558E+04;  0.0000000E+00; -1.2657613E-01;  1.0000000E+04;  0.0000000E+00;  9.9987021E+03; -4.1635427E-01;  0.0000000E+00;  1.5468735E-02;  9.9226477E+02;
  2.1983932E-01;  9.9999998E-03;  2.4000868E-01;1397; -6.2578335E-02;  0.0000000E+00;  3.0613847E-03;  1.0012637E+03;  4.0000001E-01;  1.0469825E+03;3; -1.8525654E+01;  0.0000000E+00;  7.8926945E-01;0; -4.2000234E-01;  1.0026298E+04;  0.0000000E+00; -4.1484657E-01;  1.0000000E+04;  0.0000000E+00;  9.9989961E+03; -4.2989731E-01;  0.0000000E+00;  9.8949522E-03;  2.3026379E+03;
  2.1985199E-01;  9.9999998E-03;  2.6000857E-01;1398; -5.7295632E-02;  0.0000000E+00;  2.8673592E-03;  1.0013618E+03;  4.0000001E-01;  1.1281654E+03;3; -1.8799284E+01;  0.0000000E+00;  8.2752800E-01;0; -4.5690063E-01;  1.0027478E+04;  0.0000000E+00; -1.0341090E+00;  1.0000000E+04;  0.0000000E+00;  9.9997705E+03; -4.5350364E-01;  0.0000000E+00; -3.3969991E-03;  5.5605664E+03;
  2.1986826E-01;  9.9999998E-03;  2.8000930E-01;1399; -5.0957989E-02;  0.0000000E+00;  3.0077561E-03;  1.0014982E+03;  4.0000001E-01;  1.2412487E+03;3; -1.9550570E+01;  0.0000000E+00;  1.0408287E+00;0; -5.0936943E-01;  1.0029013E+04;  0.0000000E+00; -2.0068381E+00;  1.0000000E+04;  0.0000000E+00;  1.0000971E+04; -4.8615691E-01;  0.0000000E+00; -2.3212494E-02;  1.0796789E+04;
  2.1988909E-01;  9.9999998E-03;  3.0001172E-01;1400; -4.3486651E-02;  0.0000000E+00;  3.5118253E-03;  1.0015956E+03;  4.0000001E-01;  1.3219377E+03;3; -2.0204681E+01;  0.0000000E+00;  1.3279648E+00;0; -5.5457413E-01;  1.0030007E+04;  0.0000000E+00; -2.9605286E+00;  1.0000000E+04;  0.0000000E+00;  1.0001927E+04; -5.1451916E-01;  0.0000000E+00; -4.0054999E-02;  1.5956100E+04;
  2.3979746E-01;  9.9999998E-03;  1.6001104E-01;1424; -7.9781666E-02;  0.0000000E+00;  4.7696363E-03;  1.0012913E+03;  4.0000001E-01;  1.0697968E+03;3; -2.2065002E+01;  0.0000000E+00;  1.3619602E+00;0; -4.1579813E-01;  1.0027523E+04;  0.0000000E+00; -8.0041182E-06;  1.0000000E+04;  0.0000000E+00;  9.9983252E+03; -4.4181755E-01;  0.0000000E+00;  2.6019415E-02;  9.0771411E+02;
  2.3979813E-01;  9.9999998E-03;  1.8001206E-01;1425; -7.8831315E-02;  0.0000000E+00;  5.0387988E-03;  1.0012972E+03;  4.0000001E-01;  1.0747349E+03;3; -2.1482981E+01;  0.0000000E+00;  1.4082782E+00;0; -4.1580102E-01;  1.0027756E+04;  0.0000000E+00; -1.9773308E-03;  1.0000000E+04;  0.0000000E+00;  9.9982021E+03; -4.4162607E-01;  0.0000000E+00;  2.5825059E-02;  9.6754565E+02;
  2.3980032E-01;  9.9999998E-03;  2.0001285E-01;1426; -7.7343144E-02;  0.0000000E+00;  5.0973184E-03;  1.0013043E+03;  4.0000001E-01;  1.0805619E+03;3; -2.0930403E+01;  0.0000000E+00;  1.3254007E+00;0; -4.1686240E-01;  1.0028065E+04;  0.0000000E+00; -2.1759281E-02;  1.0000000E+04;  0.0000000E+00;  9.9980459E+03; -4.4345507E-01;  0.0000000E+00;  2.6592683E-02;  1.0529435E+03;
  2.3980492E-01;  9.9999998E-03;  2.2001320E-01;1427; -7.4950606E-02;  0.0000000E+00;  5.0248965E-03;  1.0013252E+03;  4.0000001E-01;  1.0979441E+03;3; -2.0520515E+01;  0.0000000E+00;  1.3191028E+00;0; -4.2366573E-01;  1.0028549E+04;  0.0000000E+00; -1.0866462E-01;  1.0000000E+04;  0.0000000E+00;  9.9979785E+03; -4.4984525E-01;  0.0000000E+00;  2.6179530E-02;  1.2293998E+03;
  2.3981324E-01;  9.9999998E-03;  2.4001375E-01;1428; -7.1173944E-02;  0.0000000E+00;  5.0285114E-03;  1.0013776E+03;  4.0000001E-01;  1.1413009E+03;3; -2.0527752E+01;  0.0000000E+00;  1.3380299E+00;0; -4.4290483E-01;  1.0029347E+04;  0.0000000E+00; -3.6184573E-01;  1.0000000E+04;  0.0000000E+00;  9.9982246E+03; -4.6373793E-01;  0.0000000E+00;  2.0833097E-02;  2.1716560E+03;
  2.3982602E-01;  9.9999998E-03;  2.6001570E-01;1429; -6.5937415E-02;  0.0000000E+00;  5.5720308E-03;  1.0014737E+03;  4.0000001E-01;  1.2209036E+03;3; -2.1158070E+01;  0.0000000E+00;  1.7022991E+00;0; -4.7882262E-01;  1.0030559E+04;  0.0000000E+00; -9.1465336E-01;  1.0000000E+04;  0.0000000E+00;  9.9989453E+03; -4.8720995E-01;  0.0000000E+00;  8.3873253E-03;  4.9599146E+03;
  2.3984286E-01;  9.9999998E-03;  2.8002122E-01;1430; -5.9387527E-02;  0.0000000E+00;  7.6520871E-03;  1.0015810E+03;  4.0000001E-01;  1.3097899E+03;3; -2.2320923E+01;  0.0000000E+00;  2.8427753E+00;0; -5.1793402E-01;  1.0032056E+04;  0.0000000E+00; -1.8091801E+00;  1.0000000E+04;  0.0000000E+00;  9.9995908E+03; -5.1867199E-01;  0.0000000E+00;  7.3793717E-04;  9.7463936E+03;
  2.3986486E-01;  9.9999998E-03;  3.0003008E-01;1431; -5.1574256E-02;  0.0000000E+00;  1.0249129E-02;  1.0016021E+03;  4.0000001E-01;  1.3272709E+03;3; -2.3469280E+01;  0.0000000E+00;  4.2875671E+00;0; -5.3695434E-01;  1.0032994E+04;  0.0000000E+00; -2.7466676E+00;  1.0000000E+04;  0.0000000E+00;  9.9990840E+03; -5.4559851E-01;  0.0000000E+00;  8.6441413E-03;  1.4819799E+04;
  2.5976929E-01;  9.9999998E-03;  1.6001505E-01;1455; -8.9037217E-02;  0.0000000E+00;  6.4162640E-03;  1.0014116E+03;  4.0000001E-01;  1.1695469E+03;3; -2.3976234E+01;  0.0000000E+00;  1.7975873E+00;0; -4.3887329E-01;  1.0030568E+04;  0.0000000E+00;  1.0672640E-06;  1.0000000E+04;  0.0000000E+00;  9.9976875E+03; -4.7555339E-01;  0.0000000E+00;  3.6680099E-02;  1.2220505E+03;
  2.5976974E-01;  9.9999998E-03;  1.8001674E-01;1456; -8.8051490E-02;  0.0000000E+00;  6.9231740E-03;  1.0014160E+03;  4.0000001E-01;  1.1731024E+03;3; -2.3348017E+01;  0.0000000E+00;  1.8814024E+00;0; -4.3797767E-01;  1.0030848E+04;  0.0000000E+00; -8.2856050E-04;  1.0000000E+04;  0.0000000E+00;  9.9974922E+03; -4.7518605E-01;  0.0000000E+00;  3.7208371E-02;  1.3189640E+03;
  2.5977165E-01;  9.9999998E-03;  2.0001833E-01;1457; -8.6554371E-02;  0.0000000E+00;  7.3015844E-03;  1.0014201E+03;  4.0000001E-01;  1.1765591E+03;3; -2.2760670E+01;  0.0000000E+00;  1.9222467E+00;0; -4.3766674E-01;  1.0031191E+04;  0.0000000E+00; -1.2670764E-02;  1.0000000E+04;  0.0000000E+00;  9.9972344E+03; -4.7659805E-01;  0.0000000E+00;  3.8931318E-02;  1.4457219E+03;
  2.5977588E-01;  9.9999998E-03;  2.2001991E-01;1458; -8.4229775E-02;  0.0000000E+00;  7.6731816E-03;  1.0014341E+03;  4.0000001E-01;  1.1881143E+03;3; -2.2418732E+01;  0.0000000E+00;  2.0349069E+00;0; -4.4178623E-01;  1.0031673E+04;  0.0000000E+00; -7.0370734E-02;  1.0000000E+04;  0.0000000E+00;  9.9970410E+03; -4.8177978E-01;  0.0000000E+00;  3.9993539E-02;  1.5859977E+03;
  2.5978354E-01;  9.9999998E-03;  2.4002223E-01;1459; -8.0660924E-02;  0.0000000E+00;  8.3963685E-03;  1.0014724E+03;  4.0000001E-01;  1.2198170E+03;3; -2.2614313E+01;  0.0000000E+00;  2.3887987E+00;0; -4.5520645E-01;  1.0032381E+04;  0.0000000E+00; -2.4516587E-01;  1.0000000E+04;  0.0000000E+00;  9.9970938E+03; -4.9300197E-01;  0.0000000E+00;  3.7795529E-02;  2.0107275E+03;
  2.5979570E-01;  9.9999998E-03;  2.6002723E-01;1460; -7.5624079E-02;  0.0000000E+00;  1.0038061E-02;  1.0015359E+03;  4.0000001E-01;  1.2724575E+03;3; -2.3668974E+01;  0.0000000E+00;  3.1578999E+00;0; -4.7797781E-01;  1.0033385E+04;  0.0000000E+00; -6.3587463E-01;  1.0000000E+04;  0.0000000E+00;  9.9973594E+03; -5.1181376E-01;  0.0000000E+00;  3.3835944E-02;  3.6970547E+03;
  2.5981218E-01;  9.9999998E-03;  2.8003636E-01;1461; -6.9222569E-02;  0.0000000E+00;  1.3097637E-02;  1.0015776E+03;  4.0000001E-01;  1.3070244E+03;3; -2.5389889E+01;  0.0000000E+00;  4.7757874E+00;0; -4.9351394E-01;  1.0034582E+04;  0.0000000E+00; -1.2786268E+00;  1.0000000E+04;  0.0000000E+00;  9.9970010E+03; -5.3690374E-01;  0.0000000E+00;  4.3389797E-02;  7.0699067E+03;
  2.5983346E-01;  9.9999998E-03;  3.0004650E-01;1462; -6.1651904E-02;  0.0000000E+00;  1.5678992E-02;  1.0015502E+03;  4.0000001E-01;  1.2843091E+03;3; -2.7350471E+01;  0.0000000E+00;  6.4909115E+00;0; -4.9895674E-01;  1.0035393E+04;  0.0000000E+00; -1.9583131E+00;  1.0000000E+04;  0.0000000E+00;  9.9956533E+03; -5.5998421E-01;  0.0000000E+00;  6.1027464E-02;  1.0805563E+04;
  2.7973801E-01;  9.9999998E-03;  1.6001993E-01;1486; -9.8988347E-02;  0.0000000E+00;  8.3823279E-03;  1.0015410E+03;  4.0000001E-01;  1.2766056E+03;3; -2.5923143E+01;  0.0000000E+00;  2.2596481E+00;0; -4.6196997E-01;  1.0033903E+04;  0.0000000E+00;  2.1677724E-06;  1.0000000E+04;  0.0000000E+00;  9.9969434E+03; -5.1078063E-01;  0.0000000E+00;  4.8810650E-02;  1.5889019E+03;
  2.7973819E-01;  9.9999998E-03;  1.8002254E-01;1487; -9.7958133E-02;  0.0000000E+00;  9.2318309E-03;  1.0015426E+03;  4.0000001E-01;  1.2779883E+03;3; -2.5224867E+01;  0.0000000E+00;  2.4645703E+00;0; -4.5993701E-01;  1.0034209E+04;  0.0000000E+00; -9.2352260E-05;  1.0000000E+04;  0.0000000E+00;  9.9966777E+03; -5.0975800E-01;  0.0000000E+00;  4.9820993E-02;  1.7203213E+03;
  2.7973977E-01;  9.9999998E-03;  2.0002528E-01;1488; -9.6444257E-02;  0.0000000E+00;  1.0054614E-02;  1.0015429E+03;  4.0000001E-01;  1.2782845E+03;3; -2.4602346E+01;  0.0000000E+00;  2.6367116E+00;0; -4.5785192E-01;  1.0034552E+04;  0.0000000E+00; -4.5049614E-03;  1.0000000E+04;  0.0000000E+00;  9.9963359E+03; -5.1005507E-01;  0.0000000E+00;  5.2203141E-02;  1.8872388E+03;
  2.7974349E-01;  9.9999998E-03;  2.2002845E-01;1489; -9.4187133E-02;  0.0000000E+00;  1.1004111E-02;  1.0015477E+03;  4.0000001E-01;  1.2822351E+03;3; -2.4311548E+01;  0.0000000E+00;  2.9428325E+00;0; -4.5817363E-01;  1.0034977E+04;  0.0000000E+00; -3.2171529E-02;  1.0000000E+04;  0.0000000E+00;  9.9960078E+03; -5.1298594E-01;  0.0000000E+00;  5.4812312E-02;  2.0540708E+03;
  2.7975032E-01;  9.9999998E-03;  2.4003264E-01;1490; -9.0882987E-02;  0.0000000E+00;  1.2337923E-02;  1.0015651E+03;  4.0000001E-01;  1.2966544E+03;3; -2.4768480E+01;  0.0000000E+00;  3.4798605E+00;0; -4.6350750E-01;  1.0035531E+04;  0.0000000E+00; -1.2407007E-01;  1.0000000E+04;  0.0000000E+00;  9.9958066E+03; -5.2009034E-01;  0.0000000E+00;  5.6582831E-02;  2.2471934E+03;
  2.7976120E-01;  9.9999998E-03;  2.6003936E-01;1491; -8.6296149E-02;  0.0000000E+00;  1.4433197E-02;  1.0015907E+03;  4.0000001E-01;  1.3178883E+03;3; -2.6299446E+01;  0.0000000E+00;  4.4726529E+00;0; -4.7177902E-01;  1.0036254E+04;  0.0000000E+00; -3.3737704E-01;  1.0000000E+04;  0.0000000E+00;  9.9955967E+03; -5.3249049E-01;  0.0000000E+00;  6.0711462E-02;  2.8904480E+03;
  2.7977628E-01;  9.9999998E-03;  2.8004882E-01;1492; -8.0419295E-02;  0.0000000E+00;  1.7081764E-02;  1.0015900E+03;  4.0000001E-01;  1.3172958E+03;3; -2.8799545E+01;  0.0000000E+00;  6.0128355E+00;0; -4.7487622E-01;  1.0037095E+04;  0.0000000E+00; -6.9049227E-01;  1.0000000E+04;  0.0000000E+00;  9.9947500E+03; -5.4976016E-01;  0.0000000E+00;  7.4883953E-02;  4.5744590E+03;
  2.7979603E-01;  9.9999998E-03;  3.0005807E-01;1493; -7.3305242E-02;  0.0000000E+00;  1.9178366E-02;  1.0015576E+03;  4.0000001E-01;  1.2904324E+03;3; -3.1718821E+01;  0.0000000E+00;  7.8083010E+00;0; -4.7845966E-01;  1.0037740E+04;  0.0000000E+00; -1.0648290E+00;  1.0000000E+04;  0.0000000E+00;  9.9934561E+03; -5.6773400E-01;  0.0000000E+00;  8.9274347E-02;  6.6269761E+03;
  2.9970327E-01;  9.9999998E-03;  1.6002554E-01;1517; -1.0967640E-01;  0.0000000E+00;  1.0586455E-02;  1.0016813E+03;  4.0000001E-01;  1.3929478E+03;3; -2.7877783E+01;  0.0000000E+00;  2.7652068E+00;0; -4.8599926E-01;  1.0037534E+04;  0.0000000E+00;  3.0669503E-06;  1.0000000E+04;  0.0000000E+00;  9.9961348E+03; -5.4743236E-01;  0.0000000E+00;  6.1433114E-02;  1.9887203E+03;
  2.9970315E-01;  9.9999998E-03;  1.8002915E-01;1518; -1.0858530E-01;  0.0000000E+00;  1.1792522E-02;  1.0016810E+03;  4.0000001E-01;  1.3926515E+03;3; -2.7109867E+01;  0.0000000E+00;  3.0760243E+00;0; -4.8281232E-01;  1.0037846E+04;  0.0000000E+00;  2.9821251E-05;  1.0000000E+04;  0.0000000E+00;  9.9958125E+03; -5.4527235E-01;  0.0000000E+00;  6.2460035E-02;  2.1457239E+03;
  2.9970437E-01;  9.9999998E-03;  2.0003308E-01;1519; -1.0702143E-01;  0.0000000E+00;  1.3050711E-02;  1.0016773E+03;  4.0000001E-01;  1.3895898E+03;3; -2.6431793E+01;  0.0000000E+00;  3.3986301E+00;0; -4.7913405E-01;  1.0038166E+04;  0.0000000E+00; -5.9503887E-04;  1.0000000E+04;  0.0000000E+00;  9.9954180E+03; -5.4397255E-01;  0.0000000E+00;  6.4838491E-02;  2.3391838E+03;
  2.9970768E-01;  9.9999998E-03;  2.2003765E-01;1520; -1.0477348E-01;  0.0000000E+00;  1.4462022E-02;  1.0016740E+03;  4.0000001E-01;  1.3868245E+03;3; -2.6176058E+01;  0.0000000E+00;  3.8036802E+00;0; -4.7615606E-01;  1.0038517E+04;  0.0000000E+00; -8.7699490E-03;  1.0000000E+04;  0.0000000E+00;  9.9950088E+03; -5.4426229E-01;  0.0000000E+00;  6.8106249E-02;  2.5415493E+03;
  2.9971385E-01;  9.9999998E-03;  2.4004322E-01;1521; -1.0161726E-01;  0.0000000E+00;  1.6115408E-02;  1.0016744E+03;  4.0000001E-01;  1.3872195E+03;3; -2.6842377E+01;  0.0000000E+00;  4.4332056E+00;0; -4.7485915E-01;  1.0038909E+04;  0.0000000E+00; -4.2847376E-02;  1.0000000E+04;  0.0000000E+00;  9.9946250E+03; -5.4704678E-01;  0.0000000E+00;  7.2187640E-02;  2.7350938E+03;
  2.9972368E-01;  9.9999998E-03;  2.6005057E-01;1522; -9.7338915E-02;  0.0000000E+00;  1.8168131E-02;  1.0016733E+03;  4.0000001E-01;  1.3863307E+03;3; -2.8820807E+01;  0.0000000E+00;  5.4632478E+00;0; -4.7337741E-01;  1.0039367E+04;  0.0000000E+00; -1.2930056E-01;  1.0000000E+04;  0.0000000E+00;  9.9941484E+03; -5.5304575E-01;  0.0000000E+00;  7.9668351E-02;  3.0327668E+03;
  2.9973748E-01;  9.9999998E-03;  2.8005928E-01;1523; -9.1966845E-02;  0.0000000E+00;  2.0143425E-02;  1.0016553E+03;  4.0000001E-01;  1.3713187E+03;3; -3.2174644E+01;  0.0000000E+00;  6.8258986E+00;0; -4.7193849E-01;  1.0039863E+04;  0.0000000E+00; -2.7830392E-01;  1.0000000E+04;  0.0000000E+00;  9.9932871E+03; -5.6238395E-01;  0.0000000E+00;  9.0445459E-02;  3.6867146E+03;
  2.9975536E-01;  9.9999998E-03;  3.0006763E-01;1524; -8.5550427E-02;  0.0000000E+00;  2.1830097E-02;  1.0016294E+03;  4.0000001E-01;  1.3498872E+03;3; -3.6206390E+01;  0.0000000E+00;  8.7571239E+00;0; -4.7580126E-01;  1.0040291E+04;  0.0000000E+00; -4.3795034E-01;  1.0000000E+04;  0.0000000E+00;  9.9923447E+03; -5.7370436E-01;  0.0000000E+00;  9.7903103E-02;  4.4994106E+03;
  3.1966481E-01;  9.9999998E-03;  1.6003159E-01;1548; -1.2112531E-01;  0.0000000E+00;  1.2879850E-02;  1.0018367E+03;  4.0000001E-01;  1.5217341E+03;3; -2.9837082E+01;  0.0000000E+00;  3.2596757E+00;0; -5.1186645E-01;  1.0041490E+04;  0.0000000E+00;  3.7566017E-06;  1.0000000E+04;  0.0000000E+00;  9.9952969E+03; -5.8552778E-01;  0.0000000E+00;  7.3661342E-02;  2.4034006E+03;
  3.1966433E-01;  9.9999998E-03;  1.8003623E-01;1549; -1.1995679E-01;  0.0000000E+00;  1.4428563E-02;  1.0018339E+03;  4.0000001E-01;  1.5193639E+03;3; -2.8982864E+01;  0.0000000E+00;  3.6619172E+00;0; -5.0759780E-01;  1.0041777E+04;  0.0000000E+00;  2.7175454E-05;  1.0000000E+04;  0.0000000E+00;  9.9949541E+03; -5.8179194E-01;  0.0000000E+00;  7.4194103E-02;  2.5749739E+03;
  3.1966525E-01;  9.9999998E-03;  2.0004123E-01;1550; -1.1829831E-01;  0.0000000E+00;  1.6020915E-02;  1.0018275E+03;  4.0000001E-01;  1.5140306E+03;3; -2.8240591E+01;  0.0000000E+00;  4.0575862E+00;0; -5.0265032E-01;  1.0042063E+04;  0.0000000E+00;  1.1300218E-04;  1.0000000E+04;  0.0000000E+00;  9.9945381E+03; -5.7851899E-01;  0.0000000E+00;  7.5868644E-02;  2.7782419E+03;
  3.1966823E-01;  9.9999998E-03;  2.2004682E-01;1551; -1.1596908E-01;  0.0000000E+00;  1.7687017E-02;  1.0018189E+03;  4.0000001E-01;  1.5069198E+03;3; -2.7987432E+01;  0.0000000E+00;  4.5275936E+00;0; -4.9750051E-01;  1.0042333E+04;  0.0000000E+00; -6.3967588E-04;  1.0000000E+04;  0.0000000E+00;  9.9940977E+03; -5.7611054E-01;  0.0000000E+00;  7.8610040E-02;  2.9928066E+03;
  3.1967413E-01;  9.9999998E-03;  2.4005321E-01;1552; -1.1277863E-01;  0.0000000E+00;  1.9443177E-02;  1.0018094E+03;  4.0000001E-01;  1.4990188E+03;3; -2.8824520E+01;  0.0000000E+00;  5.1810760E+00;0; -4.9230212E-01;  1.0042583E+04;  0.0000000E+00; -7.5934003E-03;  1.0000000E+04;  0.0000000E+00;  9.9936582E+03; -5.7504410E-01;  0.0000000E+00;  8.2741983E-02;  3.2043911E+03;
  3.1968361E-01;  9.9999998E-03;  2.6006070E-01;1553; -1.0855920E-01;  0.0000000E+00;  2.1313081E-02;  1.0017959E+03;  4.0000001E-01;  1.4878586E+03;3; -3.1198694E+01;  0.0000000E+00;  6.2160091E+00;0; -4.8597118E-01;  1.0042827E+04;  0.0000000E+00; -3.0504053E-02;  1.0000000E+04;  0.0000000E+00;  9.9931445E+03; -5.7572234E-01;  0.0000000E+00;  8.9751147E-02;  3.4533979E+03;
  3.1969681E-01;  9.9999998E-03;  2.8006890E-01;1554; -1.0338704E-01;  0.0000000E+00;  2.2895457E-02;  1.0017723E+03;  4.0000001E-01;  1.4683036E+03;3; -3.5258286E+01;  0.0000000E+00;  7.5775890E+00;0; -4.8182511E-01;  1.0043056E+04;  0.0000000E+00; -7.4866176E-02;  1.0000000E+04;  0.0000000E+00;  9.9924385E+03; -5.7830310E-01;  0.0000000E+00;  9.6477993E-02;  3.8124595E+03;
  3.1971371E-01;  9.9999998E-03;  3.0007696E-01;1555; -9.7366549E-02;  0.0000000E+00;  2.4324058E-02;  1.0017501E+03;  4.0000001E-01;  1.4499337E+03;3; -4.0344448E+01;  0.0000000E+00;  9.5744219E+00;0; -4.8426956E-01;  1.0043252E+04;  0.0000000E+00; -1.2716769E-01;  1.0000000E+04;  0.0000000E+00;  9.9918047E+03; -5.8255869E-01;  0.0000000E+00;  9.8289132E-02;  4.1600947E+03;
  3.3962223E-01;  9.9999998E-03;  1.6003783E-01;1579; -1.3336180E-01;  0.0000000E+00;  1.5139323E-02;  1.0020094E+03;  4.0000001E-01;  1.6647423E+03;3; -3.1791039E+01;  0.0000000E+00;  3.6784174E+00;0; -5.4023510E-01;  1.0045784E+04;  0.0000000E+00;  3.9028455E-06;  1.0000000E+04;  0.0000000E+00;  9.9944609E+03; -6.2514138E-01;  0.0000000E+00;  8.4906280E-02;  2.8210234E+03;
  3.3962139E-01;  9.9999998E-03;  1.8004341E-01;1580; -1.3208590E-01;  0.0000000E+00;  1.6957732E-02;  1.0020048E+03;  4.0000001E-01;  1.6608905E+03;3; -3.0847986E+01;  0.0000000E+00;  4.1448641E+00;0; -5.3501511E-01;  1.0046046E+04;  0.0000000E+00;  2.3623959E-05;  1.0000000E+04;  0.0000000E+00;  9.9941045E+03; -6.1955237E-01;  0.0000000E+00;  8.4537290E-02;  2.9977686E+03;
  3.3962205E-01;  9.9999998E-03;  2.0004936E-01;1581; -1.3029943E-01;  0.0000000E+00;  1.8784199E-02;  1.0019958E+03;  4.0000001E-01;  1.6534834E+03;3; -3.0022655E+01;  0.0000000E+00;  4.6124129E+00;0; -5.2894932E-01;  1.0046275E+04;  0.0000000E+00;  9.9207718E-05;  1.0000000E+04;  0.0000000E+00;  9.9936943E+03; -6.1400050E-01;  0.0000000E+00;  8.5051194E-02;  3.1992302E+03;
  3.3962488E-01;  9.9999998E-03;  2.2005571E-01;1582; -1.2781543E-01;  0.0000000E+00;  2.0585960E-02;  1.0019836E+03;  4.0000001E-01;  1.6434095E+03;3; -2.9771734E+01;  0.0000000E+00;  5.0674839E+00;0; -5.2233678E-01;  1.0046461E+04;  0.0000000E+00;  2.8500633E-04;  1.0000000E+04;  0.0000000E+00;  9.9932783E+03; -6.0887259E-01;  0.0000000E+00;  8.6535811E-02;  3.4066230E+03;
  3.3963084E-01;  9.9999998E-03;  2.4006265E-01;1583; -1.2444307E-01;  0.0000000E+00;  2.2351796E-02;  1.0019698E+03;  4.0000001E-01;  1.6319531E+03;3; -3.0737730E+01;  0.0000000E+00;  5.7441750E+00;0; -5.1518017E-01;  1.0046591E+04;  0.0000000E+00;  3.0136225E-04;  1.0000000E+04;  0.0000000E+00;  9.9928711E+03; -6.0450345E-01;  0.0000000E+00;  8.9323260E-02;  3.6054966E+03;
  3.3964053E-01;  9.9999998E-03;  2.6007023E-01;1584; -1.2005676E-01;  0.0000000E+00;  2.4069209E-02;  1.0019525E+03;  4.0000001E-01;  1.6176326E+03;3; -3.3462120E+01;  0.0000000E+00;  6.8079247E+00;0; -5.0698382E-01;  1.0046677E+04;  0.0000000E+00; -1.9432409E-03;  1.0000000E+04;  0.0000000E+00;  9.9924395E+03; -6.0115176E-01;  0.0000000E+00;  9.4167970E-02;  3.8107744E+03;
  3.3965409E-01;  9.9999998E-03;  2.8007844E-01;1585; -1.1474369E-01;  0.0000000E+00;  2.5463900E-02;  1.0019286E+03;  4.0000001E-01;  1.5977813E+03;3; -3.8137585E+01;  0.0000000E+00;  8.2257700E+00;0; -5.0145292E-01;  1.0046722E+04;  0.0000000E+00; -8.6459126E-03;  1.0000000E+04;  0.0000000E+00;  9.9919141E+03; -5.9893298E-01;  0.0000000E+00;  9.7480074E-02;  4.0660042E+03;
  3.3967143E-01;  9.9999998E-03;  3.0008653E-01;1586; -1.0864233E-01;  0.0000000E+00;  2.6742158E-02;  1.0019078E+03;  4.0000001E-01;  1.5805966E+03;3; -4.4064640E+01;  0.0000000E+00;  1.0345583E+01;0; -5.0202239E-01;  1.0046739E+04;  0.0000000E+00; -1.8503336E-02;  1.0000000E+04;  0.0000000E+00;  9.9914814E+03; -5.9784210E-01;  0.0000000E+00;  9.5819719E-02;  4.2801162E+03;
  3.5957524E-01;  9.9999998E-03;  1.6004410E-01;1610; -1.4640754E-01;  0.0000000E+00;  1.7273916E-02;  1.0022009E+03;  4.0000001E-01;  1.8233549E+03;3; -3.3728180E+01;  0.0000000E+00;  4.0063348E+00;0; -5.7142246E-01;  1.0050457E+04;  0.0000000E+00;  2.8411343E-06;  1.0000000E+04;  0.0000000E+00;  9.9936338E+03; -6.6634363E-01;  0.0000000E+00;  9.4921179E-02;  3.2369312E+03;
  3.5957408E-01;  9.9999998E-03;  1.8005055E-01;1611; -1.4499260E-01;  0.0000000E+00;  1.9287918E-02;  1.0021951E+03;  4.0000001E-01;  1.8186143E+03;3; -3.2691444E+01;  0.0000000E+00;  4.4970226E+00;0; -5.6535500E-01;  1.0050694E+04;  0.0000000E+00;  1.9516590E-05;  1.0000000E+04;  0.0000000E+00;  9.9932813E+03; -6.5879995E-01;  0.0000000E+00;  9.3444951E-02;  3.4138374E+03;
  3.5957444E-01;  9.9999998E-03;  2.0005731E-01;1612; -1.4304622E-01;  0.0000000E+00;  2.1267451E-02;  1.0021843E+03;  4.0000001E-01;  1.8096268E+03;3; -3.1785559E+01;  0.0000000E+00;  4.9876604E+00;0; -5.5824888E-01;  1.0050867E+04;  0.0000000E+00;  8.9726076E-05;  1.0000000E+04;  0.0000000E+00;  9.9928916E+03; -6.5086794E-01;  0.0000000E+00;  9.2619032E-02;  3.6086350E+03;
  3.5957718E-01;  9.9999998E-03;  2.2006436E-01;1613; -1.4036120E-01;  0.0000000E+00;  2.3167197E-02;  1.0021697E+03;  4.0000001E-01;  1.7975779E+03;3; -3.1517668E+01;  0.0000000E+00;  5.4702973E+00;0; -5.5033606E-01;  1.0050969E+04;  0.0000000E+00;  2.7129790E-04;  1.0000000E+04;  0.0000000E+00;  9.9925000E+03; -6.4298850E-01;  0.0000000E+00;  9.2652440E-02;  3.8029934E+03;
  3.5958338E-01;  9.9999998E-03;  2.4007177E-01;1614; -1.3673455E-01;  0.0000000E+00;  2.4939496E-02;  1.0021532E+03;  4.0000001E-01;  1.7838499E+03;3; -3.2613281E+01;  0.0000000E+00;  6.1590104E+00;0; -5.4181403E-01;  1.0050996E+04;  0.0000000E+00;  5.8985176E-04;  1.0000000E+04;  0.0000000E+00;  9.9921416E+03; -6.3561654E-01;  0.0000000E+00;  9.3802489E-02;  3.9776746E+03;
  3.5959363E-01;  9.9999998E-03;  2.6007959E-01;1615; -1.3204698E-01;  0.0000000E+00;  2.6567837E-02;  1.0021350E+03;  4.0000001E-01;  1.7688379E+03;3; -3.5680275E+01;  0.0000000E+00;  7.2679138E+00;0; -5.3266418E-01;  1.0050951E+04;  0.0000000E+00;  9.6601929E-04;  1.0000000E+04;  0.0000000E+00;  9.9918223E+03; -6.2908155E-01;  0.0000000E+00;  9.6417382E-02;  4.1307632E+03;
  3.5960826E-01;  9.9999998E-03;  2.8008813E-01;1616; -1.2635061E-01;  0.0000000E+00;  2.7910206E-02;  1.0021110E+03;  4.0000001E-01;  1.7488879E+03;3; -4.0910233E+01;  0.0000000E+00;  8.7987947E+00;0; -5.2594602E-01;  1.0050863E+04;  0.0000000E+00;  1.0634958E-03;  1.0000000E+04;  0.0000000E+00;  9.9914336E+03; -6.2356108E-01;  0.0000000E+00;  9.7615078E-02;  4.3190542E+03;
  3.5962719E-01;  9.9999998E-03;  3.0009663E-01;1617; -1.1977245E-01;  0.0000000E+00;  2.9105900E-02;  1.0020894E+03;  4.0000001E-01;  1.7310118E+03;3; -4.7545521E+01;  0.0000000E+00;  1.1047385E+01;0; -5.2510726E-01;  1.0050752E+04;  0.0000000E+00;  3.5923536E-04;  1.0000000E+04;  0.0000000E+00;  9.9911084E+03; -6.1916345E-01;  0.0000000E+00;  9.4056182E-02;  4.4824644E+03;
  3.7952343E-01;  9.9999998E-03;  1.6005030E-01;1641; -1.6028757E-01;  0.0000000E+00;  1.9223476E-02;  1.0024127E+03;  4.0000001E-01;  1.9988556E+03;3; -3.5636391E+01;  0.0000000E+00;  4.2318501E+00;0; -6.0543424E-01;  1.0055525E+04;  0.0000000E+00;  6.6849839E-07;  1.0000000E+04;  0.0000000E+00;  9.9928193E+03; -7.0914471E-01;  0.0000000E+00;  1.0371048E-01;  3.6517698E+03;
  3.7952194E-01;  9.9999998E-03;  1.8005756E-01;1642; -1.5870094E-01;  0.0000000E+00;  2.1390462E-02;  1.0024064E+03;  4.0000001E-01;  1.9936211E+03;3; -3.4499905E+01;  0.0000000E+00;  4.7287230E+00;0; -5.9854203E-01;  1.0055748E+04;  0.0000000E+00;  1.4485518E-05;  1.0000000E+04;  0.0000000E+00;  9.9924688E+03; -6.9967258E-01;  0.0000000E+00;  1.0113054E-01;  3.8285757E+03;
  3.7952206E-01;  9.9999998E-03;  2.0006511E-01;1643; -1.5656155E-01;  0.0000000E+00;  2.3488097E-02;  1.0023945E+03;  4.0000001E-01;  1.9837449E+03;3; -3.3511787E+01;  0.0000000E+00;  5.2312360E+00;0; -5.9041309E-01;  1.0055887E+04;  0.0000000E+00;  8.3511884E-05;  1.0000000E+04;  0.0000000E+00;  9.9920898E+03; -6.8944365E-01;  0.0000000E+00;  9.9030562E-02;  4.0182349E+03;
  3.7952474E-01;  9.9999998E-03;  2.2007285E-01;1644; -1.5364400E-01;  0.0000000E+00;  2.5465569E-02;  1.0023781E+03;  4.0000001E-01;  1.9702144E+03;3; -3.3212852E+01;  0.0000000E+00;  5.7575760E+00;0; -5.8123004E-01;  1.0055928E+04;  0.0000000E+00;  2.7328072E-04;  1.0000000E+04;  0.0000000E+00;  9.9917236E+03; -6.7895025E-01;  0.0000000E+00;  9.7720221E-02;  4.2026128E+03;
  3.7953120E-01;  9.9999998E-03;  2.4008082E-01;1645; -1.4972268E-01;  0.0000000E+00;  2.7270634E-02;  1.0023594E+03;  4.0000001E-01;  1.9547086E+03;3; -3.4457561E+01;  0.0000000E+00;  6.4607143E+00;0; -5.7128942E-01;  1.0055872E+04;  0.0000000E+00;  6.1891647E-04;  1.0000000E+04;  0.0000000E+00;  9.9914033E+03; -6.6878915E-01;  0.0000000E+00;  9.7499698E-02;  4.3583320E+03;
  3.7954220E-01;  9.9999998E-03;  2.6008907E-01;1646; -1.4466780E-01;  0.0000000E+00;  2.8872482E-02;  1.0023406E+03;  4.0000001E-01;  1.9392030E+03;3; -3.7883087E+01;  0.0000000E+00;  7.6002631E+00;0; -5.6086648E-01;  1.0055735E+04;  0.0000000E+00;  1.0451088E-03;  1.0000000E+04;  0.0000000E+00;  9.9911680E+03; -6.5946370E-01;  0.0000000E+00;  9.8597236E-02;  4.4725317E+03;
  3.7955821E-01;  9.9999998E-03;  2.8009820E-01;1647; -1.3848859E-01;  0.0000000E+00;  3.0206706E-02;  1.0023155E+03;  4.0000001E-01;  1.9183640E+03;3; -4.3670830E+01;  0.0000000E+00;  9.2652597E+00;0; -5.5260628E-01;  1.0055541E+04;  0.0000000E+00;  1.2542256E-03;  1.0000000E+04;  0.0000000E+00;  9.9908584E+03; -6.5130579E-01;  0.0000000E+00;  9.8699488E-02;  4.6223516E+03;
  3.7957919E-01;  9.9999998E-03;  3.0010733E-01;1648; -1.3128352E-01;  0.0000000E+00;  3.1356689E-02;  1.0022904E+03;  4.0000001E-01;  1.8975251E+03;3; -5.1012695E+01;  0.0000000E+00;  1.1613536E+01;0; -5.5027026E-01;  1.0055326E+04;  0.0000000E+00;  7.6356967E-04;  1.0000000E+04;  0.0000000E+00;  9.9905703E+03; -6.4453197E-01;  0.0000000E+00;  9.4261713E-02;  4.7695317E+03;
  3.9946645E-01;  9.9999998E-03;  1.6005637E-01;1672; -1.7502964E-01;  0.0000000E+00;  2.0951100E-02;  1.0026456E+03;  4.0000001E-01;  2.1918372E+03;3; -3.7505516E+01;  0.0000000E+00;  4.3469954E+00;0; -6.4209366E-01;  1.0061011E+04;  0.0000000E+00; -2.0836574E-06;  1.0000000E+04;  0.0000000E+00;  9.9920049E+03; -7.5346655E-01;  0.0000000E+00;  1.1137289E-01;  4.0682258E+03;
  3.9946464E-01;  9.9999998E-03;  1.8006445E-01;1673; -1.7323574E-01;  0.0000000E+00;  2.3256496E-02;  1.0026395E+03;  4.0000001E-01;  2.1867017E+03;3; -3.6270252E+01;  0.0000000E+00;  4.8393512E+00;0; -6.3432050E-01;  1.0061241E+04;  0.0000000E+00;  8.5498159E-06;  1.0000000E+04;  0.0000000E+00;  9.9916523E+03; -7.4216384E-01;  0.0000000E+00;  1.0784334E-01;  4.2476514E+03;
  3.9946452E-01;  9.9999998E-03;  2.0007282E-01;1674; -1.7086986E-01;  0.0000000E+00;  2.5465369E-02;  1.0026270E+03;  4.0000001E-01;  2.1764304E+03;3; -3.5195675E+01;  0.0000000E+00;  5.3549919E+00;0; -6.2512016E-01;  1.0061373E+04;  0.0000000E+00;  7.8290097E-05;  1.0000000E+04;  0.0000000E+00;  9.9912783E+03; -7.2981465E-01;  0.0000000E+00;  1.0469448E-01;  4.4380859E+03;
  3.9946714E-01;  9.9999998E-03;  2.2008134E-01;1675; -1.6768800E-01;  0.0000000E+00;  2.7522968E-02;  1.0026097E+03;  4.0000001E-01;  2.1621096E+03;3; -3.4876755E+01;  0.0000000E+00;  5.9111876E+00;0; -6.1461699E-01;  1.0061390E+04;  0.0000000E+00;  2.8444757E-04;  1.0000000E+04;  0.0000000E+00;  9.9909102E+03; -7.1695989E-01;  0.0000000E+00;  1.0234288E-01;  4.6214048E+03;
  3.9947394E-01;  9.9999998E-03;  2.4009000E-01;1676; -1.6342522E-01;  0.0000000E+00;  2.9387038E-02;  1.0025894E+03;  4.0000001E-01;  2.1453201E+03;3; -3.6260738E+01;  0.0000000E+00;  6.6488314E+00;0; -6.0313582E-01;  1.0061289E+04;  0.0000000E+00;  6.7408051E-04;  1.0000000E+04;  0.0000000E+00;  9.9906084E+03; -7.0433027E-01;  0.0000000E+00;  1.0119443E-01;  4.7707441E+03;
  3.9948580E-01;  9.9999998E-03;  2.6009884E-01;1677; -1.5794519E-01;  0.0000000E+00;  3.0999765E-02;  1.0025700E+03;  4.0000001E-01;  2.1292219E+03;3; -4.0045528E+01;  0.0000000E+00;  7.8500381E+00;0; -5.9108055E-01;  1.0061097E+04;  0.0000000E+00;  1.1697103E-03;  1.0000000E+04;  0.0000000E+00;  9.9904121E+03; -6.9258732E-01;  0.0000000E+00;  1.0150679E-01;  4.8648340E+03;
  3.9950329E-01;  9.9999998E-03;  2.8010869E-01;1678; -1.5122250E-01;  0.0000000E+00;  3.2325987E-02;  1.0025437E+03;  4.0000001E-01;  2.1073953E+03;3; -4.6425076E+01;  0.0000000E+00;  9.5893011E+00;0; -5.8107328E-01;  1.0060840E+04;  0.0000000E+00;  1.4364694E-03;  1.0000000E+04;  0.0000000E+00;  9.9901357E+03; -6.8220186E-01;  0.0000000E+00;  1.0112855E-01;  4.9986890E+03;
  3.9952651E-01;  9.9999998E-03;  3.0011860E-01;1679; -1.4334066E-01;  0.0000000E+00;  3.3444650E-02;  1.0025156E+03;  4.0000001E-01;  2.0840874E+03;3; -5.4485996E+01;  0.0000000E+00;  1.2057528E+01;0; -5.7738012E-01;  1.0060569E+04;  0.0000000E+00;  8.9637813E-04;  1.0000000E+04;  0.0000000E+00;  9.9898438E+03; -6.7347473E-01;  0.0000000E+00;  9.6094631E-02;  5.1451431E+03;
  4.1940394E-01;  9.9999998E-03;  1.6006230E-01;1703; -1.9065982E-01;  0.0000000E+00;  2.2421801E-02;  1.0028994E+03;  4.0000001E-01;  2.4021018E+03;3; -3.9333248E+01;  0.0000000E+00;  4.3473353E+00;0; -6.8116593E-01;  1.0066924E+04;  0.0000000E+00; -3.0886445E-06;  1.0000000E+04;  0.0000000E+00;  9.9911934E+03; -7.9911661E-01;  0.0000000E+00;  1.1795068E-01;  4.4884258E+03;
  4.1940174E-01;  9.9999998E-03;  1.8007125E-01;1704; -1.8862478E-01;  0.0000000E+00;  2.4858113E-02;  1.0028944E+03;  4.0000001E-01;  2.3979539E+03;3; -3.8003197E+01;  0.0000000E+00;  4.8177023E+00;0; -6.7242730E-01;  1.0067185E+04;  0.0000000E+00;  3.5673220E-06;  1.0000000E+04;  0.0000000E+00;  9.9908291E+03; -7.8612620E-01;  0.0000000E+00;  1.1369891E-01;  4.6731655E+03;
  4.1940135E-01;  9.9999998E-03;  2.0008051E-01;1705; -1.8599220E-01;  0.0000000E+00;  2.7194100E-02;  1.0028826E+03;  4.0000001E-01;  2.3881763E+03;3; -3.6830807E+01;  0.0000000E+00;  5.3498521E+00;0; -6.6208285E-01;  1.0067345E+04;  0.0000000E+00;  7.4160969E-05;  1.0000000E+04;  0.0000000E+00;  9.9904414E+03; -7.7187711E-01;  0.0000000E+00;  1.0979426E-01;  4.8714678E+03;
  4.1940397E-01;  9.9999998E-03;  2.2008991E-01;1706; -1.8250507E-01;  0.0000000E+00;  2.9349772E-02;  1.0028651E+03;  4.0000001E-01;  2.3736582E+03;3; -3.6492481E+01;  0.0000000E+00;  5.9377470E+00;0; -6.5018272E-01;  1.0067377E+04;  0.0000000E+00;  3.0138803E-04;  1.0000000E+04;  0.0000000E+00;  9.9900566E+03; -7.5696683E-01;  0.0000000E+00;  1.0678412E-01;  5.0650405E+03;
  4.1941112E-01;  9.9999998E-03;  2.4009939E-01;1707; -1.7784697E-01;  0.0000000E+00;  3.1299584E-02;  1.0028445E+03;  4.0000001E-01;  2.3566711E+03;3; -3.8005566E+01;  0.0000000E+00;  6.7235394E+00;0; -6.3700020E-01;  1.0067293E+04;  0.0000000E+00;  7.4597303E-04;  1.0000000E+04;  0.0000000E+00;  9.9897344E+03; -7.4224305E-01;  0.0000000E+00;  1.0524282E-01;  5.2239800E+03;
  4.1942391E-01;  9.9999998E-03;  2.6010901E-01;1708; -1.7187922E-01;  0.0000000E+00;  3.2931030E-02;  1.0028251E+03;  4.0000001E-01;  2.3405728E+03;3; -4.2154671E+01;  0.0000000E+00;  7.9752030E+00;0; -6.2309301E-01;  1.0067098E+04;  0.0000000E+00;  1.3243841E-03;  1.0000000E+04;  0.0000000E+00;  9.9895381E+03; -7.2849905E-01;  0.0000000E+00;  1.0540607E-01;  5.3197104E+03;
  4.1944307E-01;  9.9999998E-03;  2.8011975E-01;1709; -1.6454229E-01;  0.0000000E+00;  3.4236759E-02;  1.0027984E+03;  4.0000001E-01;  2.3184500E+03;3; -4.9148590E+01;  0.0000000E+00;  9.7484865E+00;0; -6.1140740E-01;  1.0066844E+04;  0.0000000E+00;  1.6468773E-03;  1.0000000E+04;  0.0000000E+00;  9.9892588E+03; -7.1631467E-01;  0.0000000E+00;  1.0490730E-01;  5.4552153E+03;
  4.1946870E-01;  9.9999998E-03;  3.0013055E-01;1710; -1.5592594E-01;  0.0000000E+00;  3.5301112E-02;  1.0027697E+03;  4.0000001E-01;  2.2946482E+03;3; -5.7941776E+01;  0.0000000E+00;  1.2318017E+01;0; -6.0711223E-01;  1.0066563E+04;  0.0000000E+00;  1.0100235E-03;  1.0000000E+04;  0.0000000E+00;  9.9889600E+03; -7.0606065E-01;  0.0000000E+00;  9.8948397E-02;  5.6074849E+03;
  4.3933544E-01;  9.9999998E-03;  1.6006817E-01;1734; -2.0720603E-01;  0.0000000E+00;  2.3580359E-02;  1.0031732E+03;  4.0000001E-01;  2.6289583E+03;3; -4.1103539E+01;  0.0000000E+00;  4.2397985E+00;0; -7.2231817E-01;  1.0073251E+04;  0.0000000E+00;  5.2749846E-07;  1.0000000E+04;  0.0000000E+00;  9.9903721E+03; -8.4566200E-01;  0.0000000E+00;  1.2334386E-01;  4.9136030E+03;
  4.3933284E-01;  9.9999998E-03;  1.8007801E-01;1735; -2.0489228E-01;  0.0000000E+00;  2.6158050E-02;  1.0031703E+03;  4.0000001E-01;  2.6264893E+03;3; -3.9671745E+01;  0.0000000E+00;  4.6869636E+00;0; -7.1258336E-01;  1.0073563E+04;  0.0000000E+00;  3.8311800E-06;  1.0000000E+04;  0.0000000E+00;  9.9900078E+03; -8.3117664E-01;  0.0000000E+00;  1.1859327E-01;  5.1027388E+03;
  4.3933213E-01;  9.9999998E-03;  2.0008820E-01;1736; -2.0195799E-01;  0.0000000E+00;  2.8624265E-02;  1.0031608E+03;  4.0000001E-01;  2.6186870E+03;3; -3.8405750E+01;  0.0000000E+00;  5.2074056E+00;0; -7.0107913E-01;  1.0073791E+04;  0.0000000E+00;  7.6494412E-05;  1.0000000E+04;  0.0000000E+00;  9.9895928E+03; -8.1530058E-01;  0.0000000E+00;  1.1422143E-01;  5.3136182E+03;
  4.3933469E-01;  9.9999998E-03;  2.2009856E-01;1737; -1.9811340E-01;  0.0000000E+00;  3.0900160E-02;  1.0031454E+03;  4.0000001E-01;  2.6058479E+03;3; -3.8042915E+01;  0.0000000E+00;  5.8263221E+00;0; -6.8776757E-01;  1.0073898E+04;  0.0000000E+00;  3.2875841E-04;  1.0000000E+04;  0.0000000E+00;  9.9891689E+03; -7.9870480E-01;  0.0000000E+00;  1.1093723E-01;  5.5272246E+03;
  4.3934223E-01;  9.9999998E-03;  2.4010901E-01;1738; -1.9299714E-01;  0.0000000E+00;  3.2962039E-02;  1.0031263E+03;  4.0000001E-01;  2.5900459E+03;3; -3.9670330E+01;  0.0000000E+00;  6.6678200E+00;0; -6.7278761E-01;  1.0073888E+04;  0.0000000E+00;  8.3647767E-04;  1.0000000E+04;  0.0000000E+00;  9.9887998E+03; -7.8233516E-01;  0.0000000E+00;  1.0954753E-01;  5.7101323E+03;
  4.3935603E-01;  9.9999998E-03;  2.6011968E-01;1739; -1.8646997E-01;  0.0000000E+00;  3.4625795E-02;  1.0031083E+03;  4.0000001E-01;  2.5751328E+03;3; -4.4184528E+01;  0.0000000E+00;  7.9535837E+00;0; -6.5684384E-01;  1.0073772E+04;  0.0000000E+00;  1.5055322E-03;  1.0000000E+04;  0.0000000E+00;  9.9885479E+03; -7.6708037E-01;  0.0000000E+00;  1.1023650E-01;  5.8302544E+03;
  4.3937695E-01;  9.9999998E-03;  2.8013146E-01;1740; -1.7843933E-01;  0.0000000E+00;  3.5892233E-02;  1.0030827E+03;  4.0000001E-01;  2.5539976E+03;3; -5.1793205E+01;  0.0000000E+00;  9.7427416E+00;0; -6.4375943E-01;  1.0073588E+04;  0.0000000E+00;  1.8715427E-03;  1.0000000E+04;  0.0000000E+00;  9.9882227E+03; -7.5359255E-01;  0.0000000E+00;  1.0983313E-01;  5.9899033E+03;
  4.3940520E-01;  9.9999998E-03;  3.0014336E-01;1741; -1.6900983E-01;  0.0000000E+00;  3.6875252E-02;  1.0030554E+03;  4.0000001E-01;  2.5312822E+03;3; -6.1343895E+01;  0.0000000E+00;  1.2361453E+01;0; -6.3967335E-01;  1.0073363E+04;  0.0000000E+00;  1.0615030E-03;  1.0000000E+04;  0.0000000E+00;  9.9878965E+03; -7.4229532E-01;  0.0000000E+00;  1.0262198E-01;  6.1563154E+03;
  4.5926046E-01;  9.9999998E-03;  1.6007425E-01;1765; -2.2469617E-01;  0.0000000E+00;  2.4384361E-02;  1.0034647E+03;  4.0000096E-01;  2.8704309E+03;3; -4.2819279E+01;  0.0000000E+00;  3.9681952E+00;0; -7.6476461E-01;  1.0079893E+04;  0.0000000E+00;  1.2838308E-05;  1.0000000E+04;  0.0000000E+00;  9.9895439E+03; -8.9207458E-01;  0.0000000E+00;  1.2730999E-01;  5.3466772E+03;
  4.5925736E-01;  9.9999998E-03;  1.8008494E-01;1766; -2.2207440E-01;  0.0000000E+00;  2.7097991E-02;  1.0034666E+03;  4.0000102E-01;  2.8720110E+03;3; -4.1270859E+01;  0.0000000E+00;  4.4108067E+00;0; -7.5413698E-01;  1.0080289E+04;  0.0000000E+00;  1.6223223E-05;  1.0000000E+04;  0.0000000E+00;  9.9891875E+03; -8.7634921E-01;  0.0000000E+00;  1.2221225E-01;  5.5322920E+03;
  4.5925623E-01;  9.9999998E-03;  2.0009600E-01;1767; -2.1880007E-01;  0.0000000E+00;  2.9689336E-02;  1.0034614E+03;  4.0000108E-01;  2.8676655E+03;3; -3.9907806E+01;  0.0000000E+00;  4.9016981E+00;0; -7.4160308E-01;  1.0080627E+04;  0.0000000E+00;  9.5821488E-05;  1.0000000E+04;  0.0000000E+00;  9.9887549E+03; -8.5921246E-01;  0.0000000E+00;  1.1760937E-01;  5.7547813E+03;
  4.5925868E-01;  9.9999998E-03;  2.2010726E-01;1768; -2.1455006E-01;  0.0000000E+00;  3.2076403E-02;  1.0034503E+03;  4.0000099E-01;  2.8584805E+03;3; -3.9503994E+01;  0.0000000E+00;  5.5499892E+00;0; -7.2705209E-01;  1.0080879E+04;  0.0000000E+00;  3.8111972E-04;  1.0000000E+04;  0.0000000E+00;  9.9882793E+03; -8.4142160E-01;  0.0000000E+00;  1.1436952E-01;  5.9928013E+03;
  4.5926660E-01;  9.9999998E-03;  2.4011874E-01;1769; -2.0890872E-01;  0.0000000E+00;  3.4268796E-02;  1.0034363E+03;  4.0000090E-01;  2.8469253E+03;3; -4.1235622E+01;  0.0000000E+00;  6.4524536E+00;0; -7.1039855E-01;  1.0081026E+04;  0.0000000E+00;  9.6306886E-04;  1.0000000E+04;  0.0000000E+00;  9.9878496E+03; -8.2399786E-01;  0.0000000E+00;  1.1359930E-01;  6.2063833E+03;
  4.5928144E-01;  9.9999998E-03;  2.6013073E-01;1770; -2.0174183E-01;  0.0000000E+00;  3.6003076E-02;  1.0034219E+03;  4.0000102E-01;  2.8349751E+03;3; -4.6116604E+01;  0.0000000E+00;  7.7459016E+00;0; -6.9231564E-01;  1.0081079E+04;  0.0000000E+00;  1.7298532E-03;  1.0000000E+04;  0.0000000E+00;  9.9875117E+03; -8.0788219E-01;  0.0000000E+00;  1.1556657E-01;  6.3684058E+03;
  4.5930418E-01;  9.9999998E-03;  2.8014401E-01;1771; -1.9293498E-01;  0.0000000E+00;  3.7226364E-02;  1.0033985E+03;  4.0000105E-01;  2.8156177E+03;3; -5.4339958E+01;  0.0000000E+00;  9.5263567E+00;0; -6.7811155E-01;  1.0081051E+04;  0.0000000E+00;  2.1154918E-03;  1.0000000E+04;  0.0000000E+00;  9.9870645E+03; -7.9375529E-01;  0.0000000E+00;  1.1564373E-01;  6.5868179E+03;
  4.5933527E-01;  9.9999998E-03;  3.0015719E-01;1772; -1.8259564E-01;  0.0000000E+00;  3.8118519E-02;  1.0033758E+03;  4.0000090E-01;  2.7967542E+03;3; -6.4658569E+01;  0.0000000E+00;  1.2147546E+01;0; -6.7497098E-01;  1.0080985E+04;  0.0000000E+00;  1.0124232E-03;  1.0000000E+04;  0.0000000E+00;  9.9866689E+03; -7.8206104E-01;  0.0000000E+00;  1.0709007E-01;  6.7920405E+03;
  4.7917852E-01;  9.9999998E-03;  1.6008106E-01;1796; -2.4316640E-01;  0.0000000E+00;  2.4823591E-02;  1.0037618E+03;  4.0000278E-01;  3.1165449E+03;3; -4.4474171E+01;  0.0000000E+00;  3.5190985E+00;0; -8.0656266E-01;  1.0086635E+04;  0.0000000E+00;  4.0510393E-05;  1.0000000E+04;  0.0000000E+00;  9.9886924E+03; -9.3611175E-01;  0.0000000E+00;  1.2954909E-01;  5.7973018E+03;
  4.7917476E-01;  9.9999998E-03;  1.8009248E-01;1797; -2.4021380E-01;  0.0000000E+00;  2.7639357E-02;  1.0037710E+03;  4.0000281E-01;  3.1241497E+03;3; -4.2791908E+01;  0.0000000E+00;  3.9705029E+00;0; -7.9533356E-01;  1.0087139E+04;  0.0000000E+00;  5.0294348E-05;  1.0000000E+04;  0.0000000E+00;  9.9883721E+03; -9.1946864E-01;  0.0000000E+00;  1.2413508E-01;  5.9627529E+03;
  4.7917306E-01;  9.9999998E-03;  2.0010419E-01;1798; -2.3657213E-01;  0.0000000E+00;  3.0311180E-02;  1.0037736E+03;  4.0000269E-01;  3.1263223E+03;3; -4.1323330E+01;  0.0000000E+00;  4.4119248E+00;0; -7.8210092E-01;  1.0087631E+04;  0.0000000E+00;  1.4717726E-04;  1.0000000E+04;  0.0000000E+00;  9.9879316E+03; -9.0155315E-01;  0.0000000E+00;  1.1945221E-01;  6.1882861E+03;
  4.7917524E-01;  9.9999998E-03;  2.2011612E-01;1799; -2.3187450E-01;  0.0000000E+00;  3.2758933E-02;  1.0037705E+03;  4.0000272E-01;  3.1237546E+03;3; -4.0882530E+01;  0.0000000E+00;  5.0354891E+00;0; -7.6672971E-01;  1.0088091E+04;  0.0000000E+00;  4.8263819E-04;  1.0000000E+04;  0.0000000E+00;  9.9874209E+03; -8.8321435E-01;  0.0000000E+00;  1.1648462E-01;  6.4467603E+03;
  4.7918341E-01;  9.9999998E-03;  2.4012850E-01;1800; -2.2565639E-01;  0.0000000E+00;  3.5053216E-02;  1.0037667E+03;  4.0000260E-01;  3.1205942E+03;3; -4.2698833E+01;  0.0000000E+00;  6.0132017E+00;0; -7.4897230E-01;  1.0088489E+04;  0.0000000E+00;  1.1618657E-03;  1.0000000E+04;  0.0000000E+00;  9.9869443E+03; -8.6552095E-01;  0.0000000E+00;  1.1654864E-01;  6.6822246E+03;
  4.7919920E-01;  9.9999998E-03;  2.6014212E-01;1801; -2.1776421E-01;  0.0000000E+00;  3.6938798E-02;  1.0037619E+03;  4.0000287E-01;  3.1166436E+03;3; -4.7944057E+01;  0.0000000E+00;  7.3092456E+00;0; -7.2890705E-01;  1.0088814E+04;  0.0000000E+00;  2.0431329E-03;  1.0000000E+04;  0.0000000E+00;  9.9865244E+03; -8.4941459E-01;  0.0000000E+00;  1.2050752E-01;  6.8845977E+03;
  4.7922373E-01;  9.9999998E-03;  2.8015745E-01;1802; -2.0810676E-01;  0.0000000E+00;  3.8166221E-02;  1.0037419E+03;  4.0000263E-01;  3.1001504E+03;3; -5.6784523E+01;  0.0000000E+00;  9.0518150E+00;0; -7.1366668E-01;  1.0089066E+04;  0.0000000E+00;  2.4147728E-03;  1.0000000E+04;  0.0000000E+00;  9.9858721E+03; -8.3554673E-01;  0.0000000E+00;  1.2188004E-01;  7.2049019E+03;
  4.7925761E-01;  9.9999998E-03;  3.0017245E-01;1803; -1.9677010E-01;  0.0000000E+00;  3.8980857E-02;  1.0037241E+03;  4.0000269E-01;  3.0853359E+03;3; -6.7884659E+01;  0.0000000E+00;  1.1630312E+01;0; -7.1207064E-01;  1.0089267E+04;  0.0000000E+00;  8.4372901E-04;  1.0000000E+04;  0.0000000E+00;  9.9853086E+03; -8.2432985E-01;  0.0000000E+00;  1.1225922E-01;  7.4946860E+03;
  4.9908897E-01;  9.9999998E-03;  1.6008945E-01;1827; -2.6265112E-01;  0.0000000E+00;  2.4934979E-02;  1.0040438E+03;  4.0000659E-01;  3.3502131E+03;3; -4.6071877E+01;  0.0000000E+00;  2.8335829E+00;0; -8.4375763E-01;  1.0093039E+04;  0.0000000E+00;  9.2978480E-05;  1.0000000E+04;  0.0000000E+00;  9.9877568E+03; -9.7360599E-01;  0.0000000E+00;  1.2984838E-01;  6.2882075E+03;
  4.9908447E-01;  9.9999998E-03;  1.8010142E-01;1828; -2.5935942E-01;  0.0000000E+00;  2.7767839E-02;  1.0040636E+03;  4.0000680E-01;  3.3666077E+03;3; -4.4249355E+01;  0.0000000E+00;  3.2661633E+00;0; -8.3239442E-01;  1.0093658E+04;  0.0000000E+00;  1.1649912E-04;  1.0000000E+04;  0.0000000E+00;  9.9875322E+03; -9.5642614E-01;  0.0000000E+00;  1.2403171E-01;  6.4103472E+03;
  4.9908206E-01;  9.9999998E-03;  2.0011345E-01;1829; -2.5532687E-01;  0.0000000E+00;  3.0443465E-02;  1.0040765E+03;  4.0000686E-01;  3.3772739E+03;3; -4.2658188E+01;  0.0000000E+00;  3.6830022E+00;0; -8.1897479E-01;  1.0094344E+04;  0.0000000E+00;  2.4614084E-04;  1.0000000E+04;  0.0000000E+00;  9.9871133E+03; -9.3831420E-01;  0.0000000E+00;  1.1933942E-01;  6.6246172E+03;
  4.9908376E-01;  9.9999998E-03;  2.2012560E-01;1830; -2.5015751E-01;  0.0000000E+00;  3.2852642E-02;  1.0040862E+03;  4.0000671E-01;  3.3852737E+03;3; -4.2178757E+01;  0.0000000E+00;  4.2270255E+00;0; -8.0343539E-01;  1.0095067E+04;  0.0000000E+00;  6.6563115E-04;  1.0000000E+04;  0.0000000E+00;  9.9865801E+03; -9.2020410E-01;  0.0000000E+00;  1.1676871E-01;  6.8918691E+03;
  4.9909183E-01;  9.9999998E-03;  2.4013841E-01;1831; -2.4334127E-01;  0.0000000E+00;  3.5148893E-02;  1.0040993E+03;  4.0000680E-01;  3.3961375E+03;3; -4.4089493E+01;  0.0000000E+00;  5.2401776E+00;0; -7.8562951E-01;  1.0095800E+04;  0.0000000E+00;  1.4932550E-03;  1.0000000E+04;  0.0000000E+00;  9.9861230E+03; -9.0317070E-01;  0.0000000E+00;  1.1754119E-01;  7.1200410E+03;
  4.9910828E-01;  9.9999998E-03;  2.6015377E-01;1832; -2.3466346E-01;  0.0000000E+00;  3.7276626E-02;  1.0041129E+03;  4.0000677E-01;  3.4073965E+03;3; -4.9680832E+01;  0.0000000E+00;  6.5865178E+00;0; -7.6432317E-01;  1.0096495E+04;  0.0000000E+00;  2.5325150E-03;  1.0000000E+04;  0.0000000E+00;  9.9857051E+03; -8.8810509E-01;  0.0000000E+00;  1.2378190E-01;  7.3201748E+03;
  4.9913421E-01;  9.9999998E-03;  2.8017208E-01;1833; -2.2411864E-01;  0.0000000E+00;  3.8634416E-02;  1.0040988E+03;  4.0000674E-01;  3.3957424E+03;3; -5.9154129E+01;  0.0000000E+00;  8.2739305E+00;0; -7.4781573E-01;  1.0097139E+04;  0.0000000E+00;  2.8501840E-03;  1.0000000E+04;  0.0000000E+00;  9.9847754E+03; -8.7556511E-01;  0.0000000E+00;  1.2774940E-01;  7.7746006E+03;
  4.9917039E-01;  9.9999998E-03;  3.0018952E-01;1834; -2.1176413E-01;  0.0000000E+00;  3.9427884E-02;  1.0040851E+03;  4.0000668E-01;  3.3843848E+03;3; -7.1072029E+01;  0.0000000E+00;  1.0763354E+01;0; -7.4794316E-01;  1.0097724E+04;  0.0000000E+00;  5.7091046E-04;  1.0000000E+04;  0.0000000E+00;  9.9839131E+03; -8.6584878E-01;  0.0000000E+00;  1.1790559E-01;  8.2158311E+03;
  5.1899159E-01;  9.9999998E-03;  1.6010053E-01;1858; -2.8314626E-01;  0.0000000E+00;  2.4808168E-02;  1.0042851E+03;  4.0001833E-01;  3.5501030E+03;3; -4.7600113E+01;  0.0000000E+00;  1.9122025E+00;0; -8.6976969E-01;  1.0098392E+04;  0.0000000E+00;  1.7322076E-04;  1.0000000E+04;  0.0000000E+00;  9.9866523E+03; -9.9804461E-01;  0.0000000E+00;  1.2827490E-01;  6.8623784E+03;
  5.1898623E-01;  9.9999998E-03;  1.8011299E-01;1859; -2.7951536E-01;  0.0000000E+00;  2.7541697E-02;  1.0043168E+03;  4.0001824E-01;  3.5763738E+03;3; -4.5645496E+01;  0.0000000E+00;  2.2623658E+00;0; -8.5878247E-01;  1.0099125E+04;  0.0000000E+00;  2.1260533E-04;  1.0000000E+04;  0.0000000E+00;  9.9865557E+03; -9.8073423E-01;  0.0000000E+00;  1.2195174E-01;  6.9205698E+03;
  5.1898295E-01;  9.9999998E-03;  2.0012498E-01;1860; -2.7508664E-01;  0.0000000E+00;  3.0085757E-02;  1.0043421E+03;  4.0001827E-01;  3.5973113E+03;3; -4.3916401E+01;  0.0000000E+00;  2.6462088E+00;0; -8.4571493E-01;  1.0100009E+04;  0.0000000E+00;  3.9903226E-04;  1.0000000E+04;  0.0000000E+00;  9.9861826E+03; -9.6301967E-01;  0.0000000E+00;  1.1730476E-01;  7.1115156E+03;
  5.1898384E-01;  9.9999998E-03;  2.2013679E-01;1861; -2.6943514E-01;  0.0000000E+00;  3.2348391E-02;  1.0043663E+03;  4.0001824E-01;  3.6173601E+03;3; -4.3389469E+01;  0.0000000E+00;  3.1056473E+00;0; -8.3068639E-01;  1.0101022E+04;  0.0000000E+00;  9.7315398E-04;  1.0000000E+04;  0.0000000E+00;  9.9856719E+03; -9.4589657E-01;  0.0000000E+00;  1.1521018E-01;  7.3741470E+03;
  5.1899141E-01;  9.9999998E-03;  2.4014924E-01;1862; -2.6204377E-01;  0.0000000E+00;  3.4468386E-02;  1.0044034E+03;  4.0001827E-01;  3.6480752E+03;3; -4.5419823E+01;  0.0000000E+00;  4.0607586E+00;0; -8.1421155E-01;  1.0102124E+04;  0.0000000E+00;  2.0618292E-03;  1.0000000E+04;  0.0000000E+00;  9.9853193E+03; -9.3040341E-01;  0.0000000E+00;  1.1619186E-01;  7.5477827E+03;
  5.1900780E-01;  9.9999998E-03;  2.6016605E-01;1863; -2.5259313E-01;  0.0000000E+00;  3.6874216E-02;  1.0044491E+03;  4.0001816E-01;  3.6859998E+03;3; -5.1357418E+01;  0.0000000E+00;  5.4867454E+00;0; -7.9319960E-01;  1.0103250E+04;  0.0000000E+00;  3.3539210E-03;  1.0000000E+04;  0.0000000E+00;  9.9851006E+03; -9.1734290E-01;  0.0000000E+00;  1.2414330E-01;  7.6459019E+03;
  5.1903403E-01;  9.9999998E-03;  2.8018823E-01;1864; -2.4120945E-01;  0.0000000E+00;  3.8552970E-02;  1.0044457E+03;  4.0001833E-01;  3.6831357E+03;3; -6.1504242E+01;  0.0000000E+00;  7.1256285E+00;0; -7.7515560E-01;  1.0104365E+04;  0.0000000E+00;  3.5637461E-03;  1.0000000E+04;  0.0000000E+00;  9.9839209E+03; -9.0712029E-01;  0.0000000E+00;  1.3196470E-01;  8.2213174E+03;
  5.1907098E-01;  9.9999998E-03;  3.0020908E-01;1865; -2.2797012E-01;  0.0000000E+00;  3.9440852E-02;  1.0044329E+03;  4.0001830E-01;  3.6725681E+03;3; -7.4330185E+01;  0.0000000E+00;  9.5023088E+00;0; -7.7654696E-01;  1.0105410E+04;  0.0000000E+00;  2.5859324E-04;  1.0000000E+04;  0.0000000E+00;  9.9826270E+03; -8.9981925E-01;  0.0000000E+00;  1.2327230E-01;  8.8787832E+03;
  5.3888667E-01;  9.9999998E-03;  1.6011545E-01;1889; -3.0453029E-01;  0.0000000E+00;  2.4539707E-02;  1.0044579E+03;  4.0004933E-01;  3.6932034E+03;3; -4.9045349E+01;  0.0000000E+00;  7.2657460E-01;0; -8.7537169E-01;  1.0101693E+04;  0.0000000E+00;  2.5333455E-04;  1.0000000E+04;  0.0000000E+00;  9.9852207E+03; -1.0007848E+00;  0.0000000E+00;  1.2541305E-01;  7.5919712E+03;
  5.3888047E-01;  9.9999998E-03;  1.8012859E-01;1890; -3.0054367E-01;  0.0000000E+00;  2.7082019E-02;  1.0045000E+03;  4.0004909E-01;  3.7281650E+03;3; -4.6968929E+01;  0.0000000E+00;  9.2342514E-01;0; -8.6501318E-01;  1.0102509E+04;  0.0000000E+00;  3.0330839E-04;  1.0000000E+04;  0.0000000E+00;  9.9852607E+03; -9.8368222E-01;  0.0000000E+00;  1.1866906E-01;  7.5833730E+03;
  5.3887624E-01;  9.9999998E-03;  2.0014054E-01;1891; -2.9572237E-01;  0.0000000E+00;  2.9368047E-02;  1.0045352E+03;  4.0004921E-01;  3.7572998E+03;3; -4.5117607E+01;  0.0000000E+00;  1.1973344E+00;0; -8.5252637E-01;  1.0103548E+04;  0.0000000E+00;  5.9996458E-04;  1.0000000E+04;  0.0000000E+00;  9.9849355E+03; -9.6678317E-01;  0.0000000E+00;  1.1425679E-01;  7.7531230E+03;
  5.3887606E-01;  9.9999998E-03;  2.2015147E-01;1892; -2.8961608E-01;  0.0000000E+00;  3.1331219E-02;  1.0045729E+03;  4.0004924E-01;  3.7885085E+03;3; -4.4530510E+01;  0.0000000E+00;  1.6042981E+00;0; -8.3841574E-01;  1.0104812E+04;  0.0000000E+00;  1.4782535E-03;  1.0000000E+04;  0.0000000E+00;  9.9844404E+03; -9.5110404E-01;  0.0000000E+00;  1.1268828E-01;  8.0039688E+03;
  5.3888249E-01;  9.9999998E-03;  2.4016267E-01;1893; -2.8169653E-01;  0.0000000E+00;  3.3106618E-02;  1.0046379E+03;  4.0004912E-01;  3.8424326E+03;3; -4.6699211E+01;  0.0000000E+00;  2.4433107E+00;0; -8.2437968E-01;  1.0106239E+04;  0.0000000E+00;  3.0481690E-03;  1.0000000E+04;  0.0000000E+00;  9.9843232E+03; -9.3760204E-01;  0.0000000E+00;  1.1322237E-01;  8.0645151E+03;
  5.3889763E-01;  9.9999998E-03;  2.6018003E-01;1894; -2.7159691E-01;  0.0000000E+00;  3.5642929E-02;  1.0047307E+03;  4.0004918E-01;  3.9192693E+03;3; -5.3010475E+01;  0.0000000E+00;  3.9069865E+00;0; -8.0621904E-01;  1.0107770E+04;  0.0000000E+00;  4.7570630E-03;  1.0000000E+04;  0.0000000E+00;  9.9846387E+03; -9.2697269E-01;  0.0000000E+00;  1.2075365E-01;  7.8989756E+03;
  5.3892231E-01;  9.9999998E-03;  2.8020686E-01;1895; -2.5955135E-01;  0.0000000E+00;  3.7882935E-02;  1.0047473E+03;  4.0004918E-01;  3.9329973E+03;3; -6.3884056E+01;  0.0000000E+00;  5.5447583E+00;0; -7.8635216E-01;  1.0109326E+04;  0.0000000E+00;  4.7454890E-03;  1.0000000E+04;  0.0000000E+00;  9.9834229E+03; -9.1946310E-01;  0.0000000E+00;  1.3311091E-01;  8.4892813E+03;
  5.3895688E-01;  9.9999998E-03;  3.0023211E-01;1896; -2.4580234E-01;  0.0000000E+00;  3.9034463E-02;  1.0047330E+03;  4.0004918E-01;  3.9212444E+03;3; -7.7773979E+01;  0.0000000E+00;  7.8331661E+00;0; -7.8783566E-01;  1.0110815E+04;  0.0000000E+00;  1.3491241E-05;  1.0000000E+04;  0.0000000E+00;  9.9816436E+03; -9.1490662E-01;  0.0000000E+00;  1.2707098E-01;  9.3853672E+03;
  5.5877626E-01;  9.9999998E-03;  1.6013534E-01;1920; -3.2637697E-01;  0.0000000E+00;  2.4194900E-02;  1.0045720E+03;  4.0013251E-01;  3.7878079E+03;3; -5.0363941E+01;  0.0000000E+00; -7.3030043E-01;0; -8.4914416E-01;  1.0101734E+04;  0.0000000E+00;  2.5400161E-04;  1.0000000E+04;  0.0000000E+00;  9.9832344E+03; -9.7175354E-01;  0.0000000E+00;  1.2260940E-01;  8.5843604E+03;
  5.5876946E-01;  9.9999998E-03;  1.8014972E-01;1921; -3.2198888E-01;  0.0000000E+00;  2.6547309E-02;  1.0046175E+03;  4.0013221E-01;  3.8254360E+03;3; -4.8186340E+01;  0.0000000E+00; -7.4453455E-01;0; -8.3895838E-01;  1.0102535E+04;  0.0000000E+00;  3.1696877E-04;  1.0000000E+04;  0.0000000E+00;  9.9833535E+03; -9.5486933E-01;  0.0000000E+00;  1.1591095E-01;  8.5369658E+03;
  5.5876440E-01;  9.9999998E-03;  2.0016201E-01;1922; -3.1675753E-01;  0.0000000E+00;  2.8507438E-02;  1.0046546E+03;  4.0013233E-01;  3.8562495E+03;3; -4.6220234E+01;  0.0000000E+00; -6.5728116E-01;0; -8.2655460E-01;  1.0103622E+04;  0.0000000E+00;  8.4283226E-04;  1.0000000E+04;  0.0000000E+00;  9.9830244E+03; -9.3867785E-01;  0.0000000E+00;  1.1212326E-01;  8.7082549E+03;
  5.5876303E-01;  9.9999998E-03;  2.2017218E-01;1923; -3.1024122E-01;  0.0000000E+00;  3.0044377E-02;  1.0046978E+03;  4.0013242E-01;  3.8920015E+03;3; -4.5576675E+01;  0.0000000E+00; -3.3706206E-01;0; -8.1291497E-01;  1.0104979E+04;  0.0000000E+00;  2.2937621E-03;  1.0000000E+04;  0.0000000E+00;  9.9825430E+03; -9.2409313E-01;  0.0000000E+00;  1.1117817E-01;  8.9519883E+03;
  5.5876762E-01;  9.9999998E-03;  2.4018128E-01;1924; -3.0184838E-01;  0.0000000E+00;  3.1263132E-02;  1.0047878E+03;  4.0013221E-01;  3.9665664E+03;3; -4.7894691E+01;  0.0000000E+00;  3.5384908E-01;0; -8.0162513E-01;  1.0106557E+04;  0.0000000E+00;  4.6990863E-03;  1.0000000E+04;  0.0000000E+00;  9.9827793E+03; -9.1187149E-01;  0.0000000E+00;  1.1024638E-01;  8.8386084E+03;
  5.5878001E-01;  9.9999998E-03;  2.6019809E-01;1925; -2.9132855E-01;  0.0000000E+00;  3.3691555E-02;  1.0049369E+03;  4.0013218E-01;  4.0901174E+03;3; -5.4622314E+01;  0.0000000E+00;  1.7875221E+00;0; -7.8842366E-01;  1.0108281E+04;  0.0000000E+00;  7.0559704E-03;  1.0000000E+04;  0.0000000E+00;  9.9840264E+03; -9.0265858E-01;  0.0000000E+00;  1.1423491E-01;  8.2146504E+03;
  5.5880046E-01;  9.9999998E-03;  2.8022972E-01;1926; -2.7893990E-01;  0.0000000E+00;  3.6672316E-02;  1.0049855E+03;  4.0013218E-01;  4.1304121E+03;3; -6.6293785E+01;  0.0000000E+00;  3.4763322E+00;0; -7.6662761E-01;  1.0110087E+04;  0.0000000E+00;  6.5939706E-03;  1.0000000E+04;  0.0000000E+00;  9.9831924E+03; -8.9673012E-01;  0.0000000E+00;  1.3010252E-01;  8.6112783E+03;
  5.5882818E-01;  9.9999998E-03;  3.0026013E-01;1927; -2.6528364E-01;  0.0000000E+00;  3.8272403E-02;  1.0049676E+03;  4.0013221E-01;  4.1154990E+03;3; -8.1449791E+01;  0.0000000E+00;  5.7136278E+00;0; -7.6594198E-01;  1.0111844E+04;  0.0000000E+00; -1.9240713E-05;  1.0000000E+04;  0.0000000E+00;  9.9810732E+03; -8.9382392E-01;  0.0000000E+00;  1.2788191E-01;  9.6729121E+03;
  5.7866484E-01;  9.9999998E-03;  1.6016056E-01;1951; -3.4770954E-01;  0.0000000E+00;  2.3869660E-02;  1.0047488E+03;  4.0035284E-01;  3.9342590E+03;3; -5.1465675E+01;  0.0000000E+00; -2.4742048E+00;0; -7.7662343E-01;  1.0096991E+04;  0.0000000E+00;  6.9974289E-05;  1.0000000E+04;  0.0000000E+00;  9.9804131E+03; -8.9858484E-01;  0.0000000E+00;  1.2196141E-01;  9.9727344E+03;
  5.7865793E-01;  9.9999998E-03;  1.8017720E-01;1952; -3.4283143E-01;  0.0000000E+00;  2.6060419E-02;  1.0047839E+03;  4.0035295E-01;  3.9633936E+03;3; -4.9181232E+01;  0.0000000E+00; -2.7274742E+00;0; -7.6502764E-01;  1.0097628E+04;  0.0000000E+00;  1.7150589E-04;  1.0000000E+04;  0.0000000E+00;  9.9804941E+03; -8.8110602E-01;  0.0000000E+00;  1.1607840E-01;  9.9415605E+03;
  5.7865244E-01;  9.9999998E-03;  2.0019078E-01;1953; -3.3712825E-01;  0.0000000E+00;  2.7716743E-02;  1.0048075E+03;  4.0035281E-01;  3.9828496E+03;3; -4.7138138E+01;  0.0000000E+00; -2.9296148E+00;0; -7.5089288E-01;  1.0098528E+04;  0.0000000E+00;  1.1002349E-03;  1.0000000E+04;  0.0000000E+00;  9.9800859E+03; -8.6422747E-01;  0.0000000E+00;  1.1333460E-01;  1.0147785E+04;
  5.7865012E-01;  9.9999998E-03;  2.2020106E-01;1954; -3.3009350E-01;  0.0000000E+00;  2.8879348E-02;  1.0048398E+03;  4.0035266E-01;  4.0096138E+03;3; -4.6464821E+01;  0.0000000E+00; -2.8033009E+00;0; -7.3542732E-01;  1.0099656E+04;  0.0000000E+00;  3.4941493E-03;  1.0000000E+04;  0.0000000E+00;  9.9796123E+03; -8.4842336E-01;  0.0000000E+00;  1.1299604E-01;  1.0385206E+04;
  5.7865208E-01;  9.9999998E-03;  2.4020815E-01;1955; -3.2148650E-01;  0.0000000E+00;  2.9294711E-02;  1.0049392E+03;  4.0035248E-01;  4.0919810E+03;3; -4.8919701E+01;  0.0000000E+00; -2.2499452E+00;0; -7.2485685E-01;  1.0100965E+04;  0.0000000E+00;  7.2697662E-03;  1.0000000E+04;  0.0000000E+00;  9.9802930E+03; -8.3433270E-01;  0.0000000E+00;  1.0947582E-01;  1.0051081E+04;
  5.7866037E-01;  9.9999998E-03;  2.6022419E-01;1956; -3.1081310E-01;  0.0000000E+00;  3.1426739E-02;  1.0051368E+03;  4.0035251E-01;  4.2557271E+03;3; -5.6100758E+01;  0.0000000E+00; -9.0930814E-01;0; -7.1604276E-01;  1.0102427E+04;  0.0000000E+00;  1.0667264E-02;  1.0000000E+04;  0.0000000E+00;  9.9827656E+03; -8.2292724E-01;  0.0000000E+00;  1.0688446E-01;  8.8270127E+03;
  5.7867402E-01;  9.9999998E-03;  2.8026024E-01;1957; -2.9848045E-01;  0.0000000E+00;  3.5132080E-02;  1.0052200E+03;  4.0035248E-01;  4.3246626E+03;3; -6.8616676E+01;  0.0000000E+00;  8.9650613E-01;0; -6.9209260E-01;  1.0104018E+04;  0.0000000E+00;  9.4682723E-03;  1.0000000E+04;  0.0000000E+00;  9.9828262E+03; -8.1495583E-01;  0.0000000E+00;  1.2286326E-01;  8.7752998E+03;
  5.7869005E-01;  9.9999998E-03;  3.0029574E-01;1958; -2.8560174E-01;  0.0000000E+00;  3.7296012E-02;  1.0051964E+03;  4.0035227E-01;  4.3051079E+03;3; -8.5196198E+01;  0.0000000E+00;  3.0894961E+00;0; -6.8589103E-01;  1.0105626E+04;  0.0000000E+00;  5.4133806E-04;  1.0000000E+04;  0.0000000E+00;  9.9807402E+03; -8.1041288E-01;  0.0000000E+00;  1.2452186E-01;  9.8135703E+03;
  5.9855908E-01;  9.9999998E-03;  1.6019014E-01;1982; -3.6717787E-01;  0.0000000E+00;  2.3305647E-02;  1.0053671E+03;  4.0091345E-01;  4.4464165E+03;3; -5.2182091E+01;  0.0000000E+00; -4.4590611E+00;0; -6.3463771E-01;  1.0085237E+04;  0.0000000E+00; -3.8763546E-04;  1.0000000E+04;  0.0000000E+00;  9.9764795E+03; -7.6031846E-01;  0.0000000E+00;  1.2568077E-01;  1.1877685E+04;
  5.9855193E-01;  9.9999998E-03;  1.8020937E-01;1983; -3.6176988E-01;  0.0000000E+00;  2.5385326E-02;  1.0053724E+03;  4.0091309E-01;  4.4508608E+03;3; -4.9847626E+01;  0.0000000E+00; -5.1006842E+00;0; -6.1872202E-01;  1.0085437E+04;  0.0000000E+00; -2.2353919E-04;  1.0000000E+04;  0.0000000E+00;  9.9764150E+03; -7.3993909E-01;  0.0000000E+00;  1.2121709E-01;  1.1915645E+04;
  5.9854621E-01;  9.9999998E-03;  2.0022532E-01;1984; -3.5550779E-01;  0.0000000E+00;  2.6897106E-02;  1.0053616E+03;  4.0091294E-01;  4.4419722E+03;3; -4.7683571E+01;  0.0000000E+00; -5.5046635E+00;0; -5.9935063E-01;  1.0085749E+04;  0.0000000E+00;  1.3211570E-03;  1.0000000E+04;  0.0000000E+00;  9.9759102E+03; -7.1878821E-01;  0.0000000E+00;  1.1943757E-01;  1.2165636E+04;
  5.9854293E-01;  9.9999998E-03;  2.2023715E-01;1985; -3.4818864E-01;  0.0000000E+00;  2.7526196E-02;  1.0053596E+03;  4.0091285E-01;  4.4402930E+03;3; -4.7045872E+01;  0.0000000E+00; -5.6711183E+00;0; -5.7825530E-01;  1.0086104E+04;  0.0000000E+00;  5.2154865E-03;  1.0000000E+04;  0.0000000E+00;  9.9755293E+03; -6.9692504E-01;  0.0000000E+00;  1.1866974E-01;  1.2353552E+04;
  5.9854323E-01;  9.9999998E-03;  2.4024585E-01;1986; -3.3927271E-01;  0.0000000E+00;  2.7572421E-02;  1.0054396E+03;  4.0091243E-01;  4.5064629E+03;3; -4.9676601E+01;  0.0000000E+00; -5.3966413E+00;0; -5.6374449E-01;  1.0086508E+04;  0.0000000E+00;  1.1225943E-02;  1.0000000E+04;  0.0000000E+00;  9.9767266E+03; -6.7538029E-01;  0.0000000E+00;  1.1163580E-01;  1.1763815E+04;
  5.9854740E-01;  9.9999998E-03;  2.6026464E-01;1987; -3.2853553E-01;  0.0000000E+00;  2.9572908E-02;  1.0056408E+03;  4.0091211E-01;  4.6732705E+03;3; -5.7346279E+01;  0.0000000E+00; -4.1915483E+00;0; -5.5441219E-01;  1.0087031E+04;  0.0000000E+00;  1.6361265E-02;  1.0000000E+04;  0.0000000E+00;  9.9801924E+03; -6.5596521E-01;  0.0000000E+00;  1.0155304E-01;  1.0052352E+04;
  5.9855247E-01;  9.9999998E-03;  2.8030407E-01;1988; -3.1669021E-01;  0.0000000E+00;  3.3776604E-02;  1.0057358E+03;  4.0091172E-01;  4.7519829E+03;3; -7.0708511E+01;  0.0000000E+00; -2.2602012E+00;0; -5.2585804E-01;  1.0087733E+04;  0.0000000E+00;  1.4139700E-02;  1.0000000E+04;  0.0000000E+00;  9.9813721E+03; -6.4023119E-01;  0.0000000E+00;  1.1437317E-01;  9.4433975E+03;
  5.9855413E-01;  9.9999998E-03;  3.0034333E-01;1989; -3.0502456E-01;  0.0000000E+00;  3.6462680E-02;  1.0056996E+03;  4.0091130E-01;  4.7219595E+03;3; -8.8633484E+01;  0.0000000E+00; -7.1943179E-02;0; -5.1004720E-01;  1.0088558E+04;  0.0000000E+00;  2.2382836E-03;  1.0000000E+04;  0.0000000E+00;  9.9798291E+03; -6.2859154E-01;  0.0000000E+00;  1.1854432E-01;  1.0202441E+04;
  6.1846560E-01;  9.9999998E-03;  1.6022249E-01;2013; -3.8361469E-01;  0.0000000E+00;  2.1974558E-02;  1.0072186E+03;  4.0220201E-01;  5.9803364E+03;3; -5.2465679E+01;  0.0000000E+00; -6.8256111E+00;0; -3.8546312E-01;  1.0063127E+04;  0.0000000E+00; -1.1377736E-03;  1.0000000E+04;  0.0000000E+00;  9.9713105E+03; -5.2067316E-01;  0.0000000E+00;  1.3521002E-01;  1.4349829E+04;
  6.1845773E-01;  9.9999998E-03;  1.8024440E-01;2014; -3.7778524E-01;  0.0000000E+00;  2.3896014E-02;  1.0071751E+03;  4.0220124E-01;  5.9442891E+03;3; -5.0065830E+01;  0.0000000E+00; -7.7891126E+00;0; -3.6196917E-01;  1.0062531E+04;  0.0000000E+00; -8.3302666E-04;  1.0000000E+04;  0.0000000E+00;  9.9710713E+03; -4.9395633E-01;  0.0000000E+00;  1.3198717E-01;  1.4467988E+04;
  6.1845076E-01;  9.9999998E-03;  2.0026344E-01;2015; -3.7127993E-01;  0.0000000E+00;  2.5199281E-02;  1.0071086E+03;  4.0220070E-01;  5.8892793E+03;3; -4.7841896E+01;  0.0000000E+00; -8.4755335E+00;0; -3.3403736E-01;  1.0061752E+04;  0.0000000E+00;  1.7001707E-03;  1.0000000E+04;  0.0000000E+00;  9.9705723E+03; -4.6394771E-01;  0.0000000E+00;  1.2991036E-01;  1.4711844E+04;
  6.1844647E-01;  9.9999998E-03;  2.2028045E-01;2016; -3.6366525E-01;  0.0000000E+00;  2.5918754E-02;  1.0070518E+03;  4.0220025E-01;  5.8421709E+03;3; -4.7271961E+01;  0.0000000E+00; -8.9084654E+00;0; -3.0399716E-01;  1.0060737E+04;  0.0000000E+00;  7.9135951E-03;  1.0000000E+04;  0.0000000E+00;  9.9704834E+03; -4.3073720E-01;  0.0000000E+00;  1.2674002E-01;  1.4750979E+04;
  6.1844414E-01;  9.9999998E-03;  2.4029569E-01;2017; -3.5469809E-01;  0.0000000E+00;  2.6314354E-02;  1.0070840E+03;  4.0219945E-01;  5.8688359E+03;3; -5.0149185E+01;  0.0000000E+00; -8.9238586E+00;0; -2.8116709E-01;  1.0059576E+04;  0.0000000E+00;  1.7209977E-02;  1.0000000E+04;  0.0000000E+00;  9.9722871E+03; -3.9621887E-01;  0.0000000E+00;  1.1505178E-01;  1.3859925E+04;
  6.1844510E-01;  9.9999998E-03;  2.6032436E-01;2018; -3.4401146E-01;  0.0000000E+00;  2.8949259E-02;  1.0072150E+03;  4.0219867E-01;  5.9773735E+03;3; -5.8355659E+01;  0.0000000E+00; -7.9474087E+00;0; -2.6214820E-01;  1.0058482E+04;  0.0000000E+00;  2.4659207E-02;  1.0000000E+04;  0.0000000E+00;  9.9759746E+03; -3.6315712E-01;  0.0000000E+00;  1.0100893E-01;  1.2033579E+04;
  6.1844599E-01;  9.9999998E-03;  2.8036988E-01;2019; -3.3223206E-01;  0.0000000E+00;  3.3369720E-02;  1.0072271E+03;  4.0219784E-01;  5.9873486E+03;3; -7.2385986E+01;  0.0000000E+00; -5.9186211E+00;0; -2.2469537E-01;  1.0057608E+04;  0.0000000E+00;  2.1118859E-02;  1.0000000E+04;  0.0000000E+00;  9.9770752E+03; -3.3383897E-01;  0.0000000E+00;  1.0914360E-01;  1.1460978E+04;
  6.1843574E-01;  9.9999998E-03;  3.0040967E-01;2020; -3.2149091E-01;  0.0000000E+00;  3.6636427E-02;  1.0071567E+03;  4.0219674E-01;  5.9290801E+03;3; -9.1527107E+01;  0.0000000E+00; -3.5867934E+00;0; -1.8948190E-01;  1.0056959E+04;  0.0000000E+00;  5.2306606E-03;  1.0000000E+04;  0.0000000E+00;  9.9763770E+03; -3.0910978E-01;  0.0000000E+00;  1.1962788E-01;  1.1784634E+04;
  6.3838869E-01;  9.9999998E-03;  1.6025592E-01;2044; -3.9617816E-01;  0.0000000E+00;  1.9544985E-02;  1.0110369E+03;  4.0458497E-01;  9.1435596E+03;3; -5.2320686E+01;  0.0000000E+00; -9.5915651E+00;0;  1.4341533E-02;  1.0027071E+04;  0.0000000E+00; -1.8854684E-03;  1.0000000E+04;  0.0000000E+00;  9.9650098E+03; -1.3611989E-01;  0.0000000E+00;  1.5046142E-01;  1.7317908E+04;
  6.3838035E-01;  9.9999998E-03;  1.8028177E-01;2045; -3.9004421E-01;  0.0000000E+00;  2.1426987E-02;  1.0109346E+03;  4.0458417E-01;  9.0588232E+03;3; -4.9974564E+01;  0.0000000E+00; -1.0966930E+01;0;  4.6234697E-02;  1.0025372E+04;  0.0000000E+00; -1.1575827E-03;  1.0000000E+04;  0.0000000E+00;  9.9647305E+03; -1.0086688E-01;  0.0000000E+00;  1.4710158E-01;  1.7452498E+04;
  6.3837135E-01;  9.9999998E-03;  2.0030618E-01;2046; -3.8352334E-01;  0.0000000E+00;  2.2884179E-02;  1.0108066E+03;  4.0458322E-01;  8.9527559E+03;3; -4.7746498E+01;  0.0000000E+00; -1.2077380E+01;0;  8.2615487E-02;  1.0023145E+04;  0.0000000E+00;  2.9302563E-03;  1.0000000E+04;  0.0000000E+00;  9.9644814E+03; -5.9763156E-02;  0.0000000E+00;  1.4237864E-01;  1.7568482E+04;
  6.3836432E-01;  9.9999998E-03;  2.2033286E-01;2047; -3.7609947E-01;  0.0000000E+00;  2.4369325E-02;  1.0106902E+03;  4.0458232E-01;  8.8563662E+03;3; -4.7266396E+01;  0.0000000E+00; -1.2868924E+01;0;  1.2084133E-01;  1.0020376E+04;  0.0000000E+00;  1.2208547E-02;  1.0000000E+04;  0.0000000E+00;  9.9649834E+03; -1.3266571E-02;  0.0000000E+00;  1.3410790E-01;  1.7313316E+04;
  6.3836104E-01;  9.9999998E-03;  2.4036852E-01;2048; -3.6714277E-01;  0.0000000E+00;  2.6746349E-02;  1.0106266E+03;  4.0458128E-01;  8.8037275E+03;3; -5.0351990E+01;  0.0000000E+00; -1.2968087E+01;0;  1.5599319E-01;  1.0017289E+04;  0.0000000E+00;  2.5219526E-02;  1.0000000E+04;  0.0000000E+00;  9.9668379E+03;  3.6098592E-02;  0.0000000E+00;  1.1989459E-01;  1.6391264E+04;
  6.3836175E-01;  9.9999998E-03;  2.6041687E-01;2049; -3.5628977E-01;  0.0000000E+00;  3.0932385E-02;  1.0105580E+03;  4.0458032E-01;  8.7468418E+03;3; -5.8850208E+01;  0.0000000E+00; -1.2258546E+01;0;  1.9708164E-01;  1.0014181E+04;  0.0000000E+00;  3.4511611E-02;  1.0000000E+04;  0.0000000E+00;  9.9685830E+03;  8.5052587E-02;  0.0000000E+00;  1.1202905E-01;  1.5512067E+04;
  6.3836128E-01;  9.9999998E-03;  2.8046316E-01;2050; -3.4435171E-01;  0.0000000E+00;  3.4962539E-02;  1.0104135E+03;  4.0457916E-01;  8.6270469E+03;3; -7.3743752E+01;  0.0000000E+00; -9.7249947E+00;0;  2.4917178E-01;  1.0011277E+04;  0.0000000E+00;  2.8401215E-02;  1.0000000E+04;  0.0000000E+00;  9.9686309E+03;  1.3094765E-01;  0.0000000E+00;  1.1822413E-01;  1.5453978E+04;
  6.3834900E-01;  9.9999998E-03;  3.0049959E-01;2051; -3.3331975E-01;  0.0000000E+00;  3.8405254E-02;  1.0102661E+03;  4.0457711E-01;  8.5049795E+03;3; -9.3621460E+01;  0.0000000E+00; -7.3917933E+00;0;  3.1045285E-01;  1.0008652E+04;  0.0000000E+00;  7.9890583E-03;  1.0000000E+04;  0.0000000E+00;  9.9684277E+03;  1.7259786E-01;  0.0000000E+00;  1.3785499E-01;  1.5505985E+04;
  6.5833366E-01;  9.9999998E-03;  1.6029356E-01;2075; -4.0436515E-01;  0.0000000E+00;  1.6323743E-02;  1.0156490E+03;  4.0762743E-01;  1.2964431E+04;3; -5.1658546E+01;  0.0000000E+00; -1.2717744E+01;0;  5.8994889E-01;  9.9752676E+03;  0.0000000E+00; -1.8790709E-03;  1.0000000E+04;  0.0000000E+00;  9.9580137E+03;  4.2061126E-01;  0.0000000E+00;  1.6933766E-01;  2.0565172E+04;
  6.5832573E-01;  9.9999998E-03;  1.8032651E-01;2076; -3.9800814E-01;  0.0000000E+00;  1.8509246E-02;  1.0155021E+03;  4.0762660E-01;  1.2842661E+04;3; -4.9339603E+01;  0.0000000E+00; -1.4620728E+01;0;  6.2522584E-01;  9.9724434E+03;  0.0000000E+00; -2.2951979E-04;  1.0000000E+04;  0.0000000E+00;  9.9579932E+03;  4.6201137E-01;  0.0000000E+00;  1.6321449E-01;  2.0568818E+04;
  6.5831763E-01;  9.9999998E-03;  2.0036371E-01;2077; -3.9112297E-01;  0.0000000E+00;  2.1294139E-02;  1.0153325E+03;  4.0762615E-01;  1.2702128E+04;3; -4.7333748E+01;  0.0000000E+00; -1.6224850E+01;0;  6.6337299E-01;  9.9688232E+03;  0.0000000E+00;  5.8197943E-03;  1.0000000E+04;  0.0000000E+00;  9.9583174E+03;  5.1046598E-01;  0.0000000E+00;  1.5290700E-01;  2.0398951E+04;
  6.5831256E-01;  9.9999998E-03;  2.2041447E-01;2078; -3.8316056E-01;  0.0000000E+00;  2.5682339E-02;  1.0151597E+03;  4.0762556E-01;  1.2559026E+04;3; -4.7011269E+01;  0.0000000E+00; -1.7448202E+01;0;  7.0489788E-01;  9.9644629E+03;  0.0000000E+00;  1.7987199E-02;  1.0000000E+04;  0.0000000E+00;  9.9593066E+03;  5.6537175E-01;  0.0000000E+00;  1.3952614E-01;  1.9900037E+04;
  6.5831339E-01;  9.9999998E-03;  2.4048391E-01;2079; -3.7347466E-01;  0.0000000E+00;  3.2112762E-02;  1.0149353E+03;  4.0762529E-01;  1.2373064E+04;3; -5.0484016E+01;  0.0000000E+00; -1.7763002E+01;0;  7.5754839E-01;  9.9596182E+03;  0.0000000E+00;  3.3462856E-02;  1.0000000E+04;  0.0000000E+00;  9.9597246E+03;  6.2448126E-01;  0.0000000E+00;  1.3306715E-01;  1.9672063E+04;
  6.5831512E-01;  9.9999998E-03;  2.6054293E-01;2080; -3.6245275E-01;  0.0000000E+00;  3.6613420E-02;  1.0146115E+03;  4.0762535E-01;  1.2104836E+04;3; -5.9200756E+01;  0.0000000E+00; -1.6618576E+01;0;  8.2309663E-01;  9.9546357E+03;  0.0000000E+00;  4.2198379E-02;  1.0000000E+04;  0.0000000E+00;  9.9583203E+03;  6.8488443E-01;  0.0000000E+00;  1.3821223E-01;  2.0337682E+04;
  6.5831429E-01;  9.9999998E-03;  2.8057694E-01;2081; -3.5011786E-01;  0.0000000E+00;  3.8508151E-02;  1.0143318E+03;  4.0762490E-01;  1.1873148E+04;3; -7.3944916E+01;  0.0000000E+00; -1.3985286E+01;0;  8.8427168E-01;  9.9497578E+03;  0.0000000E+00;  3.1135034E-02;  1.0000000E+04;  0.0000000E+00;  9.9576973E+03;  7.4424243E-01;  0.0000000E+00;  1.4002924E-01;  2.0608248E+04;
  6.5830725E-01;  9.9999998E-03;  3.0060557E-01;2082; -3.3693177E-01;  0.0000000E+00;  4.1661073E-02;  1.0141115E+03;  4.0762308E-01;  1.1690544E+04;3; -9.3578125E+01;  0.0000000E+00; -1.1371314E+01;0;  9.6913248E-01;  9.9451455E+03;  0.0000000E+00;  6.1909966E-03;  1.0000000E+04;  0.0000000E+00;  9.9580566E+03;  8.0041778E-01;  0.0000000E+00;  1.6871469E-01;  2.0359836E+04;
  6.7831397E-01;  9.9999998E-03;  1.6035327E-01;2106; -4.0649113E-01;  0.0000000E+00;  1.4911038E-02;  1.0181280E+03;  4.1009977E-01;  1.5017898E+04;3; -5.1069702E+01;  0.0000000E+00; -1.7087044E+01;0;  1.3191335E+00;  9.9101533E+03;  0.0000000E+00; -5.1960623E-04;  1.0000000E+04;  0.0000000E+00;  9.9510166E+03;  1.1312588E+00;  0.0000000E+00;  1.8787473E-01;  2.3755908E+04;
  6.7830783E-01;  9.9999998E-03;  1.8039800E-01;2107; -3.9951476E-01;  0.0000000E+00;  1.8778937E-02;  1.0179787E+03;  4.1009995E-01;  1.4894155E+04;3; -4.8753742E+01;  0.0000000E+00; -1.9376944E+01;0;  1.3455896E+00;  9.9066162E+03;  0.0000000E+00;  2.3325747E-03;  1.0000000E+04;  0.0000000E+00;  9.9516533E+03;  1.1696637E+00;  0.0000000E+00;  1.7592598E-01;  2.3433848E+04;
  6.7830223E-01;  9.9999998E-03;  2.0045339E-01;2108; -3.9195785E-01;  0.0000000E+00;  2.4280680E-02;  1.0178136E+03;  4.1010019E-01;  1.4757377E+04;3; -4.6810535E+01;  0.0000000E+00; -2.1289631E+01;0;  1.3720335E+00;  9.9022363E+03;  0.0000000E+00;  9.8726526E-03;  1.0000000E+04;  0.0000000E+00;  9.9528271E+03;  1.2137611E+00;  0.0000000E+00;  1.5827239E-01;  2.2847895E+04;
  6.7830312E-01;  9.9999998E-03;  2.2053257E-01;2109; -3.8255107E-01;  0.0000000E+00;  3.2637332E-02;  1.0176129E+03;  4.1010064E-01;  1.4591070E+04;3; -4.6378834E+01;  0.0000000E+00; -2.2690157E+01;0;  1.4065199E+00;  9.8970850E+03;  0.0000000E+00;  2.3034643E-02;  1.0000000E+04;  0.0000000E+00;  9.9540508E+03;  1.2635998E+00;  0.0000000E+00;  1.4292014E-01;  2.2228764E+04;
  6.7831230E-01;  9.9999998E-03;  2.4062319E-01;2110; -3.7097478E-01;  0.0000000E+00;  4.0732060E-02;  1.0172558E+03;  4.1010201E-01;  1.4295293E+04;3; -4.9493130E+01;  0.0000000E+00; -2.2843180E+01;0;  1.4652942E+00;  9.8913770E+03;  0.0000000E+00;  3.7587587E-02;  1.0000000E+04;  0.0000000E+00;  9.9527383E+03;  1.3184153E+00;  0.0000000E+00;  1.4687899E-01;  2.2847223E+04;
  6.7831552E-01;  9.9999998E-03;  2.6066712E-01;2111; -3.5933957E-01;  0.0000000E+00;  4.1669529E-02;  1.0168284E+03;  4.1010353E-01;  1.3941248E+04;3; -5.8022369E+01;  0.0000000E+00; -2.1655092E+01;0;  1.5268073E+00;  9.8853750E+03;  0.0000000E+00;  4.1729830E-02;  1.0000000E+04;  0.0000000E+00;  9.9503203E+03;  1.3766906E+00;  0.0000000E+00;  1.5011671E-01;  2.4012383E+04;
  6.7832065E-01;  9.9999998E-03;  2.8068265E-01;2112; -3.4495714E-01;  0.0000000E+00;  4.1476049E-02;  1.0165310E+03;  4.1010424E-01;  1.3694850E+04;3; -7.1795639E+01;  0.0000000E+00; -1.8602180E+01;0;  1.5846025E+00;  9.8793066E+03;  0.0000000E+00;  2.4021268E-02;  1.0000000E+04;  0.0000000E+00;  9.9505488E+03;  1.4370466E+00;  0.0000000E+00;  1.4755587E-01;  2.3859699E+04;
  6.7834371E-01;  9.9999998E-03;  3.0070323E-01;2113; -3.2212132E-01;  0.0000000E+00;  4.5219466E-02;  1.0162838E+03;  4.1010416E-01;  1.3490025E+04;3; -8.6185905E+01;  0.0000000E+00; -1.6243301E+01;0;  1.7007897E+00;  9.8735313E+03;  0.0000000E+00;  1.9515788E-05;  1.0000000E+04;  0.0000000E+00;  9.9514854E+03;  1.4952314E+00;  0.0000000E+00;  2.0555830E-01;  2.3278732E+04;
  6.9835728E-01;  9.9999998E-03;  1.6045707E-01;2137; -3.9720371E-01;  0.0000000E+00;  2.2381876E-02;  1.0176122E+03;  4.1147605E-01;  1.4590291E+04;3; -4.9680119E+01;  0.0000000E+00; -2.1657335E+01;0;  2.1129107E+00;  9.8398262E+03;  0.0000000E+00;  1.4989697E-03;  1.0000000E+04;  0.0000000E+00;  9.9448330E+03;  1.9115744E+00;  0.0000000E+00;  2.0133640E-01;  2.6519898E+04;
  6.9835800E-01;  9.9999998E-03;  1.8051949E-01;2138; -3.8773754E-01;  0.0000000E+00;  3.0181829E-02;  1.0175170E+03;  4.1147685E-01;  1.4511386E+04;3; -4.6832546E+01;  0.0000000E+00; -2.3791433E+01;0;  2.1141009E+00;  9.8363584E+03;  0.0000000E+00;  5.0079478E-03;  1.0000000E+04;  0.0000000E+00;  9.9464570E+03;  1.9322267E+00;  0.0000000E+00;  1.8187423E-01;  2.5716193E+04;
  6.9836098E-01;  9.9999998E-03;  2.0059502E-01;2139; -3.7703422E-01;  0.0000000E+00;  3.9672308E-02;  1.0174101E+03;  4.1147771E-01;  1.4422803E+04;3; -4.4139442E+01;  0.0000000E+00; -2.5581150E+01;0;  2.1138794E+00;  9.8323057E+03;  0.0000000E+00;  1.2420537E-02;  1.0000000E+04;  0.0000000E+00;  9.9484473E+03;  1.9543295E+00;  0.0000000E+00;  1.5954988E-01;  2.4728566E+04;
  6.9837373E-01;  9.9999998E-03;  2.2068572E-01;2140; -3.6454910E-01;  0.0000000E+00;  4.7928721E-02;  1.0172278E+03;  4.1147891E-01;  1.4271904E+04;3; -4.3474335E+01;  0.0000000E+00; -2.7803385E+01;0;  2.1283002E+00;  9.8277100E+03;  0.0000000E+00;  2.3760090E-02;  1.0000000E+04;  0.0000000E+00;  9.9494873E+03;  1.9790696E+00;  0.0000000E+00;  1.4923055E-01;  2.4195047E+04;
  6.9838959E-01;  9.9999998E-03;  2.4075651E-01;2141; -3.5279965E-01;  0.0000000E+00;  4.8971832E-02;  1.0168749E+03;  4.1148120E-01;  1.3979490E+04;3; -4.6200310E+01;  0.0000000E+00; -2.8679924E+01;0;  2.1613197E+00;  9.8226563E+03;  0.0000000E+00;  3.4136593E-02;  1.0000000E+04;  0.0000000E+00;  9.9476123E+03;  2.0077865E+00;  0.0000000E+00;  1.5353321E-01;  2.5094547E+04;
  6.9839579E-01;  9.9999998E-03;  2.6076689E-01;2142; -3.3899713E-01;  0.0000000E+00;  4.3993935E-02;  1.0165460E+03;  4.1148341E-01;  1.3707024E+04;3; -5.1779751E+01;  0.0000000E+00; -2.7446947E+01;0;  2.1845002E+00;  9.8172705E+03;  0.0000000E+00;  3.1932343E-02;  1.0000000E+04;  0.0000000E+00;  9.9465420E+03;  2.0412617E+00;  0.0000000E+00;  1.4323863E-01;  2.5606500E+04;
  6.9845259E-01;  9.9999998E-03;  2.8076336E-01;2143; -3.0641288E-01;  0.0000000E+00;  4.1125637E-02;  1.0163909E+03;  4.1148481E-01;  1.3578542E+04;3; -5.6607155E+01;  0.0000000E+00; -2.4299812E+01;0;  2.2018828E+00;  9.8117412E+03;  0.0000000E+00;  1.7093217E-02;  1.0000000E+04;  0.0000000E+00;  9.9489941E+03;  2.0792353E+00;  0.0000000E+00;  1.2264761E-01;  2.4366971E+04;
  6.9861716E-01;  9.9999998E-03;  3.0077928E-01;2144; -2.4988411E-01;  0.0000000E+00;  4.5157298E-02;  1.0162182E+03;  4.1148669E-01;  1.3435443E+04;3; -5.7728550E+01;  0.0000000E+00; -2.1245638E+01;0;  2.3013542E+00;  9.8066426E+03;  0.0000000E+00;  1.9714007E-02;  1.0000000E+04;  0.0000000E+00;  9.9505527E+03;  2.1154165E+00;  0.0000000E+00;  1.8593775E-01;  2.3476164E+04;
  7.1857178E-01;  9.9999998E-03;  1.6062523E-01;2168; -3.4672102E-01;  0.0000000E+00;  5.2434068E-02;  1.0156293E+03;  4.1208863E-01;  1.2947253E+04;3; -3.8149227E+01;  0.0000000E+00; -2.4762102E+01;0;  2.8251846E+00;  9.7769980E+03;  0.0000000E+00;  2.4628737E-03;  1.0000000E+04;  0.0000000E+00;  9.9401357E+03;  2.6186087E+00;  0.0000000E+00;  2.0657589E-01;  2.8581848E+04;
  7.1857780E-01;  9.9999998E-03;  1.8069454E-01;2169; -3.3425742E-01;  0.0000000E+00;  5.7571162E-02;  1.0156360E+03;  4.1208962E-01;  1.2952783E+04;3; -3.4242580E+01;  0.0000000E+00; -3.0659187E+01;0;  2.7873909E+00;  9.7745098E+03;  0.0000000E+00;  5.3915079E-03;  1.0000000E+04;  0.0000000E+00;  9.9427686E+03;  2.6059854E+00;  0.0000000E+00;  1.8140562E-01;  2.7283576E+04;
  7.1858817E-01;  9.9999998E-03;  2.0076160E-01;2170; -3.2138848E-01;  0.0000000E+00;  5.7643086E-02;  1.0156359E+03;  4.1209060E-01;  1.2952781E+04;3; -3.1280300E+01;  0.0000000E+00; -3.5323280E+01;0;  2.7455802E+00;  9.7719580E+03;  0.0000000E+00;  1.0865422E-02;  1.0000000E+04;  0.0000000E+00;  9.9453457E+03;  2.5883460E+00;  0.0000000E+00;  1.5723422E-01;  2.6010668E+04;
  7.1860784E-01;  9.9999998E-03;  2.2081555E-01;2171; -3.0734184E-01;  0.0000000E+00;  5.4754343E-02;  1.0155687E+03;  4.1209173E-01;  1.2897085E+04;3; -2.9239235E+01;  0.0000000E+00; -3.6593487E+01;0;  2.7123320E+00;  9.7694053E+03;  0.0000000E+00;  1.8696021E-02;  1.0000000E+04;  0.0000000E+00;  9.9465840E+03;  2.5676267E+00;  0.0000000E+00;  1.4470525E-01;  2.5387715E+04;
  7.1865934E-01;  9.9999998E-03;  2.4084422E-01;2172; -2.8461465E-01;  0.0000000E+00;  4.8909351E-02;  1.0153880E+03;  4.1209379E-01;  1.2747375E+04;3; -2.8316141E+01;  0.0000000E+00; -3.6129749E+01;0;  2.6877122E+00;  9.7668047E+03;  0.0000000E+00;  2.6227579E-02;  1.0000000E+04;  0.0000000E+00;  9.9456260E+03;  2.5477152E+00;  0.0000000E+00;  1.3999711E-01;  2.5850762E+04;
  7.1876496E-01;  9.9999998E-03;  2.6082852E-01;2173; -2.4607359E-01;  0.0000000E+00;  4.0247981E-02;  1.0153202E+03;  4.1209608E-01;  1.2691184E+04;3; -2.8271221E+01;  0.0000000E+00; -3.4658253E+01;0;  2.6371858E+00;  9.7641104E+03;  0.0000000E+00;  3.2206062E-02;  1.0000000E+04;  0.0000000E+00;  9.9469150E+03;  2.5311420E+00;  0.0000000E+00;  1.0604371E-01;  2.5230906E+04;
  7.1891892E-01;  9.9999998E-03;  2.8081831E-01;2174; -1.9696562E-01;  0.0000000E+00;  3.8808849E-02;  1.0154124E+03;  4.1209683E-01;  1.2767516E+04;3; -2.8813976E+01;  0.0000000E+00; -3.0687538E+01;0;  2.6076760E+00;  9.7615303E+03;  0.0000000E+00;  3.9355438E-02;  1.0000000E+04;  0.0000000E+00;  9.9512158E+03;  2.5164902E+00;  0.0000000E+00;  9.1185920E-02;  2.3076611E+04;
  7.1908498E-01;  9.9999998E-03;  3.0083469E-01;2175; -1.5131667E-01;  0.0000000E+00;  4.3276008E-02;  1.0153788E+03;  4.1209739E-01;  1.2739763E+04;3; -2.9856071E+01;  0.0000000E+00; -2.6936886E+01;0;  2.6587832E+00;  9.7594805E+03;  0.0000000E+00;  3.3267457E-02;  1.0000000E+04;  0.0000000E+00;  9.9525254E+03;  2.5004714E+00;  0.0000000E+00;  1.5831186E-01;  2.2318633E+04;
  7.3907399E-01;  9.9999998E-03;  1.6064265E-01;2199; -2.2060418E-01;  0.0000000E+00;  4.2305935E-02;  1.0138673E+03;  4.1233394E-01;  1.1487169E+04;3; -1.9980522E+01;  0.0000000E+00; -3.1425909E+01;0;  3.2997339E+00;  9.7346699E+03;  0.0000000E+00;  1.7973535E-03;  1.0000000E+04;  0.0000000E+00;  9.9371328E+03;  3.0951545E+00;  0.0000000E+00;  2.0457941E-01;  2.9881836E+04;
  7.3908317E-01;  9.9999998E-03;  1.8071145E-01;2200; -2.1038589E-01;  0.0000000E+00;  4.8487540E-02;  1.0140012E+03;  4.1233447E-01;  1.1598163E+04;3; -1.7148575E+01;  0.0000000E+00; -3.7054329E+01;0;  3.2187104E+00;  9.7337393E+03;  0.0000000E+00;  3.3277180E-03;  1.0000000E+04;  0.0000000E+00;  9.9406641E+03;  3.0422986E+00;  0.0000000E+00;  1.7641185E-01;  2.8145287E+04;
  7.3909628E-01;  9.9999998E-03;  2.0077673E-01;2201; -1.9962725E-01;  0.0000000E+00;  4.8586342E-02;  1.0141705E+03;  4.1233528E-01;  1.1738387E+04;3; -1.4770646E+01;  0.0000000E+00; -4.2411732E+01;0;  3.1252816E+00;  9.7334111E+03;  0.0000000E+00;  6.2995702E-03;  1.0000000E+04;  0.0000000E+00;  9.9442910E+03;  2.9775844E+00;  0.0000000E+00;  1.4769721E-01;  2.6365324E+04;
  7.3912323E-01;  9.9999998E-03;  2.2082396E-01;2202; -1.8618131E-01;  0.0000000E+00;  4.5269918E-02;  1.0143306E+03;  4.1233590E-01;  1.1871007E+04;3; -1.3357767E+01;  0.0000000E+00; -4.2862057E+01;0;  3.0302355E+00;  9.7338037E+03;  0.0000000E+00;  1.1211411E-02;  1.0000000E+04;  0.0000000E+00;  9.9470020E+03;  2.9030383E+00;  0.0000000E+00;  1.2719725E-01;  2.5033121E+04;
  7.3917544E-01;  9.9999998E-03;  2.4084951E-01;2203; -1.6697834E-01;  0.0000000E+00;  4.0084410E-02;  1.0144559E+03;  4.1233692E-01;  1.1974789E+04;3; -1.2869634E+01;  0.0000000E+00; -4.2413734E+01;0;  2.9337745E+00;  9.7348389E+03;  0.0000000E+00;  1.7876731E-02;  1.0000000E+04;  0.0000000E+00;  9.9483428E+03;  2.8228655E+00;  0.0000000E+00;  1.1090890E-01;  2.4379254E+04;
  7.3925394E-01;  9.9999998E-03;  2.6084563E-01;2204; -1.4145145E-01;  0.0000000E+00;  3.4893446E-02;  1.0146809E+03;  4.1233778E-01;  1.2161127E+04;3; -1.3154202E+01;  0.0000000E+00; -4.0454853E+01;0;  2.8215804E+00;  9.7362979E+03;  0.0000000E+00;  2.5083052E-02;  1.0000000E+04;  0.0000000E+00;  9.9511943E+03;  2.7418237E+00;  0.0000000E+00;  7.9756789E-02;  2.2994857E+04;
  7.3935223E-01;  9.9999998E-03;  2.8085238E-01;2205; -1.1236156E-01;  0.0000000E+00;  3.5886295E-02;  1.0149218E+03;  4.1233748E-01;  1.2360695E+04;3; -1.4262772E+01;  0.0000000E+00; -3.4470562E+01;0;  2.7385869E+00;  9.7379854E+03;  0.0000000E+00;  2.6065376E-02;  1.0000000E+04;  0.0000000E+00;  9.9541426E+03;  2.6642649E+00;  0.0000000E+00;  7.4321933E-02;  2.1522756E+04;
  7.3945552E-01;  9.9999998E-03;  3.0087575E-01;2206; -8.6121723E-02;  0.0000000E+00;  4.4582531E-02;  1.0149905E+03;  4.1233721E-01;  1.2417572E+04;3; -1.5894415E+01;  0.0000000E+00; -3.0862713E+01;0;  2.8046229E+00;  9.7396797E+03;  0.0000000E+00;  1.6709369E-03;  1.0000000E+04;  0.0000000E+00;  9.9537168E+03;  2.5952990E+00;  0.0000000E+00;  2.0932397E-01;  2.1554398E+04;
  7.5946641E-01;  9.9999998E-03;  1.6062780E-01;2230; -1.2977937E-01;  0.0000000E+00;  2.5998192E-02;  1.0131231E+03;  4.1242597E-01;  1.0870241E+04;3; -1.1919107E+01;  0.0000000E+00; -3.7741405E+01;0;  3.4784145E+00;  9.7177568E+03;  0.0000000E+00;  6.5506320E-04;  1.0000000E+04;  0.0000000E+00;  9.9355830E+03;  3.2793005E+00;  0.0000000E+00;  1.9911420E-01;  3.0563592E+04;
  7.5947791E-01;  9.9999998E-03;  1.8068998E-01;2231; -1.2211163E-01;  0.0000000E+00;  3.1657144E-02;  1.0133580E+03;  4.1242638E-01;  1.1064766E+04;3; -1.0247632E+01;  0.0000000E+00; -4.1356094E+01;0;  3.3675370E+00;  9.7183613E+03;  0.0000000E+00;  1.0234276E-03;  1.0000000E+04;  0.0000000E+00;  9.9395215E+03;  3.1942523E+00;  0.0000000E+00;  1.7328474E-01;  2.8626771E+04;
  7.5949132E-01;  9.9999998E-03;  2.0075476E-01;2232; -1.1464173E-01;  0.0000000E+00;  3.5309177E-02;  1.0136669E+03;  4.1242683E-01;  1.1320710E+04;3; -8.9668360E+00;  0.0000000E+00; -4.6905518E+01;0;  3.2374763E+00;  9.7201523E+03;  0.0000000E+00;  1.9463669E-03;  1.0000000E+04;  0.0000000E+00;  9.9437021E+03;  3.0924811E+00;  0.0000000E+00;  1.4499526E-01;  2.6578607E+04;
  7.5951219E-01;  9.9999998E-03;  2.2080603E-01;2233; -1.0602804E-01;  0.0000000E+00;  3.3035897E-02;  1.0140181E+03;  4.1242701E-01;  1.1611511E+04;3; -8.2734833E+00;  0.0000000E+00; -4.8963165E+01;0;  3.0962265E+00;  9.7232832E+03;  0.0000000E+00;  3.7419496E-03;  1.0000000E+04;  0.0000000E+00;  9.9473574E+03;  2.9758241E+00;  0.0000000E+00;  1.2040226E-01;  2.4794316E+04;
  7.5954515E-01;  9.9999998E-03;  2.4083626E-01;2234; -9.5027186E-02;  0.0000000E+00;  2.9353222E-02;  1.0143966E+03;  4.1242695E-01;  1.1925021E+04;3; -8.3167772E+00;  0.0000000E+00; -4.8638451E+01;0;  2.9439037E+00;  9.7275820E+03;  0.0000000E+00;  6.3254707E-03;  1.0000000E+04;  0.0000000E+00;  9.9503408E+03;  2.8496206E+00;  0.0000000E+00;  9.4283052E-02;  2.3350553E+04;
  7.5959003E-01;  9.9999998E-03;  2.6084951E-01;2235; -8.1549965E-02;  0.0000000E+00;  2.9222284E-02;  1.0148427E+03;  4.1242683E-01;  1.2294620E+04;3; -9.1511278E+00;  0.0000000E+00; -4.5348995E+01;0;  2.7935293E+00;  9.7326367E+03;  0.0000000E+00;  8.1213014E-03;  1.0000000E+04;  0.0000000E+00;  9.9538867E+03;  2.7213893E+00;  0.0000000E+00;  7.2140045E-02;  2.1625520E+04;
  7.5964159E-01;  9.9999998E-03;  2.8087425E-01;2236; -6.7073606E-02;  0.0000000E+00;  3.2651499E-02;  1.0151736E+03;  4.1242614E-01;  1.2568730E+04;3; -1.0667809E+01;  0.0000000E+00; -3.6143639E+01;0;  2.6718428E+00;  9.7378730E+03;  0.0000000E+00;  2.9400892E-03;  1.0000000E+04;  0.0000000E+00;  9.9550039E+03;  2.5996447E+00;  0.0000000E+00;  7.2198197E-02;  2.1069094E+04;
  7.5969732E-01;  9.9999998E-03;  3.0090731E-01;2237; -5.3602733E-02;  0.0000000E+00;  4.6900976E-02;  1.0152830E+03;  4.1242519E-01;  1.2659277E+04;3; -1.2514892E+01;  0.0000000E+00; -3.4932606E+01;0;  2.7950435E+00;  9.7426289E+03;  0.0000000E+00; -1.9359222E-02;  1.0000000E+04;  0.0000000E+00;  9.9522822E+03;  2.4939053E+00;  0.0000000E+00;  3.0113822E-01;  2.2134107E+04;
  7.7974963E-01;  9.9999998E-03;  1.6060990E-01;2261; -6.9332942E-02;  0.0000000E+00;  1.4016998E-02;  1.0132780E+03;  4.1245812E-01;  1.0997773E+04;3; -9.3608160E+00;  0.0000000E+00; -4.1761700E+01;0;  3.4601088E+00;  9.7198232E+03;  0.0000000E+00;  1.9956560E-05;  1.0000000E+04;  0.0000000E+00;  9.9349512E+03;  3.2658329E+00;  0.0000000E+00;  1.9427595E-01;  3.0854100E+04;
  7.7975863E-01;  9.9999998E-03;  1.8066666E-01;2262; -6.5160796E-02;  0.0000000E+00;  1.8056346E-02;  1.0135618E+03;  4.1245842E-01;  1.1232769E+04;3; -8.6890163E+00;  0.0000000E+00; -4.5780235E+01;0;  3.3395987E+00;  9.7214150E+03;  0.0000000E+00; -5.5665740E-05;  1.0000000E+04;  0.0000000E+00;  9.9388467E+03;  3.1659448E+00;  0.0000000E+00;  1.7365377E-01;  2.8940760E+04;
  7.7976799E-01;  9.9999998E-03;  2.0072787E-01;2263; -6.1440259E-02;  0.0000000E+00;  2.2411993E-02;  1.0139420E+03;  4.1245851E-01;  1.1547740E+04;3; -8.2536736E+00;  0.0000000E+00; -4.9426529E+01;0;  3.1955221E+00;  9.7245498E+03;  0.0000000E+00; -1.5620040E-05;  1.0000000E+04;  0.0000000E+00;  9.9430508E+03;  3.0471518E+00;  0.0000000E+00;  1.4837037E-01;  2.6883086E+04;
  7.7977973E-01;  9.9999998E-03;  2.2078601E-01;2264; -5.7663515E-02;  0.0000000E+00;  2.3170192E-02;  1.0143953E+03;  4.1245821E-01;  1.1923239E+04;3; -8.1719322E+00;  0.0000000E+00; -5.3424854E+01;0;  3.0353327E+00;  9.7293887E+03;  0.0000000E+00;  2.0340392E-04;  1.0000000E+04;  0.0000000E+00;  9.9469658E+03;  2.9108045E+00;  0.0000000E+00;  1.2452816E-01;  2.4976490E+04;
  7.7979481E-01;  9.9999998E-03;  2.4082533E-01;2265; -5.3366099E-02;  0.0000000E+00;  2.1060457E-02;  1.0149042E+03;  4.1245776E-01;  1.2344748E+04;3; -8.5592718E+00;  0.0000000E+00; -5.3883865E+01;0;  2.8570774E+00;  9.7357012E+03;  0.0000000E+00;  4.6863221E-04;  1.0000000E+04;  0.0000000E+00;  9.9504697E+03;  2.7628767E+00;  0.0000000E+00;  9.4200581E-02;  2.3289701E+04;
  7.7981234E-01;  9.9999998E-03;  2.6085716E-01;2266; -4.8443541E-02;  0.0000000E+00;  2.6544824E-02;  1.0154203E+03;  4.1245723E-01;  1.2772183E+04;3; -9.4669428E+00;  0.0000000E+00; -4.8909286E+01;0;  2.7061076E+00;  9.7429160E+03;  0.0000000E+00;  2.4090339E-05;  1.0000000E+04;  0.0000000E+00;  9.9531924E+03;  2.6122897E+00;  0.0000000E+00;  9.3818061E-02;  2.1957908E+04;
  7.7983022E-01;  9.9999998E-03;  2.8088900E-01;2267; -4.3159772E-02;  0.0000000E+00;  3.0503344E-02;  1.0158271E+03;  4.1245645E-01;  1.3109173E+04;3; -1.0804829E+01;  0.0000000E+00; -3.7213589E+01;0;  2.5592802E+00;  9.7502969E+03;  0.0000000E+00; -3.1523323E-03;  1.0000000E+04;  0.0000000E+00;  9.9536279E+03;  2.4693606E+00;  0.0000000E+00;  8.9919463E-02;  2.1752369E+04;
  7.7985132E-01;  9.9999998E-03;  3.0092821E-01;2268; -3.7526026E-02;  0.0000000E+00;  4.7179695E-02;  1.0159760E+03;  4.1245517E-01;  1.3232493E+04;3; -1.2337121E+01;  0.0000000E+00; -3.8574123E+01;0;  2.7024376E+00;  9.7569980E+03;  0.0000000E+00; -1.1336402E-02;  1.0000000E+04;  0.0000000E+00;  9.9497188E+03;  2.3444927E+00;  0.0000000E+00;  3.5794494E-01;  2.3366738E+04;
  7.9998356E-01;  9.9999998E-03;  1.6059610E-01;2292; -1.8928112E-02;  0.0000000E+00;  8.4800152E-03;  1.0138816E+03;  4.1246647E-01;  1.1496644E+04;3; -7.0425067E+00;  0.0000000E+00; -4.2946350E+01;0;  3.3740234E+00;  9.7310244E+03;  0.0000000E+00; -9.6357915E-05;  1.0000000E+04;  0.0000000E+00;  9.9347842E+03;  3.1812606E+00;  0.0000000E+00;  1.9276273E-01;  3.0935205E+04;
  7.9998916E-01;  9.9999998E-03;  1.8065085E-01;2293; -1.7814459E-02;  0.0000000E+00;  1.2058999E-02;  1.0141575E+03;  4.1246673E-01;  1.1725102E+04;3; -6.9632359E+00;  0.0000000E+00; -4.7220505E+01;0;  3.2623084E+00;  9.7327617E+03;  0.0000000E+00; -1.4632482E-04;  1.0000000E+04;  0.0000000E+00;  9.9383730E+03;  3.0856981E+00;  0.0000000E+00;  1.7661019E-01;  2.9170039E+04;
  7.9999387E-01;  9.9999998E-03;  2.0071197E-01;2294; -1.7184544E-02;  0.0000000E+00;  1.6490296E-02;  1.0145362E+03;  4.1246679E-01;  1.2038763E+04;3; -6.9341784E+00;  0.0000000E+00; -5.1024723E+01;0;  3.1256030E+00;  9.7361797E+03;  0.0000000E+00; -1.6011149E-04;  1.0000000E+04;  0.0000000E+00;  9.9422744E+03;  2.9706402E+00;  0.0000000E+00;  1.5496272E-01;  2.7263734E+04;
  7.9999709E-01;  9.9999998E-03;  2.2077730E-01;2295; -1.7082922E-02;  0.0000000E+00;  1.9289805E-02;  1.0149993E+03;  4.1246644E-01;  1.2422321E+04;3; -7.0006104E+00;  0.0000000E+00; -5.4597828E+01;0;  2.9705317E+00;  9.7414746E+03;  0.0000000E+00; -1.4997233E-04;  1.0000000E+04;  0.0000000E+00;  9.9459248E+03;  2.8361838E+00;  0.0000000E+00;  1.3434796E-01;  2.5489684E+04;
  7.9999727E-01;  9.9999998E-03;  2.4082506E-01;2296; -1.7690564E-02;  0.0000000E+00;  1.8956093E-02;  1.0155189E+03;  4.1246572E-01;  1.2852680E+04;3; -7.2265635E+00;  0.0000000E+00; -5.6090199E+01;0;  2.7978015E+00;  9.7483916E+03;  0.0000000E+00; -1.5251229E-04;  1.0000000E+04;  0.0000000E+00;  9.9490430E+03;  2.6880527E+00;  0.0000000E+00;  1.0974885E-01;  2.3993230E+04;
  7.9999304E-01;  9.9999998E-03;  2.6086324E-01;2297; -1.8910082E-02;  0.0000000E+00;  2.4619158E-02;  1.0160377E+03;  4.1246510E-01;  1.3282347E+04;3; -7.6496668E+00;  0.0000000E+00; -5.1226845E+01;0;  2.6466215E+00;  9.7563027E+03;  0.0000000E+00; -1.8932112E-04;  1.0000000E+04;  0.0000000E+00;  9.9511191E+03;  2.5355923E+00;  0.0000000E+00;  1.1102905E-01;  2.2983574E+04;
  7.9998600E-01;  9.9999998E-03;  2.8089616E-01;2298; -1.9985834E-02;  0.0000000E+00;  2.8818974E-02;  1.0164850E+03;  4.1246450E-01;  1.3652776E+04;3; -8.2618265E+00;  0.0000000E+00; -3.8732555E+01;0;  2.4937193E+00;  9.7644326E+03;  0.0000000E+00; -1.7869464E-04;  1.0000000E+04;  0.0000000E+00;  9.9516094E+03;  2.3894808E+00;  0.0000000E+00;  1.0423850E-01;  2.2756588E+04;
  7.9997993E-01;  9.9999998E-03;  3.0093849E-01;2299; -2.0086844E-02;  0.0000000E+00;  4.6697732E-02;  1.0166570E+03;  4.1246307E-01;  1.3795242E+04;3; -9.0023651E+00;  0.0000000E+00; -4.0757702E+01;0;  2.6456461E+00;  9.7719385E+03;  0.0000000E+00;  9.9582532E-05;  1.0000000E+04;  0.0000000E+00;  9.9473535E+03;  2.2595513E+00;  0.0000000E+00;  3.8609475E-01;  2.4529521E+04;
  8.2021785E-01;  9.9999998E-03;  1.6058820E-01;2323;  3.6048703E-02;  0.0000000E+00;  9.1405846E-03;  1.0145444E+03;  4.1244814E-01;  1.2044101E+04;3; -2.0602441E+00;  0.0000000E+00; -4.1708229E+01;0;  3.2999017E+00;  9.7443594E+03;  0.0000000E+00; -5.3119282E-05;  1.0000000E+04;  0.0000000E+00;  9.9348604E+03;  3.1048207E+00;  0.0000000E+00;  1.9508094E-01;  3.0884502E+04;
  8.2022238E-01;  9.9999998E-03;  1.8064377E-01;2324;  3.5551433E-02;  0.0000000E+00;  1.3124024E-02;  1.0147682E+03;  4.1244870E-01;  1.2229490E+04;3; -2.0586777E+00;  0.0000000E+00; -4.6056808E+01;0;  3.2081113E+00;  9.7454375E+03;  0.0000000E+00;  2.7957560E-05;  1.0000000E+04;  0.0000000E+00;  9.9381074E+03;  3.0279961E+00;  0.0000000E+00;  1.8011530E-01;  2.9287018E+04;
  8.2022536E-01;  9.9999998E-03;  2.0070739E-01;2325;  3.4754131E-02;  0.0000000E+00;  1.8272255E-02;  1.0150923E+03;  4.1244861E-01;  1.2497900E+04;3; -1.8918096E+00;  0.0000000E+00; -4.9956135E+01;0;  3.0916426E+00;  9.7481816E+03;  0.0000000E+00;  2.1872924E-04;  1.0000000E+04;  0.0000000E+00;  9.9416357E+03;  2.9314394E+00;  0.0000000E+00;  1.6020332E-01;  2.7564727E+04;
  8.2022363E-01;  9.9999998E-03;  2.2078243E-01;2326;  3.2873433E-02;  0.0000000E+00;  2.2745997E-02;  1.0154933E+03;  4.1244847E-01;  1.2829982E+04;3; -1.5776529E+00;  0.0000000E+00; -5.4099728E+01;0;  2.9580877E+00;  9.7528535E+03;  0.0000000E+00;  4.9130851E-04;  1.0000000E+04;  0.0000000E+00;  9.9447021E+03;  2.8132899E+00;  0.0000000E+00;  1.4479777E-01;  2.6071184E+04;
  8.2021242E-01;  9.9999998E-03;  2.4083295E-01;2327;  2.8824290E-02;  0.0000000E+00;  2.1040602E-02;  1.0159459E+03;  4.1244817E-01;  1.3204713E+04;3; -1.1613164E+00;  0.0000000E+00; -5.5960136E+01;0;  2.8029268E+00;  9.7592373E+03;  0.0000000E+00;  7.8616414E-04;  1.0000000E+04;  0.0000000E+00;  9.9470625E+03;  2.6784699E+00;  0.0000000E+00;  1.2445699E-01;  2.4947516E+04;
  8.2019037E-01;  9.9999998E-03;  2.6086512E-01;2328;  2.2515524E-02;  0.0000000E+00;  2.2845868E-02;  1.0164442E+03;  4.1244769E-01;  1.3617349E+04;3; -6.9825411E-01;  0.0000000E+00; -5.2546474E+01;0;  2.6442230E+00;  9.7667070E+03;  0.0000000E+00;  1.0253571E-03;  1.0000000E+04;  0.0000000E+00;  9.9492041E+03;  2.5363717E+00;  0.0000000E+00;  1.0785122E-01;  2.3929359E+04;
  8.2016242E-01;  9.9999998E-03;  2.8089580E-01;2329;  1.5415352E-02;  0.0000000E+00;  2.7742537E-02;  1.0168959E+03;  4.1244689E-01;  1.3991390E+04;3; -2.7527004E-01;  0.0000000E+00; -3.9596130E+01;0;  2.5005219E+00;  9.7745029E+03;  0.0000000E+00;  8.5324928E-04;  1.0000000E+04;  0.0000000E+00;  9.9501270E+03;  2.3977675E+00;  0.0000000E+00;  1.0275429E-01;  2.3486037E+04;
  8.2013059E-01;  9.9999998E-03;  3.0093923E-01;2330;  9.0679135E-03;  0.0000000E+00;  4.6132561E-02;  1.0170635E+03;  4.1244543E-01;  1.4130188E+04;3;  2.9566973E-02;  0.0000000E+00; -4.1559326E+01;0;  2.6606259E+00;  9.7818584E+03;  0.0000000E+00; -3.4881572E-04;  1.0000000E+04;  0.0000000E+00;  9.9459424E+03;  2.2721200E+00;  0.0000000E+00;  3.8850585E-01;  2.5214701E+04;
  8.4047139E-01;  9.9999998E-03;  1.6058382E-01;2354;  9.9678911E-02;  0.0000000E+00;  1.4136648E-02;  1.0147807E+03;  4.1224432E-01;  1.2237828E+04;3;  5.6738505E+00;  0.0000000E+00; -3.8854244E+01;0;  3.2438395E+00;  9.7581455E+03;  0.0000000E+00; -1.6503358E-05;  1.0000000E+04;  0.0000000E+00;  9.9351846E+03;  3.0438414E+00;  0.0000000E+00;  1.9999824E-01;  3.0685771E+04;
  8.4047842E-01;  9.9999998E-03;  1.8064119E-01;2355;  9.9218026E-02;  0.0000000E+00;  1.8795254E-02;  1.0149293E+03;  4.1224492E-01;  1.2360808E+04;3;  5.9890742E+00;  0.0000000E+00; -4.3206512E+01;0;  3.1747582E+00;  9.7580166E+03;  0.0000000E+00;  1.5482528E-04;  1.0000000E+04;  0.0000000E+00;  9.9382012E+03;  2.9924574E+00;  0.0000000E+00;  1.8230090E-01;  2.9206662E+04;
  8.4048414E-01;  9.9999998E-03;  2.0070715E-01;2356;  9.8772041E-02;  0.0000000E+00;  2.4488499E-02;  1.0151710E+03;  4.1224504E-01;  1.2560971E+04;3;  6.6882010E+00;  0.0000000E+00; -4.7228001E+01;0;  3.0816402E+00;  9.7594297E+03;  0.0000000E+00;  5.6520436E-04;  1.0000000E+04;  0.0000000E+00;  9.9414688E+03;  2.9208665E+00;  0.0000000E+00;  1.6077368E-01;  2.7612980E+04;
  8.4048194E-01;  9.9999998E-03;  2.2078560E-01;2357;  9.6519403E-02;  0.0000000E+00;  2.7398206E-02;  1.0154812E+03;  4.1224509E-01;  1.2817789E+04;3;  7.7376604E+00;  0.0000000E+00; -5.3290676E+01;0;  2.9706793E+00;  9.7627627E+03;  0.0000000E+00;  1.2612924E-03;  1.0000000E+04;  0.0000000E+00;  9.9441396E+03;  2.8253009E+00;  0.0000000E+00;  1.4537828E-01;  2.6315098E+04;
  8.4046203E-01;  9.9999998E-03;  2.4083330E-01;2358;  8.9791849E-02;  0.0000000E+00;  2.3693677E-02;  1.0158480E+03;  4.1224512E-01;  1.3121394E+04;3;  9.0451565E+00;  0.0000000E+00; -5.4558453E+01;0;  2.8334837E+00;  9.7678613E+03;  0.0000000E+00;  2.0950076E-03;  1.0000000E+04;  0.0000000E+00;  9.9461162E+03;  2.7096488E+00;  0.0000000E+00;  1.2383473E-01;  2.5376773E+04;
  8.4042454E-01;  9.9999998E-03;  2.6085758E-01;2359;  7.8438394E-02;  0.0000000E+00;  2.2772161E-02;  1.0163101E+03;  4.1224492E-01;  1.3504057E+04;3;  1.0501298E+01;  0.0000000E+00; -5.1650787E+01;0;  2.6772764E+00;  9.7741523E+03;  0.0000000E+00;  2.5731397E-03;  1.0000000E+04;  0.0000000E+00;  9.9487461E+03;  2.5832374E+00;  0.0000000E+00;  9.4038881E-02;  2.4132137E+04;
  8.4037596E-01;  9.9999998E-03;  2.8088620E-01;2360;  6.4284243E-02;  0.0000000E+00;  2.7866574E-02;  1.0167355E+03;  4.1224444E-01;  1.3856227E+04;3;  1.1963057E+01;  0.0000000E+00; -3.9703644E+01;0;  2.5483358E+00;  9.7809023E+03;  0.0000000E+00;  1.2066431E-03;  1.0000000E+04;  0.0000000E+00;  9.9502100E+03;  2.4571137E+00;  0.0000000E+00;  9.1222011E-02;  2.3416775E+04;
  8.4031695E-01;  9.9999998E-03;  3.0092937E-01;2361;  5.0069112E-02;  0.0000000E+00;  4.5907136E-02;  1.0168794E+03;  4.1224316E-01;  1.3975464E+04;3;  1.3281700E+01;  0.0000000E+00; -4.0984291E+01;0;  2.7107635E+00;  9.7874209E+03;  0.0000000E+00; -4.6525202E-03;  1.0000000E+04;  0.0000000E+00;  9.9464053E+03;  2.3410220E+00;  0.0000000E+00;  3.6974156E-01;  2.4958023E+04;
  8.6073589E-01;  9.9999998E-03;  1.6057856E-01;2385;  1.6825238E-01;  0.0000000E+00;  2.1040201E-02;  1.0147042E+03;  4.1184407E-01;  1.2171729E+04;3;  1.4748025E+01;  0.0000000E+00; -3.5216270E+01;0;  3.1576190E+00;  9.7749873E+03;  0.0000000E+00;  7.9359761E-06;  1.0000000E+04;  0.0000000E+00;  9.9358926E+03;  2.9517584E+00;  0.0000000E+00;  2.0586067E-01;  3.0280379E+04;
  8.6074859E-01;  9.9999998E-03;  1.8063730E-01;2386;  1.6899474E-01;  0.0000000E+00;  2.6279368E-02;  1.0147730E+03;  4.1184479E-01;  1.2228663E+04;3;  1.5515165E+01;  0.0000000E+00; -3.9530220E+01;0;  3.1085742E+00;  9.7734102E+03;  0.0000000E+00;  2.3156035E-04;  1.0000000E+04;  0.0000000E+00;  9.9388125E+03;  2.9258473E+00;  0.0000000E+00;  1.8272676E-01;  2.8854705E+04;
  8.6076051E-01;  9.9999998E-03;  2.0070408E-01;2387;  1.7006749E-01;  0.0000000E+00;  3.1617343E-02;  1.0149237E+03;  4.1184524E-01;  1.2353391E+04;3;  1.6856796E+01;  0.0000000E+00; -4.5107307E+01;0;  3.0362656E+00;  9.7731748E+03;  0.0000000E+00;  9.1583427E-04;  1.0000000E+04;  0.0000000E+00;  9.9419746E+03;  2.8794062E+00;  0.0000000E+00;  1.5685937E-01;  2.7315883E+04;
  8.6076117E-01;  9.9999998E-03;  2.2077949E-01;2388;  1.6823687E-01;  0.0000000E+00;  3.1748295E-02;  1.0151357E+03;  4.1184527E-01;  1.2528938E+04;3;  1.8690880E+01;  0.0000000E+00; -5.1151234E+01;0;  2.9448059E+00;  9.7747549E+03;  0.0000000E+00;  2.3565497E-03;  1.0000000E+04;  0.0000000E+00;  9.9445234E+03;  2.8074489E+00;  0.0000000E+00;  1.3735694E-01;  2.6083320E+04;
  8.6073482E-01;  9.9999998E-03;  2.4082303E-01;2389;  1.5918286E-01;  0.0000000E+00;  2.6982483E-02;  1.0154088E+03;  4.1184568E-01;  1.2754915E+04;3;  2.0837831E+01;  0.0000000E+00; -5.1519279E+01;0;  2.8261051E+00;  9.7781084E+03;  0.0000000E+00;  4.3254700E-03;  1.0000000E+04;  0.0000000E+00;  9.9464404E+03;  2.7129548E+00;  0.0000000E+00;  1.1315025E-01;  2.5171867E+04;
  8.6068243E-01;  9.9999998E-03;  2.6084197E-01;2390;  1.4223857E-01;  0.0000000E+00;  2.4972662E-02;  1.0158091E+03;  4.1184571E-01;  1.3086283E+04;3;  2.3119711E+01;  0.0000000E+00; -4.8790421E+01;0;  2.6840711E+00;  9.7827441E+03;  0.0000000E+00;  5.8890558E-03;  1.0000000E+04;  0.0000000E+00;  9.9495293E+03;  2.6048689E+00;  0.0000000E+00;  7.9202279E-02;  2.3703193E+04;
  8.6061281E-01;  9.9999998E-03;  2.8086874E-01;2391;  1.2000772E-01;  0.0000000E+00;  2.9427823E-02;  1.0161845E+03;  4.1184559E-01;  1.3397133E+04;3;  2.5376656E+01;  0.0000000E+00; -3.8249428E+01;0;  2.5696754E+00;  9.7879990E+03;  0.0000000E+00;  4.8502111E-03;  1.0000000E+04;  0.0000000E+00;  9.9515176E+03;  2.4942086E+00;  0.0000000E+00;  7.5466946E-02;  2.2727902E+04;
  8.6052531E-01;  9.9999998E-03;  3.0091053E-01;2392;  9.6659169E-02;  0.0000000E+00;  4.6202451E-02;  1.0162910E+03;  4.1184497E-01;  1.3485268E+04;3;  2.7454884E+01;  0.0000000E+00; -3.8812271E+01;0;  2.7261961E+00;  9.7932246E+03;  0.0000000E+00; -3.2620132E-03;  1.0000000E+04;  0.0000000E+00;  9.9482676E+03;  2.3910460E+00;  0.0000000E+00;  3.3515003E-01;  2.4010172E+04;
  8.8099283E-01;  9.9999998E-03;  1.6056818E-01;2416;  2.3632874E-01;  0.0000000E+00;  2.7714834E-02;  1.0145746E+03;  4.1126961E-01;  1.2060798E+04;3;  2.4026604E+01;  0.0000000E+00; -3.1430330E+01;0;  2.9806566E+00;  9.7986807E+03;  0.0000000E+00;  1.0549390E-05;  1.0000000E+04;  0.0000000E+00;  9.9371113E+03;  2.7688470E+00;  0.0000000E+00;  2.1180962E-01;  2.9619912E+04;
  8.8101262E-01;  9.9999998E-03;  1.8062712E-01;2417;  2.3865765E-01;  0.0000000E+00;  3.3286162E-02;  1.0145675E+03;  4.1127044E-01;  1.2054876E+04;3;  2.5128279E+01;  0.0000000E+00; -3.5773071E+01;0;  2.9482419E+00;  9.7956563E+03;  0.0000000E+00;  2.6187036E-04;  1.0000000E+04;  0.0000000E+00;  9.9400225E+03;  2.7655420E+00;  0.0000000E+00;  1.8269990E-01;  2.8207875E+04;
  8.8103217E-01;  9.9999998E-03;  2.0069288E-01;2418;  2.4147049E-01;  0.0000000E+00;  3.7642773E-02;  1.0146262E+03;  4.1127101E-01;  1.2103505E+04;3;  2.6897421E+01;  0.0000000E+00; -4.2612175E+01;0;  2.8941102E+00;  9.7936592E+03;  0.0000000E+00;  1.3408376E-03;  1.0000000E+04;  0.0000000E+00;  9.9431787E+03;  2.7425592E+00;  0.0000000E+00;  1.5155093E-01;  2.6678109E+04;
  8.8103634E-01;  9.9999998E-03;  2.2076263E-01;2419;  2.3976034E-01;  0.0000000E+00;  3.5993166E-02;  1.0147356E+03;  4.1127130E-01;  1.2193964E+04;3;  2.9253918E+01;  0.0000000E+00; -4.7190498E+01;0;  2.8216572E+00;  9.7932324E+03;  0.0000000E+00;  3.9335708E-03;  1.0000000E+04;  0.0000000E+00;  9.9457441E+03;  2.6946697E+00;  0.0000000E+00;  1.2698750E-01;  2.5435494E+04;
  8.8100445E-01;  9.9999998E-03;  2.4080306E-01;2420;  2.2834972E-01;  0.0000000E+00;  3.1341698E-02;  1.0149032E+03;  4.1127217E-01;  1.2332669E+04;3;  3.2068531E+01;  0.0000000E+00; -4.7464985E+01;0;  2.7262456E+00;  9.7944678E+03;  0.0000000E+00;  7.6649170E-03;  1.0000000E+04;  0.0000000E+00;  9.9477383E+03;  2.6240313E+00;  0.0000000E+00;  1.0221425E-01;  2.4485672E+04;
  8.8093728E-01;  9.9999998E-03;  2.6081946E-01;2421;  2.0547388E-01;  0.0000000E+00;  2.8865883E-02;  1.0152086E+03;  4.1127262E-01;  1.2585420E+04;3;  3.4857487E+01;  0.0000000E+00; -4.4818401E+01;0;  2.6072843E+00;  9.7970527E+03;  0.0000000E+00;  1.1124211E-02;  1.0000000E+04;  0.0000000E+00;  9.9510537E+03;  2.5384772E+00;  0.0000000E+00;  6.8807036E-02;  2.2901832E+04;
  8.8084745E-01;  9.9999998E-03;  2.8084525E-01;2422;  1.7486276E-01;  0.0000000E+00;  3.2439124E-02;  1.0155004E+03;  4.1127294E-01;  1.2826832E+04;3;  3.7559708E+01;  0.0000000E+00; -3.5463017E+01;0;  2.5120726E+00;  9.8004189E+03;  0.0000000E+00;  1.1952221E-02;  1.0000000E+04;  0.0000000E+00;  9.9532783E+03;  2.4479361E+00;  0.0000000E+00;  6.4136498E-02;  2.1807525E+04;
  8.8073289E-01;  9.9999998E-03;  3.0088487E-01;2423;  1.4222747E-01;  0.0000000E+00;  4.7041923E-02;  1.0155579E+03;  4.1127306E-01;  1.2874505E+04;3;  4.0062164E+01;  0.0000000E+00; -3.5378662E+01;0;  2.6537726E+00;  9.8040234E+03;  0.0000000E+00;  4.6956004E-03;  1.0000000E+04;  0.0000000E+00;  9.9506826E+03;  2.3620193E+00;  0.0000000E+00;  2.9175326E-01;  2.2799012E+04;
  9.0122598E-01;  9.9999998E-03;  1.6055004E-01;2447;  3.0047283E-01;  0.0000000E+00;  3.2771859E-02;  1.0145594E+03;  4.1055301E-01;  1.2043221E+04;3;  3.3463642E+01;  0.0000000E+00; -2.7866243E+01;0;  2.6799698E+00;  9.8309766E+03;  0.0000000E+00; -1.0895391E-05;  1.0000000E+04;  0.0000000E+00;  9.9388721E+03;  2.4618454E+00;  0.0000000E+00;  2.1812430E-01;  2.8694074E+04;
  9.0125233E-01;  9.9999998E-03;  1.8060786E-01;2448;  3.0405328E-01;  0.0000000E+00;  3.8495388E-02;  1.0144842E+03;  4.1055363E-01;  1.1980992E+04;3;  3.4604877E+01;  0.0000000E+00; -3.2174549E+01;0;  2.6630840E+00;  9.8266387E+03;  0.0000000E+00;  1.9768928E-04;  1.0000000E+04;  0.0000000E+00;  9.9417793E+03;  2.4786847E+00;  0.0000000E+00;  1.8439935E-01;  2.7291617E+04;
  9.0127861E-01;  9.9999998E-03;  2.0067105E-01;2449;  3.0792049E-01;  0.0000000E+00;  4.2024158E-02;  1.0144517E+03;  4.1055423E-01;  1.1954065E+04;3;  3.6325634E+01;  0.0000000E+00; -3.9391209E+01;0;  2.6279624E+00;  9.8228613E+03;  0.0000000E+00;  1.6386419E-03;  1.0000000E+04;  0.0000000E+00;  9.9449551E+03;  2.4792833E+00;  0.0000000E+00;  1.4867911E-01;  2.5760936E+04;
  9.0128326E-01;  9.9999998E-03;  2.2073334E-01;2450;  3.0510491E-01;  0.0000000E+00;  3.9650507E-02;  1.0144521E+03;  4.1055471E-01;  1.1954458E+04;3;  3.8648872E+01;  0.0000000E+00; -4.2802578E+01;0;  2.5784369E+00;  9.8202051E+03;  0.0000000E+00;  5.4662563E-03;  1.0000000E+04;  0.0000000E+00;  9.9476484E+03;  2.4588647E+00;  0.0000000E+00;  1.1957206E-01;  2.4460596E+04;
  9.0124333E-01;  9.9999998E-03;  2.4077219E-01;2451;  2.8989419E-01;  0.0000000E+00;  3.5699829E-02;  1.0145002E+03;  4.1055581E-01;  1.1994209E+04;3;  4.1779690E+01;  0.0000000E+00; -4.2249939E+01;0;  2.5110989E+00;  9.8189502E+03;  0.0000000E+00;  1.1206683E-02;  1.0000000E+04;  0.0000000E+00;  9.9498027E+03;  2.4182312E+00;  0.0000000E+00;  9.2867613E-02;  2.3426115E+04;
  9.0116560E-01;  9.9999998E-03;  2.6079109E-01;2452;  2.6253149E-01;  0.0000000E+00;  3.3864431E-02;  1.0146675E+03;  4.1055694E-01;  1.2132676E+04;3;  4.5034336E+01;  0.0000000E+00; -3.9975533E+01;0;  2.4282763E+00;  9.8190293E+03;  0.0000000E+00;  1.6816039E-02;  1.0000000E+04;  0.0000000E+00;  9.9529238E+03;  2.3627586E+00;  0.0000000E+00;  6.5517724E-02;  2.1927674E+04;
  9.0105802E-01;  9.9999998E-03;  2.8081739E-01;2453;  2.2439232E-01;  0.0000000E+00;  3.6724497E-02;  1.0148278E+03;  4.1055772E-01;  1.2265234E+04;3;  4.8009785E+01;  0.0000000E+00; -3.1972740E+01;0;  2.3645563E+00;  9.8200947E+03;  0.0000000E+00;  2.0250710E-02;  1.0000000E+04;  0.0000000E+00;  9.9548877E+03;  2.3001668E+00;  0.0000000E+00;  6.4389519E-02;  2.0952277E+04;
  9.0092182E-01;  9.9999998E-03;  3.0085409E-01;2454;  1.8332478E-01;  0.0000000E+00;  4.8452366E-02;  1.0148225E+03;  4.1055855E-01;  1.2260935E+04;3;  5.0501736E+01;  0.0000000E+00; -3.1468971E+01;0;  2.4867382E+00;  9.8216934E+03;  0.0000000E+00;  1.5139367E-02;  1.0000000E+04;  0.0000000E+00;  9.9530361E+03;  2.2384567E+00;  0.0000000E+00;  2.4828160E-01;  2.1623484E+04;
  9.2140454E-01;  9.9999998E-03;  1.6052373E-01;2478;  3.5620591E-01;  0.0000000E+00;  3.5641491E-02;  1.0146350E+03;  4.0973201E-01;  1.2099031E+04;3;  4.3714069E+01;  0.0000000E+00; -2.4685068E+01;0;  2.2704380E+00;  9.8697480E+03;  0.0000000E+00;  9.4424722E-06;  1.0000000E+04;  0.0000000E+00;  9.9411064E+03;  2.0447764E+00;  0.0000000E+00;  2.2566152E-01;  2.7526967E+04;
  9.2144167E-01;  9.9999998E-03;  1.8057957E-01;2479;  3.6124566E-01;  0.0000000E+00;  4.1547384E-02;  1.0145057E+03;  4.0973222E-01;  1.1992088E+04;3;  4.4536133E+01;  0.0000000E+00; -2.8595194E+01;0;  2.2695806E+00;  9.8643955E+03;  0.0000000E+00;  4.8612768E-05;  1.0000000E+04;  0.0000000E+00;  9.9439736E+03;  2.0800562E+00;  0.0000000E+00;  1.8952441E-01;  2.6152027E+04;
  9.2147911E-01;  9.9999998E-03;  2.0063871E-01;2480;  3.6590272E-01;  0.0000000E+00;  4.4377096E-02;  1.0143876E+03;  4.0973258E-01;  1.1894507E+04;3;  4.5605984E+01;  0.0000000E+00; -3.5651100E+01;0;  2.2563026E+00;  9.8589609E+03;  0.0000000E+00;  1.5038198E-03;  1.0000000E+04;  0.0000000E+00;  9.9471514E+03;  2.1059062E+00;  0.0000000E+00;  1.5039629E-01;  2.4627998E+04;
  9.2148489E-01;  9.9999998E-03;  2.2069138E-01;2481;  3.6076558E-01;  0.0000000E+00;  4.1882493E-02;  1.0142804E+03;  4.0973336E-01;  1.1805906E+04;3;  4.7273445E+01;  0.0000000E+00; -3.8117119E+01;0;  2.2347937E+00;  9.8539541E+03;  0.0000000E+00;  5.9847836E-03;  1.0000000E+04;  0.0000000E+00;  9.9500762E+03;  2.1185007E+00;  0.0000000E+00;  1.1629303E-01;  2.3219676E+04;
  9.2143667E-01;  9.9999998E-03;  2.4073204E-01;2482;  3.4148324E-01;  0.0000000E+00;  3.8783617E-02;  1.0141934E+03;  4.0973476E-01;  1.1733980E+04;3;  4.9785046E+01;  0.0000000E+00; -3.8019062E+01;0;  2.2020493E+00;  9.8498896E+03;  0.0000000E+00;  1.3238813E-02;  1.0000000E+04;  0.0000000E+00;  9.9524072E+03;  2.1161816E+00;  0.0000000E+00;  8.5867763E-02;  2.2098746E+04;
  9.2135024E-01;  9.9999998E-03;  2.6075676E-01;2483;  3.0963525E-01;  0.0000000E+00;  3.8672533E-02;  1.0141917E+03;  4.0973619E-01;  1.1732634E+04;3;  5.3537304E+01;  0.0000000E+00; -3.5237019E+01;0;  2.1642609E+00;  9.8470391E+03;  0.0000000E+00;  2.0981234E-02;  1.0000000E+04;  0.0000000E+00;  9.9551416E+03;  2.1000974E+00;  0.0000000E+00;  6.4163476E-02;  2.0781352E+04;
  9.2123115E-01;  9.9999998E-03;  2.8078616E-01;2484;  2.6724222E-01;  0.0000000E+00;  4.2235848E-02;  1.0141697E+03;  4.0973783E-01;  1.1714445E+04;3;  5.7495121E+01;  0.0000000E+00; -2.7744345E+01;0;  2.1534698E+00;  9.8453721E+03;  0.0000000E+00;  2.6957734E-02;  1.0000000E+04;  0.0000000E+00;  9.9562539E+03;  2.0746090E+00;  0.0000000E+00;  7.8860708E-02;  2.0191479E+04;
  9.2108226E-01;  9.9999998E-03;  3.0081922E-01;2485;  2.1970767E-01;  0.0000000E+00;  5.0770678E-02;  1.0140802E+03;  4.0973914E-01;  1.1640486E+04;3;  5.9743938E+01;  0.0000000E+00; -2.7055922E+01;0;  2.2635658E+00;  9.8445889E+03;  0.0000000E+00;  2.3179919E-02;  1.0000000E+04;  0.0000000E+00;  9.9551250E+03;  2.0452054E+00;  0.0000000E+00;  2.1836051E-01;  2.0551150E+04;
  9.4148713E-01;  9.9999998E-03;  1.6049232E-01;2509;  3.9487383E-01;  0.0000000E+00;  3.6856603E-02;  1.0146261E+03;  4.0884724E-01;  1.2082742E+04;3;  5.5170231E+01;  0.0000000E+00; -2.1928658E+01;0;  1.8063525E+00;  9.9097939E+03;  0.0000000E+00;  1.5679220E-04;  1.0000000E+04;  0.0000000E+00;  9.9436973E+03;  1.5713725E+00;  0.0000000E+00;  2.3497999E-01;  2.6153594E+04;
  9.4153053E-01;  9.9999998E-03;  1.8054685E-01;2510;  4.0061009E-01;  0.0000000E+00;  4.3280691E-02;  1.0144619E+03;  4.0884730E-01;  1.1947015E+04;3;  5.5433578E+01;  0.0000000E+00; -2.5082870E+01;0;  1.8215383E+00;  9.9038252E+03;  0.0000000E+00; -3.7859052E-05;  1.0000000E+04;  0.0000000E+00;  9.9464824E+03;  1.6230855E+00;  0.0000000E+00;  1.9845279E-01;  2.4828434E+04;
  9.4157904E-01;  9.9999998E-03;  2.0060371E-01;2511;  4.0641874E-01;  0.0000000E+00;  4.7048584E-02;  1.0142736E+03;  4.0884757E-01;  1.1791393E+04;3;  5.5770355E+01;  0.0000000E+00; -3.1301435E+01;0;  1.8322475E+00;  9.8970635E+03;  0.0000000E+00;  9.9729584E-04;  1.0000000E+04;  0.0000000E+00;  9.9496025E+03;  1.6746393E+00;  0.0000000E+00;  1.5760821E-01;  2.3339854E+04;
  9.4161111E-01;  9.9999998E-03;  2.2064963E-01;2512;  4.0388530E-01;  0.0000000E+00;  4.4364426E-02;  1.0140620E+03;  4.0884811E-01;  1.1616577E+04;3;  5.6234085E+01;  0.0000000E+00; -3.3437832E+01;0;  1.8422240E+00;  9.8899336E+03;  0.0000000E+00;  5.1638861E-03;  1.0000000E+04;  0.0000000E+00;  9.9526348E+03;  1.7229275E+00;  0.0000000E+00;  1.1929660E-01;  2.1889461E+04;
  9.4158155E-01;  9.9999998E-03;  2.4068546E-01;2513;  3.8426280E-01;  0.0000000E+00;  4.2217370E-02;  1.0138567E+03;  4.0884903E-01;  1.1447010E+04;3;  5.8071545E+01;  0.0000000E+00; -3.2829762E+01;0;  1.8486691E+00;  9.8830703E+03;  0.0000000E+00;  1.2559257E-02;  1.0000000E+04;  0.0000000E+00;  9.9554492E+03;  1.7641820E+00;  0.0000000E+00;  8.4487133E-02;  2.0539588E+04;
  9.4148910E-01;  9.9999998E-03;  2.6071933E-01;2514;  3.4743902E-01;  0.0000000E+00;  4.4774115E-02;  1.0136594E+03;  4.0885094E-01;  1.1284170E+04;3;  6.1266415E+01;  0.0000000E+00; -2.9852957E+01;0;  1.8705765E+00;  9.8771396E+03;  0.0000000E+00;  2.1935573E-02;  1.0000000E+04;  0.0000000E+00;  9.9574150E+03;  1.7946198E+00;  0.0000000E+00;  7.5956650E-02;  1.9568045E+04;
  9.4136286E-01;  9.9999998E-03;  2.8075159E-01;2515;  3.0232322E-01;  0.0000000E+00;  4.7691710E-02;  1.0134414E+03;  4.0885279E-01;  1.1104111E+04;3;  6.6114548E+01;  0.0000000E+00; -2.3550154E+01;0;  1.9056516E+00;  9.8724863E+03;  0.0000000E+00;  3.0502956E-02;  1.0000000E+04;  0.0000000E+00;  9.9576494E+03;  1.8133091E+00;  0.0000000E+00;  9.2342474E-02;  1.9389246E+04;
  9.4121057E-01;  9.9999998E-03;  3.0078098E-01;2516;  2.5261384E-01;  0.0000000E+00;  5.3674001E-02;  1.0132499E+03;  4.0885463E-01;  1.0945926E+04;3;  6.9401642E+01;  0.0000000E+00; -2.1492002E+01;0;  2.0171545E+00;  9.8690615E+03;  0.0000000E+00;  2.5627457E-02;  1.0000000E+04;  0.0000000E+00;  9.9571455E+03;  1.8224316E+00;  0.0000000E+00;  1.9472286E-01;  1.9471666E+04;
  9.6151745E-01;  9.9999998E-03;  1.6046126E-01;2540;  4.1854089E-01;  0.0000000E+00;  3.8343120E-02;  1.0143449E+03;  4.0793741E-01;  1.1838581E+04;3;  6.7028259E+01;  0.0000000E+00; -1.9435328E+01;0;  1.3519386E+00;  9.9457021E+03;  0.0000000E+00;  3.9179207E-04;  1.0000000E+04;  0.0000000E+00;  9.9465342E+03;  1.1063448E+00;  0.0000000E+00;  2.4559382E-01;  2.4595607E+04;
  9.6156377E-01;  9.9999998E-03;  1.8051466E-01;2541;  4.2478350E-01;  0.0000000E+00;  4.5347203E-02;  1.0141653E+03;  4.0793753E-01;  1.1690387E+04;3;  6.6642952E+01;  0.0000000E+00; -2.1986811E+01;0;  1.3807392E+00;  9.9395146E+03;  0.0000000E+00;  4.9440026E-05;  1.0000000E+04;  0.0000000E+00;  9.9492188E+03;  1.1708266E+00;  0.0000000E+00;  2.0991263E-01;  2.3332061E+04;
  9.6161640E-01;  9.9999998E-03;  2.0056985E-01;2542;  4.3147218E-01;  0.0000000E+00;  5.1271956E-02;  1.0139289E+03;  4.0793756E-01;  1.1495165E+04;3;  6.6375000E+01;  0.0000000E+00; -2.6320538E+01;0;  1.4139342E+00;  9.9318828E+03;  0.0000000E+00;  4.6944097E-04;  1.0000000E+04;  0.0000000E+00;  9.9522510E+03;  1.2451675E+00;  0.0000000E+00;  1.6876672E-01;  2.1902717E+04;
  9.6166217E-01;  9.9999998E-03;  2.2061768E-01;2543;  4.3187612E-01;  0.0000000E+00;  4.9554009E-02;  1.0136245E+03;  4.0793791E-01;  1.1243870E+04;3;  6.6007347E+01;  0.0000000E+00; -2.9036005E+01;0;  1.4565855E+00;  9.9231162E+03;  0.0000000E+00;  4.0124860E-03;  1.0000000E+04;  0.0000000E+00;  9.9550723E+03;  1.3270886E+00;  0.0000000E+00;  1.2949692E-01;  2.0559430E+04;
  9.6166956E-01;  9.9999998E-03;  2.4064556E-01;2544;  4.1751766E-01;  0.0000000E+00;  4.7163453E-02;  1.0133082E+03;  4.0793851E-01;  1.0982962E+04;3;  6.6772430E+01;  0.0000000E+00; -2.7651594E+01;0;  1.5024426E+00;  9.9139063E+03;  0.0000000E+00;  1.3971886E-02;  1.0000000E+04;  0.0000000E+00;  9.9580791E+03;  1.4108149E+00;  0.0000000E+00;  9.1627687E-02;  1.9125842E+04;
  9.6159470E-01;  9.9999998E-03;  2.6067883E-01;2545;  3.8037738E-01;  0.0000000E+00;  5.0772011E-02;  1.0129631E+03;  4.0794015E-01;  1.0698198E+04;3;  6.9308594E+01;  0.0000000E+00; -2.4221945E+01;0;  1.5781333E+00;  9.9051436E+03;  0.0000000E+00;  2.9836087E-02;  1.0000000E+04;  0.0000000E+00;  9.9599785E+03;  1.4886308E+00;  0.0000000E+00;  8.9502536E-02;  1.8172264E+04;
  9.6146756E-01;  9.9999998E-03;  2.8071335E-01;2546;  3.3447865E-01;  0.0000000E+00;  5.2094512E-02;  1.0125555E+03;  4.0794227E-01;  1.0361813E+04;3;  7.5509987E+01;  0.0000000E+00; -1.9852211E+01;0;  1.6513805E+00;  9.8975879E+03;  0.0000000E+00;  4.2815201E-02;  1.0000000E+04;  0.0000000E+00;  9.9593662E+03;  1.5533707E+00;  0.0000000E+00;  9.8009884E-02;  1.8388223E+04;
  9.6131676E-01;  9.9999998E-03;  3.0073935E-01;2547;  2.8441715E-01;  0.0000000E+00;  5.6505781E-02;  1.0122609E+03;  4.0794441E-01;  1.0118801E+04;3;  8.0560257E+01;  0.0000000E+00; -1.5597517E+01;0;  1.7739396E+00;  9.8915400E+03;  0.0000000E+00;  2.1752965E-02;  1.0000000E+04;  0.0000000E+00;  9.9594492E+03;  1.6024697E+00;  0.0000000E+00;  1.7146993E-01;  1.8207215E+04;
  9.8152059E-01;  9.9999998E-03;  1.6043414E-01;2571;  4.2878082E-01;  0.0000000E+00;  4.1805718E-02;  1.0137039E+03;  4.0703750E-01;  1.1294297E+04;3;  7.4537766E+01;  0.0000000E+00; -1.5744936E+01;0;  9.5838034E-01;  9.9740586E+03;  0.0000000E+00;  5.1935425E-04;  1.0000000E+04;  0.0000000E+00;  9.9495811E+03;  7.0267767E-01;  0.0000000E+00;  2.5570270E-01;  2.2857314E+04;
  9.8156899E-01;  9.9999998E-03;  1.8048556E-01;2572;  4.3560141E-01;  0.0000000E+00;  4.9252644E-02;  1.0135249E+03;  4.0703735E-01;  1.1146784E+04;3;  7.3896461E+01;  0.0000000E+00; -1.7756752E+01;0;  9.9573332E-01;  9.9679424E+03;  0.0000000E+00;  1.8770555E-04;  1.0000000E+04;  0.0000000E+00;  9.9521826E+03;  7.7451938E-01;  0.0000000E+00;  2.2121395E-01;  2.1652986E+04;
  9.8162442E-01;  9.9999998E-03;  2.0053706E-01;2573;  4.4314724E-01;  0.0000000E+00;  5.6598671E-02;  1.0132639E+03;  4.0703726E-01;  1.0931671E+04;3;  7.3572197E+01;  0.0000000E+00; -2.0055223E+01;0;  1.0453340E+00;  9.9599219E+03;  0.0000000E+00;  4.5194617E-04;  1.0000000E+04;  0.0000000E+00;  9.9550986E+03;  8.6477852E-01;  0.0000000E+00;  1.8055549E-01;  2.0293701E+04;
  9.8167920E-01;  9.9999998E-03;  2.2058704E-01;2574;  4.4707879E-01;  0.0000000E+00;  5.7460140E-02;  1.0128959E+03;  4.0703759E-01;  1.0628333E+04;3;  7.3574722E+01;  0.0000000E+00; -2.3381140E+01;0;  1.1164906E+00;  9.9501611E+03;  0.0000000E+00;  8.6799292E-03;  1.0000000E+04;  0.0000000E+00;  9.9576484E+03;  9.7243875E-01;  0.0000000E+00;  1.4405181E-01;  1.9090199E+04;
  9.8171061E-01;  9.9999998E-03;  2.4061330E-01;2575;  4.4080371E-01;  0.0000000E+00;  5.4026186E-02;  1.0124760E+03;  4.0703803E-01;  1.0282182E+04;3;  7.5432159E+01;  0.0000000E+00; -2.2458128E+01;0;  1.1981862E+00;  9.9393281E+03;  0.0000000E+00;  3.3559140E-02;  1.0000000E+04;  0.0000000E+00;  9.9602324E+03;  1.0909355E+00;  0.0000000E+00;  1.0725070E-01;  1.7863586E+04;
  9.8167479E-01;  9.9999998E-03;  2.6063609E-01;2576;  4.1046610E-01;  0.0000000E+00;  5.5404872E-02;  1.0120556E+03;  4.0703905E-01;  9.9357891E+03;3;  7.8489502E+01;  0.0000000E+00; -1.8865303E+01;0;  1.3047961E+00;  9.9283936E+03;  0.0000000E+00;  6.7381978E-02;  1.0000000E+04;  0.0000000E+00;  9.9628447E+03;  1.2088810E+00;  0.0000000E+00;  9.5915087E-02;  1.6593492E+04;
  9.8156035E-01;  9.9999998E-03;  2.8067082E-01;2577;  3.6603421E-01;  0.0000000E+00;  5.5957053E-02;  1.0115114E+03;  4.0704095E-01;  9.4873721E+03;3;  8.6229790E+01;  0.0000000E+00; -1.5316918E+01;0;  1.4133519E+00;  9.9184639E+03;  0.0000000E+00;  8.9333192E-02;  1.0000000E+04;  0.0000000E+00;  9.9619053E+03;  1.3136089E+00;  0.0000000E+00;  9.9743061E-02;  1.6945830E+04;
  9.8141605E-01;  9.9999998E-03;  3.0069458E-01;2578;  3.1673044E-01;  0.0000000E+00;  5.9221193E-02;  1.0111216E+03;  4.0704322E-01;  9.1662031E+03;3;  9.2975098E+01;  0.0000000E+00; -1.0480253E+01;0;  1.5524547E+00;  9.9102441E+03;  0.0000000E+00;  1.3085728E-02;  1.0000000E+04;  0.0000000E+00;  9.9622715E+03;  1.3969536E+00;  0.0000000E+00;  1.5550110E-01;  1.6635074E+04;
  1.0015119E+00;  9.9999998E-03;  1.6040875E-01;2602;  4.3244979E-01;  0.0000000E+00;  4.4833232E-02;  1.0127380E+03;  4.0617633E-01;  1.0479359E+04;3;  7.8632263E+01;  0.0000000E+00; -1.1942224E+01;0;  6.5069437E-01;  9.9940322E+03;  0.0000000E+00;  3.5810121E-04;  1.0000000E+04;  0.0000000E+00;  9.9528320E+03;  3.8802922E-01;  0.0000000E+00;  2.6266518E-01;  2.0938246E+04;
  1.0015621E+00;  9.9999998E-03;  1.8045631E-01;2603;  4.3987674E-01;  0.0000000E+00;  5.2333299E-02;  1.0125689E+03;  4.0617612E-01;  1.0340239E+04;3;  7.8136269E+01;  0.0000000E+00; -1.3365601E+01;0;  6.9019526E-01;  9.9881680E+03;  0.0000000E+00; -5.5993046E-04;  1.0000000E+04;  0.0000000E+00;  9.9553701E+03;  4.6118489E-01;  0.0000000E+00;  2.2901039E-01;  1.9788059E+04;
  1.0016199E+00;  9.9999998E-03;  2.0050457E-01;2604;  4.4860902E-01;  0.0000000E+00;  6.0063444E-02;  1.0123038E+03;  4.0617594E-01;  1.0122068E+04;3;  7.8340851E+01;  0.0000000E+00; -1.4694552E+01;0;  7.4702144E-01;  9.9801895E+03;  0.0000000E+00; -2.1449379E-03;  1.0000000E+04;  0.0000000E+00;  9.9581377E+03;  5.5809504E-01;  0.0000000E+00;  1.8892641E-01;  1.8524016E+04;
  1.0016804E+00;  9.9999998E-03;  2.2055101E-01;2605;  4.5494565E-01;  0.0000000E+00;  6.3316941E-02;  1.0119125E+03;  4.0617603E-01;  9.8001387E+03;3;  7.8587479E+01;  0.0000000E+00; -1.7442011E+01;0;  8.3441335E-01;  9.9701836E+03;  0.0000000E+00;  1.4639053E-02;  1.0000000E+04;  0.0000000E+00;  9.9604590E+03;  6.7924029E-01;  0.0000000E+00;  1.5517305E-01;  1.7440115E+04;
  1.0017267E+00;  9.9999998E-03;  2.4057868E-01;2606;  4.5407924E-01;  0.0000000E+00;  6.0763311E-02;  1.0114296E+03;  4.0617618E-01;  9.4027119E+03;3;  8.2404465E+01;  0.0000000E+00; -1.7076889E+01;0;  9.4358969E-01;  9.9586172E+03;  0.0000000E+00;  6.8309031E-02;  1.0000000E+04;  0.0000000E+00;  9.9625176E+03;  8.1902725E-01;  0.0000000E+00;  1.2456246E-01;  1.6464334E+04;
  1.0017312E+00;  9.9999998E-03;  2.6059276E-01;2607;  4.3766561E-01;  0.0000000E+00;  5.9000742E-02;  1.0109687E+03;  4.0617681E-01;  9.0235723E+03;3;  8.8908920E+01;  0.0000000E+00; -1.4138752E+01;0;  1.0655125E+00;  9.9463730E+03;  0.0000000E+00;  1.2943427E-01;  1.0000000E+04;  0.0000000E+00;  9.9656670E+03;  9.6477365E-01;  0.0000000E+00;  1.0073885E-01;  1.4988199E+04;
  1.0016466E+00;  9.9999998E-03;  2.8062424E-01;2608;  3.9714238E-01;  0.0000000E+00;  5.9050269E-02;  1.0103736E+03;  4.0617847E-01;  8.5340840E+03;3;  9.7920837E+01;  0.0000000E+00; -1.0451962E+01;0;  1.1983922E+00;  9.9349072E+03;  0.0000000E+00;  1.6417502E-01;  1.0000000E+04;  0.0000000E+00;  9.9652803E+03;  1.0965469E+00;  0.0000000E+00;  1.0184520E-01;  1.5072721E+04;
  1.0015198E+00;  9.9999998E-03;  3.0064705E-01;2609;  3.5008052E-01;  0.0000000E+00;  6.1675083E-02;  1.0099217E+03;  4.0618035E-01;  8.1624077E+03;3;  1.0674368E+02;  0.0000000E+00; -5.5288515E+00;0;  1.3501096E+00;  9.9253613E+03;  0.0000000E+00; -1.5198626E-02;  1.0000000E+04;  0.0000000E+00;  9.9657490E+03;  1.2010062E+00;  0.0000000E+00;  1.4910345E-01;  1.4701223E+04;
  1.0214965E+00;  9.9999998E-03;  1.6038376E-01;2633;  4.3284824E-01;  0.0000000E+00;  4.6849951E-02;  1.0115628E+03;  4.0537688E-01;  9.4895879E+03;3;  8.0889374E+01;  0.0000000E+00; -9.2382898E+00;0;  4.2817539E-01;  1.0006726E+04;  0.0000000E+00; -3.6531815E-04;  1.0000000E+04;  0.0000000E+00;  9.9562891E+03;  1.6427913E-01;  0.0000000E+00;  2.6389626E-01;  1.8852762E+04;
  1.0215490E+00;  9.9999998E-03;  1.8042903E-01;2634;  4.4106129E-01;  0.0000000E+00;  5.4298613E-02;  1.0114065E+03;  4.0537658E-01;  9.3612578E+03;3;  8.0738167E+01;  0.0000000E+00; -1.0523574E+01;0;  4.6423632E-01;  1.0001207E+04;  0.0000000E+00; -8.5223746E-03;  1.0000000E+04;  0.0000000E+00;  9.9587275E+03;  2.3334493E-01;  0.0000000E+00;  2.3089138E-01;  1.7777658E+04;
  1.0216098E+00;  9.9999998E-03;  2.0047346E-01;2635;  4.5059642E-01;  0.0000000E+00;  6.1596580E-02;  1.0111537E+03;  4.0537637E-01;  9.1536738E+03;3;  8.1087410E+01;  0.0000000E+00; -1.1084612E+01;0;  5.1945508E-01;  9.9937256E+03;  0.0000000E+00; -2.7109066E-02;  1.0000000E+04;  0.0000000E+00;  9.9612266E+03;  3.2720885E-01;  0.0000000E+00;  1.9224621E-01;  1.6667404E+04;
  1.0216746E+00;  9.9999998E-03;  2.2051315E-01;2636;  4.5922589E-01;  0.0000000E+00;  6.5986313E-02;  1.0107731E+03;  4.0537620E-01;  8.8413096E+03;3;  8.2934334E+01;  0.0000000E+00; -1.2122610E+01;0;  6.0923427E-01;  9.9842295E+03;  0.0000000E+00; -1.4331244E-02;  1.0000000E+04;  0.0000000E+00;  9.9632275E+03;  4.4825280E-01;  0.0000000E+00;  1.6098149E-01;  1.5748215E+04;
  1.0217328E+00;  9.9999998E-03;  2.4053870E-01;2637;  4.6243471E-01;  0.0000000E+00;  6.4672299E-02;  1.0102839E+03;  4.0537640E-01;  8.4396396E+03;3;  8.8422897E+01;  0.0000000E+00; -1.1869287E+01;0;  7.2947955E-01;  9.9728906E+03;  0.0000000E+00;  6.6907115E-02;  1.0000000E+04;  0.0000000E+00;  9.9649307E+03;  5.9349585E-01;  0.0000000E+00;  1.3598369E-01;  1.4945419E+04;
  1.0217650E+00;  9.9999998E-03;  2.6054952E-01;2638;  4.5652032E-01;  0.0000000E+00;  6.2198155E-02;  1.0098086E+03;  4.0537667E-01;  8.0495479E+03;3;  9.9044312E+01;  0.0000000E+00; -9.6962519E+00;0;  8.6586368E-01;  9.9602842E+03;  0.0000000E+00;  1.5592466E-01;  1.0000000E+04;  0.0000000E+00;  9.9681611E+03;  7.5251824E-01;  0.0000000E+00;  1.1334544E-01;  1.3473538E+04;
  1.0217321E+00;  9.9999998E-03;  2.8057405E-01;2639;  4.2748377E-01;  0.0000000E+00;  6.0499597E-02;  1.0092472E+03;  4.0537730E-01;  7.5888960E+03;3;  1.1035857E+02;  0.0000000E+00; -5.3895087E+00;0;  9.9751955E-01;  9.9479707E+03;  0.0000000E+00;  1.8484998E-01;  1.0000000E+04;  0.0000000E+00;  9.9693428E+03;  8.9828885E-01;  0.0000000E+00;  9.9230707E-02;  1.2866144E+04;
  1.0216364E+00;  9.9999998E-03;  3.0059776E-01;2640;  3.8488716E-01;  0.0000000E+00;  6.3521363E-02;  1.0087674E+03;  4.0537849E-01;  7.1952202E+03;3;  1.2234689E+02;  0.0000000E+00; -7.5213021E-01;0;  1.1590616E+00;  9.9379229E+03;  0.0000000E+00; -7.0138298E-02;  1.0000000E+04;  0.0000000E+00;  9.9697998E+03;  1.0066860E+00;  0.0000000E+00;  1.5237556E-01;  1.2486624E+04;
  1.0414765E+00;  9.9999998E-03;  1.6035882E-01;2664;  4.3168816E-01;  0.0000000E+00;  4.7425807E-02;  1.0103140E+03;  4.0465489E-01;  8.4373311E+03;3;  8.2295174E+01;  0.0000000E+00; -7.4265513E+00;0;  2.7431118E-01;  1.0014037E+04;  0.0000000E+00; -4.7207479E-03;  1.0000000E+04;  0.0000000E+00;  9.9599004E+03;  1.6525166E-02;  0.0000000E+00;  2.5778601E-01;  1.6648303E+04;
  1.0415323E+00;  9.9999998E-03;  1.8040055E-01;2665;  4.4052392E-01;  0.0000000E+00;  5.4377593E-02;  1.0101705E+03;  4.0465465E-01;  8.3199297E+03;3;  8.2049149E+01;  0.0000000E+00; -8.2653122E+00;0;  3.0349120E-01;  1.0008979E+04;  0.0000000E+00; -4.0575925E-02;  1.0000000E+04;  0.0000000E+00;  9.9621289E+03;  7.7516854E-02;  0.0000000E+00;  2.2597435E-01;  1.5702574E+04;
  1.0415963E+00;  9.9999998E-03;  2.0043865E-01;2666;  4.5070279E-01;  0.0000000E+00;  6.0902078E-02;  1.0099441E+03;  4.0465412E-01;  8.1345483E+03;3;  8.2829758E+01;  0.0000000E+00; -8.4951963E+00;0;  3.5053366E-01;  1.0002426E+04;  0.0000000E+00; -1.1313207E-01;  1.0000000E+04;  0.0000000E+00;  9.9642139E+03;  1.6018325E-01;  0.0000000E+00;  1.9035040E-01;  1.4814792E+04;
  1.0416665E+00;  9.9999998E-03;  2.2047313E-01;2667;  4.6045128E-01;  0.0000000E+00;  6.5047085E-02;  1.0096017E+03;  4.0465397E-01;  7.8543770E+03;3;  8.5957420E+01;  0.0000000E+00; -8.4112024E+00;0;  4.3104511E-01;  9.9941592E+03;  0.0000000E+00; -1.4555651E-01;  1.0000000E+04;  0.0000000E+00;  9.9657305E+03;  2.6907849E-01;  0.0000000E+00;  1.6196661E-01;  1.4138665E+04;
  1.0417331E+00;  9.9999998E-03;  2.4049526E-01;2668;  4.6657082E-01;  0.0000000E+00;  6.4559706E-02;  1.0091548E+03;  4.0465391E-01;  7.4886987E+03;3;  9.3437363E+01;  0.0000000E+00; -7.5811229E+00;0;  5.4480249E-01;  9.9839727E+03;  0.0000000E+00; -6.7506745E-02;  1.0000000E+04;  0.0000000E+00;  9.9671143E+03;  4.0507752E-01;  0.0000000E+00;  1.3972495E-01;  1.3478534E+04;
  1.0417863E+00;  9.9999998E-03;  2.6050636E-01;2669;  4.6722364E-01;  0.0000000E+00;  6.2697083E-02;  1.0086981E+03;  4.0465370E-01;  7.1150513E+03;3;  1.0762075E+02;  0.0000000E+00; -5.7678189E+00;0;  6.8223751E-01;  9.9719121E+03;  0.0000000E+00;  2.8574739E-02;  1.0000000E+04;  0.0000000E+00;  9.9701641E+03;  5.6260872E-01;  0.0000000E+00;  1.1962880E-01;  1.2109705E+04;
  1.0418168E+00;  9.9999998E-03;  2.8052482E-01;2670;  4.5506543E-01;  0.0000000E+00;  6.0462564E-02;  1.0081785E+03;  4.0465370E-01;  6.6899531E+03;3;  1.2410495E+02;  0.0000000E+00; -1.6913904E+00;0;  8.1218958E-01;  9.9587217E+03;  0.0000000E+00; -7.3185749E-03;  1.0000000E+04;  0.0000000E+00;  9.9731123E+03;  7.1840614E-01;  0.0000000E+00;  9.3783431E-02;  1.0767659E+04;
  1.0417762E+00;  9.9999998E-03;  3.0054742E-01;2671;  4.2111355E-01;  0.0000000E+00;  6.5002687E-02;  1.0076864E+03;  4.0465412E-01;  6.2874688E+03;3;  1.3993431E+02;  0.0000000E+00;  3.9219546E+00;0;  9.9040526E-01;  9.9476875E+03;  0.0000000E+00; -3.2114446E-02;  1.0000000E+04;  0.0000000E+00;  9.9743789E+03;  8.2051182E-01;  0.0000000E+00;  1.6989343E-01;  1.0038631E+04;
  1.0614530E+00;  9.9999998E-03;  1.6033258E-01;2695;  4.2923918E-01;  0.0000000E+00;  4.6709698E-02;  1.0091014E+03;  4.0401924E-01;  7.4133193E+03;3;  8.3258240E+01;  0.0000000E+00; -5.8811712E+00;0;  1.6845426E-01;  1.0017786E+04;  0.0000000E+00; -2.2241790E-02;  1.0000000E+04;  0.0000000E+00;  9.9635479E+03; -7.5905465E-02;  0.0000000E+00;  2.4435972E-01;  1.4413467E+04;
  1.0615126E+00;  9.9999998E-03;  1.8036959E-01;2696;  4.3889791E-01;  0.0000000E+00;  5.3086367E-02;  1.0089700E+03;  4.0401894E-01;  7.3062080E+03;3;  8.3302452E+01;  0.0000000E+00; -6.2449045E+00;0;  1.8990815E-01;  1.0013352E+04;  0.0000000E+00; -1.2479196E-01;  1.0000000E+04;  0.0000000E+00;  9.9653838E+03; -2.5309322E-02;  0.0000000E+00;  2.1521747E-01;  1.3675492E+04;
  1.0615815E+00;  9.9999998E-03;  2.0040235E-01;2697;  4.4992977E-01;  0.0000000E+00;  5.8660068E-02;  1.0087802E+03;  4.0401864E-01;  7.1515059E+03;3;  8.4476822E+01;  0.0000000E+00; -6.2639971E+00;0;  2.2596742E-01;  1.0008118E+04;  0.0000000E+00; -3.0855125E-01;  1.0000000E+04;  0.0000000E+00;  9.9668740E+03;  4.1041985E-02;  0.0000000E+00;  1.8492544E-01;  1.3118113E+04;
  1.0616580E+00;  9.9999998E-03;  2.2043218E-01;2698;  4.6043000E-01;  0.0000000E+00;  6.2052064E-02;  1.0084961E+03;  4.0401819E-01;  6.9198975E+03;3;  8.8585449E+01;  0.0000000E+00; -5.7584229E+00;0;  2.9122627E-01;  1.0001634E+04;  0.0000000E+00; -4.4937068E-01;  1.0000000E+04;  0.0000000E+00;  9.9677686E+03;  1.2988421E-01;  0.0000000E+00;  1.6134207E-01;  1.2800371E+04;
  1.0617317E+00;  9.9999998E-03;  2.4045199E-01;2699;  4.6794692E-01;  0.0000000E+00;  6.1557882E-02;  1.0081216E+03;  4.0401787E-01;  6.6148032E+03;3;  9.8242264E+01;  0.0000000E+00; -4.7365823E+00;0;  3.8595867E-01;  9.9932861E+03;  0.0000000E+00; -4.3240738E-01;  1.0000000E+04;  0.0000000E+00;  9.9687314E+03;  2.4576281E-01;  0.0000000E+00;  1.4019586E-01;  1.2345473E+04;
  1.0618050E+00;  9.9999998E-03;  2.6046365E-01;2700;  4.7230580E-01;  0.0000000E+00;  6.0255256E-02;  1.0077095E+03;  4.0401748E-01;  6.2790405E+03;3;  1.1477958E+02;  0.0000000E+00; -2.6958392E+00;0;  5.0692868E-01;  9.9823076E+03;  0.0000000E+00; -3.9187846E-01;  1.0000000E+04;  0.0000000E+00;  9.9715859E+03;  3.8939112E-01;  0.0000000E+00;  1.1753758E-01;  1.1106614E+04;
  1.0618722E+00;  9.9999998E-03;  2.8048226E-01;2701;  4.7052243E-01;  0.0000000E+00;  5.8645815E-02;  1.0071656E+03;  4.0401730E-01;  5.8359185E+03;3;  1.3773463E+02;  0.0000000E+00;  1.3848314E-01;0;  6.3336527E-01;  9.9683213E+03;  0.0000000E+00; -4.1668171E-01;  1.0000000E+04;  0.0000000E+00;  9.9748613E+03;  5.4745358E-01;  0.0000000E+00;  8.5911721E-02;  9.7332871E+03;
  1.0619117E+00;  9.9999998E-03;  3.0050045E-01;2702;  4.5724058E-01;  0.0000000E+00;  6.0946297E-02;  1.0065604E+03;  4.0401730E-01;  5.3429453E+03;3;  1.6083772E+02;  0.0000000E+00;  5.9344554E+00;0;  7.9088145E-01;  9.9529141E+03;  0.0000000E+00;  4.9826247E-01;  1.0000000E+04;  0.0000000E+00;  9.9783555E+03;  6.7868352E-01;  0.0000000E+00;  1.1219795E-01;  8.2760811E+03;
  1.0814278E+00;  9.9999998E-03;  1.6030575E-01;2726;  4.2591664E-01;  0.0000000E+00;  4.5201536E-02;  1.0079877E+03;  4.0347371E-01;  6.4689463E+03;3;  8.4025391E+01;  0.0000000E+00; -4.7492924E+00;0;  9.3658283E-02;  1.0019245E+04;  0.0000000E+00; -7.8779995E-02;  1.0000000E+04;  0.0000000E+00;  9.9670088E+03; -1.3181056E-01;  0.0000000E+00;  2.2546884E-01;  1.2272068E+04;
  1.0814914E+00;  9.9999998E-03;  1.8033549E-01;2727;  4.3654647E-01;  0.0000000E+00;  5.0480630E-02;  1.0078729E+03;  4.0347320E-01;  6.3758413E+03;3;  8.4562408E+01;  0.0000000E+00; -4.6094966E+00;0;  1.0821658E-01;  1.0015689E+04;  0.0000000E+00; -3.0330727E-01;  1.0000000E+04;  0.0000000E+00;  9.9682998E+03; -9.2709139E-02;  0.0000000E+00;  2.0092572E-01;  1.1833115E+04;
  1.0815669E+00;  9.9999998E-03;  2.0036390E-01;2728;  4.4856092E-01;  0.0000000E+00;  5.4855831E-02;  1.0077287E+03;  4.0347302E-01;  6.2589653E+03;3;  8.6651833E+01;  0.0000000E+00; -4.2631969E+00;0;  1.3319705E-01;  1.0012056E+04;  0.0000000E+00; -6.5807569E-01;  1.0000000E+04;  0.0000000E+00;  9.9691016E+03; -4.4581067E-02;  0.0000000E+00;  1.7777812E-01;  1.1759942E+04;
  1.0816498E+00;  9.9999998E-03;  2.2039118E-01;2729;  4.5962465E-01;  0.0000000E+00;  5.7476234E-02;  1.0075138E+03;  4.0347233E-01;  6.0847373E+03;3;  9.2348801E+01;  0.0000000E+00; -3.6254065E+00;0;  1.8137187E-01;  1.0007626E+04;  0.0000000E+00; -9.6518081E-01;  1.0000000E+04;  0.0000000E+00;  9.9693076E+03;  2.1163214E-02;  0.0000000E+00;  1.6020866E-01;  1.2000311E+04;
  1.0817288E+00;  9.9999998E-03;  2.4040696E-01;2730;  4.6731514E-01;  0.0000000E+00;  5.6551047E-02;  1.0072435E+03;  4.0347201E-01;  5.8657354E+03;3;  1.0422134E+02;  0.0000000E+00; -2.1070297E+00;0;  2.4903293E-01;  1.0001403E+04;  0.0000000E+00; -1.0522834E+00;  1.0000000E+04;  0.0000000E+00;  9.9702002E+03;  1.1142105E-01;  0.0000000E+00;  1.3761188E-01;  1.1762093E+04;
  1.0818135E+00;  9.9999998E-03;  2.6041988E-01;2731;  4.7282186E-01;  0.0000000E+00;  5.5937465E-02;  1.0069009E+03;  4.0347144E-01;  5.5881382E+03;3;  1.2337672E+02;  0.0000000E+00;  1.2321699E-01;0;  3.4286374E-01;  9.9916748E+03;  0.0000000E+00; -1.0608623E+00;  1.0000000E+04;  0.0000000E+00;  9.9731748E+03;  2.3217005E-01;  0.0000000E+00;  1.1069369E-01;  1.0673739E+04;
  1.0819017E+00;  9.9999998E-03;  2.8044125E-01;2732;  4.7660047E-01;  0.0000000E+00;  5.6330450E-02;  1.0062984E+03;  4.0347129E-01;  5.1001162E+03;3;  1.5002469E+02;  0.0000000E+00;  3.0719423E+00;0;  4.7458649E-01;  9.9767109E+03;  0.0000000E+00; -8.0637044E-01;  1.0000000E+04;  0.0000000E+00;  9.9762500E+03;  3.8580811E-01;  0.0000000E+00;  8.8778377E-02;  9.0842207E+03;
  1.0819647E+00;  9.9999998E-03;  3.0045739E-01;2733;  4.7075701E-01;  0.0000000E+00;  5.7182129E-02;  1.0055905E+03;  4.0347126E-01;  4.5267354E+03;3;  1.7844208E+02;  0.0000000E+00;  7.5035605E+00;0;  6.0432559E-01;  9.9580400E+03;  0.0000000E+00;  1.7478933E+00;  1.0000000E+04;  0.0000000E+00;  9.9809717E+03;  5.2258390E-01;  0.0000000E+00;  8.1741713E-02;  9.7085996E+03;
  1.1014022E+00;  9.9999998E-03;  1.6027474E-01;2756;  4.2214274E-01;  0.0000000E+00;  4.2535417E-02;  1.0069985E+03;  4.0301600E-01;  5.6251602E+03;3;  8.4694260E+01;  0.0000000E+00; -3.5459931E+00;0;  3.9046913E-02;  1.0019247E+04;  0.0000000E+00; -2.2100475E-01;  1.0000000E+04;  0.0000000E+00;  9.9700566E+03; -1.6521606E-01;  0.0000000E+00;  2.0426297E-01;  1.0358306E+04;
  1.1014715E+00;  9.9999998E-03;  1.8029980E-01;2757;  4.3384969E-01;  0.0000000E+00;  4.6581496E-02;  1.0069095E+03;  4.0301543E-01;  5.5534185E+03;3;  8.6129219E+01;  0.0000000E+00; -3.2195954E+00;0;  4.7940806E-02;  1.0016827E+04;  0.0000000E+00; -6.2761730E-01;  1.0000000E+04;  0.0000000E+00;  9.9707295E+03; -1.3786723E-01;  0.0000000E+00;  1.8580803E-01;  1.0348698E+04;
  1.1015539E+00;  9.9999998E-03;  2.0032533E-01;2758;  4.4674110E-01;  0.0000000E+00;  5.0095271E-02;  1.0068171E+03;  4.0301511E-01;  5.4789673E+03;3;  8.9824730E+01;  0.0000000E+00; -2.4983058E+00;0;  6.3906431E-02;  1.0014879E+04;  0.0000000E+00; -1.1922268E+00;  1.0000000E+04;  0.0000000E+00;  9.9708701E+03; -1.0684383E-01;  0.0000000E+00;  1.7075026E-01;  1.0967604E+04;
  1.1016411E+00;  9.9999998E-03;  2.2034763E-01;2759;  4.5776257E-01;  0.0000000E+00;  5.1459327E-02;  1.0066841E+03;  4.0301472E-01;  5.3719360E+03;3;  9.7809998E+01;  0.0000000E+00; -1.5574336E+00;0;  9.4322458E-02;  1.0012392E+04;  0.0000000E+00; -1.6738755E+00;  1.0000000E+04;  0.0000000E+00;  9.9707637E+03; -6.2692493E-02;  0.0000000E+00;  1.5701495E-01;  1.1833748E+04;
  1.1017237E+00;  9.9999998E-03;  2.4036035E-01;2760;  4.6485656E-01;  0.0000000E+00;  5.0433498E-02;  1.0065317E+03;  4.0301418E-01;  5.2492114E+03;3;  1.1206203E+02;  0.0000000E+00;  1.5568961E-01;0;  1.3323076E-01;  1.0007977E+04;  0.0000000E+00; -1.8277682E+00;  1.0000000E+04;  0.0000000E+00;  9.9721758E+03;  2.3806859E-03;  0.0000000E+00;  1.3085008E-01;  1.1724166E+04;
  1.1018112E+00;  9.9999998E-03;  2.6037675E-01;2761;  4.7064376E-01;  0.0000000E+00;  5.1719408E-02;  1.0062509E+03;  4.0301362E-01;  5.0233091E+03;3;  1.3416879E+02;  0.0000000E+00;  2.8412807E+00;0;  2.1104045E-01;  9.9992344E+03;  0.0000000E+00; -1.7048877E+00;  1.0000000E+04;  0.0000000E+00;  9.9753789E+03;  9.9604726E-02;  0.0000000E+00;  1.1143573E-01;  1.0495254E+04;
  1.1019064E+00;  9.9999998E-03;  2.8040236E-01;2762;  4.7686058E-01;  0.0000000E+00;  5.3454138E-02;  1.0055659E+03;  4.0301368E-01;  4.4726631E+03;3;  1.6393738E+02;  0.0000000E+00;  6.0635772E+00;0;  3.4278089E-01;  9.9832451E+03;  0.0000000E+00; -6.3306254E-01;  1.0000000E+04;  0.0000000E+00;  9.9778223E+03;  2.4387972E-01;  0.0000000E+00;  9.8901182E-02;  7.6526025E+03;
  1.1213790E+00;  9.9999998E-03;  1.6024168E-01;2785;  4.1823295E-01;  0.0000000E+00;  3.8807373E-02;  1.0061451E+03;  4.0264079E-01;  4.8903623E+03;3;  8.5852715E+01;  0.0000000E+00; -2.2787616E+00;0; -2.1228939E-03;  1.0018463E+04;  0.0000000E+00; -5.2776694E-01;  1.0000000E+04;  0.0000000E+00;  9.9724971E+03; -1.8633939E-01;  0.0000000E+00;  1.8421650E-01;  8.8365625E+03;
  1.1214550E+00;  9.9999998E-03;  1.8026373E-01;2786;  4.3112022E-01;  0.0000000E+00;  4.1974597E-02;  1.0060940E+03;  4.0264031E-01;  4.8494551E+03;3;  8.8650902E+01;  0.0000000E+00; -1.6923640E+00;0;  2.3723692E-03;  1.0017338E+04;  0.0000000E+00; -1.1610498E+00;  1.0000000E+04;  0.0000000E+00;  9.9726328E+03; -1.6995783E-01;  0.0000000E+00;  1.7233020E-01;  9.4578955E+03;
  1.1215427E+00;  9.9999998E-03;  2.0028637E-01;2787;  4.4445401E-01;  0.0000000E+00;  4.4563979E-02;  1.0060564E+03;  4.0263987E-01;  4.8193335E+03;3;  9.4529472E+01;  0.0000000E+00; -7.7721792E-01;0;  1.1722624E-02;  1.0016861E+04;  0.0000000E+00; -1.9234821E+00;  1.0000000E+04;  0.0000000E+00;  9.9723984E+03; -1.5230694E-01;  0.0000000E+00;  1.6402957E-01;  1.0843279E+04;
  1.1216321E+00;  9.9999998E-03;  2.2030450E-01;2788;  4.5443749E-01;  0.0000000E+00;  4.4790268E-02;  1.0060045E+03;  4.0263939E-01;  4.7778262E+03;3;  1.0525484E+02;  0.0000000E+00;  3.3597475E-01;0;  2.4825700E-02;  1.0015716E+04;  0.0000000E+00; -2.4967334E+00;  1.0000000E+04;  0.0000000E+00;  9.9725449E+03; -1.2484866E-01;  0.0000000E+00;  1.4967436E-01;  1.2069924E+04;
  1.1217158E+00;  9.9999998E-03;  2.4031709E-01;2789;  4.6073902E-01;  0.0000000E+00;  4.4658076E-02;  1.0059425E+03;  4.0263909E-01;  4.7281821E+03;3;  1.2253724E+02;  0.0000000E+00;  2.3835831E+00;0;  4.3904461E-02;  1.0012164E+04;  0.0000000E+00; -2.5445182E+00;  1.0000000E+04;  0.0000000E+00;  9.9748916E+03; -7.8317776E-02;  0.0000000E+00;  1.2222224E-01;  1.1661026E+04;
  1.1218045E+00;  9.9999998E-03;  2.6034093E-01;2790;  4.6725905E-01;  0.0000000E+00;  4.7762595E-02;  1.0056172E+03;  4.0263873E-01;  4.4691104E+03;3;  1.4752304E+02;  0.0000000E+00;  5.4266601E+00;0;  1.2216243E-01;  1.0003234E+04;  0.0000000E+00; -1.9665744E+00;  1.0000000E+04;  0.0000000E+00;  9.9773828E+03;  5.9155799E-03;  0.0000000E+00;  1.1624685E-01;  9.6337344E+03;
  1.1218901E+00;  9.9999998E-03;  2.8036758E-01;2791;  4.7263455E-01;  0.0000000E+00;  5.0194178E-02;  1.0049240E+03;  4.0263861E-01;  3.9174885E+03;3;  1.7876804E+02;  0.0000000E+00;  8.7410126E+00;0;  2.3878974E-01;  9.9873271E+03;  0.0000000E+00;  6.0568267E-01;  1.0000000E+04;  0.0000000E+00;  9.9795449E+03;  1.3059354E-01;  0.0000000E+00;  1.0819621E-01;  6.3881655E+03;
  1.1413606E+00;  9.9999998E-03;  1.6020894E-01;2813;  4.1471970E-01;  0.0000000E+00;  3.4293495E-02;  1.0054394E+03;  4.0233967E-01;  4.2731255E+03;3;  8.7827248E+01;  0.0000000E+00; -1.0781661E+00;0; -3.4927636E-02;  1.0017561E+04;  0.0000000E+00; -1.0935134E+00;  1.0000000E+04;  0.0000000E+00;  9.9743145E+03; -2.0278521E-01;  0.0000000E+00;  1.6785757E-01;  7.9590254E+03;
  1.1414427E+00;  9.9999998E-03;  1.8022983E-01;2814;  4.2845687E-01;  0.0000000E+00;  3.7076227E-02;  1.0054326E+03;  4.0233955E-01;  4.2675308E+03;3;  9.2719543E+01;  0.0000000E+00; -2.1386874E-01;0; -3.2865450E-02;  1.0017646E+04;  0.0000000E+00; -1.9496216E+00;  1.0000000E+04;  0.0000000E+00;  9.9741191E+03; -1.9482285E-01;  0.0000000E+00;  1.6195740E-01;  9.3486104E+03;
  1.1415347E+00;  9.9999998E-03;  2.0025139E-01;2815;  4.4142678E-01;  0.0000000E+00;  3.8608398E-02;  1.0054350E+03;  4.0233901E-01;  4.2691147E+03;3;  1.0127612E+02;  0.0000000E+00;  5.9717447E-01;0; -2.8597489E-02;  1.0017999E+04;  0.0000000E+00; -2.8212559E+00;  1.0000000E+04;  0.0000000E+00;  9.9738496E+03; -1.8482421E-01;  0.0000000E+00;  1.5622672E-01;  1.1209888E+04;
  1.1416245E+00;  9.9999998E-03;  2.2026752E-01;2816;  4.4973513E-01;  0.0000000E+00;  3.8016945E-02;  1.0054313E+03;  4.0233859E-01;  4.2659307E+03;3;  1.1496514E+02;  0.0000000E+00;  1.7988551E+00;0; -3.1969115E-02;  1.0017066E+04;  0.0000000E+00; -3.2830749E+00;  1.0000000E+04;  0.0000000E+00;  9.9747314E+03; -1.6679959E-01;  0.0000000E+00;  1.3483047E-01;  1.2137355E+04;
  1.1417071E+00;  9.9999998E-03;  2.4028528E-01;2817;  4.5633525E-01;  0.0000000E+00;  4.0136024E-02;  1.0053514E+03;  4.0233815E-01;  4.2029424E+03;3;  1.3596198E+02;  0.0000000E+00;  4.4050236E+00;0; -6.8084970E-03;  1.0012903E+04;  0.0000000E+00; -2.8986518E+00;  1.0000000E+04;  0.0000000E+00;  9.9773281E+03; -1.2430411E-01;  0.0000000E+00;  1.1749561E-01;  1.0754755E+04;
  1.1417935E+00;  9.9999998E-03;  2.6031482E-01;2818;  4.6329385E-01;  0.0000000E+00;  4.4070031E-02;  1.0048850E+03;  4.0233818E-01;  3.8363413E+03;3;  1.6373238E+02;  0.0000000E+00;  7.5226812E+00;0;  8.2089752E-02;  1.0002508E+04;  0.0000000E+00; -1.2490381E+00;  1.0000000E+04;  0.0000000E+00;  9.9784600E+03; -3.9006766E-02;  0.0000000E+00;  1.2109652E-01;  6.9678105E+03;
  1.1613485E+00;  9.9999998E-03;  1.6017982E-01;2840;  4.1189703E-01;  0.0000000E+00;  2.9722380E-02;  1.0048934E+03;  4.0210375E-01;  3.7808083E+03;3;  9.1787651E+01;  0.0000000E+00;  1.1944456E-01;0; -6.2863573E-02;  1.0017102E+04;  0.0000000E+00; -1.9750395E+00;  1.0000000E+04;  0.0000000E+00;  9.9756484E+03; -2.1924628E-01;  0.0000000E+00;  1.5638271E-01;  7.9377773E+03;
  1.1614362E+00;  9.9999998E-03;  1.8020180E-01;2841;  4.2565829E-01;  0.0000000E+00;  3.1906735E-02;  1.0049128E+03;  4.0210336E-01;  3.7955093E+03;3;  9.9244942E+01;  0.0000000E+00;  8.9024502E-01;0; -6.0830891E-02;  1.0017828E+04;  0.0000000E+00; -2.9623926E+00;  1.0000000E+04;  0.0000000E+00;  9.9753359E+03; -2.1460177E-01;  0.0000000E+00;  1.5377088E-01;  9.8195781E+03;
  1.1615316E+00;  9.9999998E-03;  2.0022364E-01;2842;  4.3735451E-01;  0.0000000E+00;  3.2405667E-02;  1.0049048E+03;  4.0210304E-01;  3.7889998E+03;3;  1.1080721E+02;  0.0000000E+00;  1.5415410E+00;0; -6.0978919E-02;  1.0017718E+04;  0.0000000E+00; -3.7336254E+00;  1.0000000E+04;  0.0000000E+00;  9.9753203E+03; -2.0458987E-01;  0.0000000E+00;  1.4361095E-01;  1.1439234E+04;
  1.1616182E+00;  9.9999998E-03;  2.2024032E-01;2843;  4.4453335E-01;  0.0000000E+00;  3.2354675E-02;  1.0048801E+03;  4.0210268E-01;  3.7695383E+03;3;  1.2814880E+02;  0.0000000E+00;  3.1953239E+00;0; -7.0249729E-02;  1.0015563E+04;  0.0000000E+00; -3.6963258E+00;  1.0000000E+04;  0.0000000E+00;  9.9770020E+03; -1.8585816E-01;  0.0000000E+00;  1.1560843E-01;  1.1137978E+04;
  1.1617005E+00;  9.9999998E-03;  2.4026713E-01;2844;  4.5195758E-01;  0.0000000E+00;  3.6560684E-02;  1.0046077E+03;  4.0210259E-01;  3.5588567E+03;3;  1.5260493E+02;  0.0000000E+00;  6.1166835E+00;0; -1.4882982E-02;  1.0008965E+04;  0.0000000E+00; -2.3851235E+00;  1.0000000E+04;  0.0000000E+00;  9.9781865E+03; -1.2975860E-01;  0.0000000E+00;  1.1487561E-01;  8.1503745E+03;
  1.1617695E+00;  9.9999998E-03;  2.6029381E-01;2845;  4.5677805E-01;  0.0000000E+00;  4.0682886E-02;  1.0041526E+03;  4.0210262E-01;  3.2071089E+03;3;  1.8120808E+02;  0.0000000E+00;  9.4463720E+00;0;  6.7760184E-02;  9.9987344E+03;  0.0000000E+00;  1.1236404E+00;  1.0000000E+04;  0.0000000E+00;  9.9793574E+03; -5.5462915E-02;  0.0000000E+00;  1.2322310E-01;  5.6588145E+03;
  1.1813446E+00;  9.9999998E-03;  1.6015887E-01;2866;  4.0922233E-01;  0.0000000E+00;  2.5045572E-02;  1.0044866E+03;  4.0192202E-01;  3.3941648E+03;3;  9.8567184E+01;  0.0000000E+00;  9.3791884E-01;0; -8.6982474E-02;  1.0017047E+04;  0.0000000E+00; -3.1053503E+00;  1.0000000E+04;  0.0000000E+00;  9.9766338E+03; -2.3536070E-01;  0.0000000E+00;  1.4837822E-01;  8.4718564E+03;
  1.1814396E+00;  9.9999998E-03;  1.8018422E-01;2867;  4.2212012E-01;  0.0000000E+00;  2.6432628E-02;  1.0044526E+03;  4.0192211E-01;  3.3680859E+03;3;  1.0896358E+02;  0.0000000E+00;  1.4955221E+00;0; -8.1868380E-02;  1.0016849E+04;  0.0000000E+00; -4.0186081E+00;  1.0000000E+04;  0.0000000E+00;  9.9761855E+03; -2.2550766E-01;  0.0000000E+00;  1.4363928E-01;  1.0174313E+04;
  1.1815326E+00;  9.9999998E-03;  2.0020655E-01;2868;  4.3256482E-01;  0.0000000E+00;  2.6962895E-02;  1.0043541E+03;  4.0192184E-01;  3.2932415E+03;3;  1.2404939E+02;  0.0000000E+00;  2.2576318E+00;0; -7.9321459E-02;  1.0014594E+04;  0.0000000E+00; -4.2511835E+00;  1.0000000E+04;  0.0000000E+00;  9.9764932E+03; -2.0487395E-01;  0.0000000E+00;  1.2555249E-01;  1.0571146E+04;
  1.1816131E+00;  9.9999998E-03;  2.2022781E-01;2869;  4.3939602E-01;  0.0000000E+00;  2.9118843E-02;  1.0041881E+03;  4.0192169E-01;  3.1673418E+03;3;  1.4501921E+02;  0.0000000E+00;  4.5458794E+00;0; -6.5041542E-02;  1.0009941E+04;  0.0000000E+00; -3.1079376E+00;  1.0000000E+04;  0.0000000E+00;  9.9778438E+03; -1.7212509E-01;  0.0000000E+00;  1.0708354E-01;  8.2643105E+03;
  1.1816845E+00;  9.9999998E-03;  2.4025676E-01;2870;  4.4627440E-01;  0.0000000E+00;  3.4249861E-02;  1.0037792E+03;  4.0192166E-01;  2.8578679E+03;3;  1.7144278E+02;  0.0000000E+00;  7.8042507E+00;0;  1.9124635E-02;  1.0001785E+04;  0.0000000E+00; -2.2942325E-02;  1.0000000E+04;  0.0000000E+00;  9.9778545E+03; -1.0435715E-01;  0.0000000E+00;  1.2348178E-01;  4.5523633E+03;
  1.2013551E+00;  9.9999998E-03;  1.6015129E-01;2890;  4.0607885E-01;  0.0000000E+00;  2.0354230E-02;  1.0040890E+03;  4.0178567E-01;  3.0133501E+03;3;  1.0938206E+02;  0.0000000E+00;  1.1338164E+00;0; -1.0279797E-01;  1.0015553E+04;  0.0000000E+00; -4.2452030E+00;  1.0000000E+04;  0.0000000E+00;  9.9770137E+03; -2.4258053E-01;  0.0000000E+00;  1.3978256E-01;  8.7790439E+03;
  1.2014483E+00;  9.9999998E-03;  1.8017590E-01;2891;  4.1759768E-01;  0.0000000E+00;  2.1527555E-02;  1.0039207E+03;  4.0178561E-01;  2.8889153E+03;3;  1.2295401E+02;  0.0000000E+00;  1.7748239E+00;0; -8.7876230E-02;  1.0012625E+04;  0.0000000E+00; -4.5960150E+00;  1.0000000E+04;  0.0000000E+00;  9.9766025E+03; -2.1685097E-01;  0.0000000E+00;  1.2897474E-01;  9.3448955E+03;
  1.2015340E+00;  9.9999998E-03;  2.0020139E-01;2892;  4.2723975E-01;  0.0000000E+00;  2.4083313E-02;  1.0036306E+03;  4.0178561E-01;  2.6747844E+03;3;  1.4153941E+02;  0.0000000E+00;  3.4272747E+00;0; -5.4202430E-02;  1.0006922E+04;  0.0000000E+00; -3.5466452E+00;  1.0000000E+04;  0.0000000E+00;  9.9765244E+03; -1.7145762E-01;  0.0000000E+00;  1.1725519E-01;  7.6646001E+03;
  1.2015988E+00;  9.9999998E-03;  2.2022352E-01;2893;  4.3302613E-01;  0.0000000E+00;  2.7736953E-02;  1.0033914E+03;  4.0178573E-01;  2.4983682E+03;3;  1.6456961E+02;  0.0000000E+00;  6.0337477E+00;0; -1.4925063E-02;  1.0001313E+04;  0.0000000E+00; -4.5098159E-01;  1.0000000E+04;  0.0000000E+00;  9.9773652E+03; -1.3094713E-01;  0.0000000E+00;  1.1602207E-01;  4.0342253E+03;
  1.2213675E+00;  9.9999998E-03;  1.6014963E-01;2913;  4.0130135E-01;  0.0000000E+00;  1.6204374E-02;  1.0035682E+03;  4.0168527E-01;  2.5471814E+03;3;  1.2471888E+02;  0.0000000E+00;  1.2414167E+00;0; -9.9566221E-02;  1.0010129E+04;  0.0000000E+00; -4.6287575E+00;  1.0000000E+04;  0.0000000E+00;  9.9770723E+03; -2.2634864E-01;  0.0000000E+00;  1.2678242E-01;  7.6598213E+03;
  1.2214484E+00;  9.9999998E-03;  1.8017443E-01;2914;  4.1161335E-01;  0.0000000E+00;  1.9109473E-02;  1.0032668E+03;  4.0168527E-01;  2.3316458E+03;3;  1.4163565E+02;  0.0000000E+00;  2.6219277E+00;0; -5.7372242E-02;  1.0004662E+04;  0.0000000E+00; -3.5940306E+00;  1.0000000E+04;  0.0000000E+00;  9.9765264E+03; -1.7911778E-01;  0.0000000E+00;  1.2174554E-01;  6.3365127E+03;
  1.2215183E+00;  9.9999998E-03;  2.0020051E-01;2915;  4.1953069E-01;  0.0000000E+00;  2.3284679E-02;  1.0028967E+03;  4.0168551E-01;  2.0672085E+03;3;  1.6207475E+02;  0.0000000E+00;  4.8695393E+00;0;  3.5211593E-03;  9.9979229E+03;  0.0000000E+00; -4.8222420E-01;  1.0000000E+04;  0.0000000E+00;  9.9758857E+03; -1.2382765E-01;  0.0000000E+00;  1.2734881E-01;  3.5330459E+03;
  1.2215465E+00;  9.9999998E-03;  2.2020949E-01;2916;  4.1937456E-01;  0.0000000E+00;  2.6626311E-02;  1.0031508E+03;  4.0168521E-01;  2.2483901E+03;3;  1.8386403E+02;  0.0000000E+00;  8.4145145E+00;0; -2.7762100E-02;  9.9995986E+03;  0.0000000E+00;  3.9641936E+00;  1.0000000E+04;  0.0000000E+00;  9.9792676E+03; -1.5863782E-01;  0.0000000E+00;  1.3087572E-01;  6.5236563E+03;
  1.2413590E+00;  9.9999998E-03;  1.6014722E-01;2934;  3.9385787E-01;  0.0000000E+00;  1.4536673E-02;  1.0030576E+03;  4.0161279E-01;  2.1021260E+03;3;  1.4456320E+02;  0.0000000E+00;  2.2611296E+00;0; -6.9454484E-02;  1.0003068E+04;  0.0000000E+00; -2.8690314E+00;  1.0000000E+04;  0.0000000E+00;  9.9775498E+03; -1.8975154E-01;  0.0000000E+00;  1.2029705E-01;  4.3804058E+03;
  1.2414194E+00;  9.9999998E-03;  1.8016998E-01;2935;  4.0121803E-01;  0.0000000E+00;  1.8795330E-02;  1.0028495E+03;  4.0161294E-01;  1.9588711E+03;3;  1.6264079E+02;  0.0000000E+00;  4.4720721E+00;0; -2.6489630E-02;  9.9993926E+03;  0.0000000E+00; -2.5697777E-02;  1.0000000E+04;  0.0000000E+00;  9.9770801E+03; -1.5723543E-01;  0.0000000E+00;  1.3074580E-01;  2.7754116E+03;
  1.2613164E+00;  9.9999998E-03;  1.6013935E-01;2952;  3.8026041E-01;  0.0000000E+00;  1.3693433E-02;  1.0029823E+03;  4.0156150E-01;  1.9642743E+03;3;  1.6526974E+02;  0.0000000E+00;  3.8532317E+00;0; -8.9390472E-02;  1.0002656E+04;  0.0000000E+00;  1.0648943E+00;  1.0000000E+04;  0.0000000E+00;  9.9790166E+03; -2.1009561E-01;  0.0000000E+00;  1.2070514E-01;  2.4194739E+03;
