TimeStep;Np;Nbound;Nfixed;Nmoving;Nfloat;Nfluid
0.00805576;2975;1031;1031;0;0;1944

Pos.x;Pos.y;Pos.z;Idp;Vel.x;Vel.y;Vel.z;Rhop;Mass;Press;Type;Acec.x;Acec.y;Acec.z;CellOffSpring;GradVel;Qfxx;Qfxy;Qfxz;Qfyy;Qfyz;Qfzz;StrainDot.x;StrainDot.y;StrainDot.z;VonMises3D;
 -2.2000000E-01;  9.9999998E-03; -3.8000000E-01;0;  0.0000000E+00;  0.0000000E+00;  0.0000000E+00;  1.0000000E+03;  4.0000001E-01;  0.0000000E+00;0;  0.0000000E+00;  0.0000000E+00;  0.0000000E+00;0;  0.0000000E+00;  1.0000000E+04;  0.0000000E+00;  0.0000000E+00;  1.0000000E+04;  0.0000000E+00;  1.0000000E+04;  0.0000000E+00;  0.0000000E+00;  0.0000000E+00;  0.0000000E+00;
 -2.2000000E-01;  9.9999998E-03; -3.6000001E-01;1;  0.0000000E+00;  0.0000000E+00;  0.0000000E+00;  1.0000000E+03;  4.0000001E-01;  0.0000000E+00;0;  0.0000000E+00;  0.0000000E+00;  0.0000000E+00;0;  0.0000000E+00;  1.0000000E+04;  0.0000000E+00;  0.0000000E+00;  1.0000000E+04;  0.0000000E+00;  1.0000000E+04;  0.0000000E+00;  0.0000000E+00;  0.0000000E+00;  0.0000000E+00;
 -2.0000000E-01;  9.9999998E-03; -4.0000001E-01;39;  0.0000000E+00;  0.0000000E+00;  0.0000000E+00;  1.0000000E+03;  4.0000001E-01;  0.0000000E+00;0;  0.0000000E+00;  0.0000000E+00;  0.0000000E+00;0;  0.0000000E+00;  1.0000000E+04;  0.0000000E+00;  0.0000000E+00;  1.0000000E+04;  0.0000000E+00;  1.0000000E+04;  0.0000000E+00;  0.0000000E+00;  0.0000000E+00;  0.0000000E+00;
 -2.0000000E-01;  9.9999998E-03; -3.8000000E-01;40;  0.0000000E+00;  0.0000000E+00;  0.0000000E+00;  1.0000000E+03;  4.0000001E-01;  0.0000000E+00;0;  0.0000000E+00;  0.0000000E+00;  0.0000000E+00;0;  0.0000000E+00;  1.0000000E+04;  0.0000000E+00;  0.0000000E+00;  1.0000000E+04;  0.0000000E+00;  1.0000000E+04;  0.0000000E+00;  0.0000000E+00;  0.0000000E+00;  0.0000000E+00;
 -2.0000000E-01;  9.9999998E-03; -3.6000001E-01;41;  0.0000000E+00;  0.0000000E+00;  0.0000000E+00;  1.0000000E+03;  4.0000001E-01;  0.0000000E+00;0;  0.0000000E+00;  0.0000000E+00;  0.0000000E+00;0;  0.0000000E+00;  1.0000000E+04;  0.0000000E+00;  0.0000000E+00;  1.0000000E+04;  0.0000000E+00;  1.0000000E+04;  0.0000000E+00;  0.0000000E+00;  0.0000000E+00;  0.0000000E+00;
 -1.8000001E-01;  9.9999998E-03; -4.0000001E-01;80;  0.0000000E+00;  0.0000000E+00;  0.0000000E+00;  1.0000000E+03;  4.0000001E-01;  0.0000000E+00;0;  0.0000000E+00;  0.0000000E+00;  0.0000000E+00;0;  0.0000000E+00;  1.0000000E+04;  0.0000000E+00;  0.0000000E+00;  1.0000000E+04;  0.0000000E+00;  1.0000000E+04;  0.0000000E+00;  0.0000000E+00;  0.0000000E+00;  0.0000000E+00;
 -1.8000001E-01;  9.9999998E-03; -3.8000000E-01;81;  0.0000000E+00;  0.0000000E+00;  0.0000000E+00;  1.0000000E+03;  4.0000001E-01;  0.0000000E+00;0;  0.0000000E+00;  0.0000000E+00;  0.0000000E+00;0;  0.0000000E+00;  1.0000000E+04;  0.0000000E+00;  0.0000000E+00;  1.0000000E+04;  0.0000000E+00;  1.0000000E+04;  0.0000000E+00;  0.0000000E+00;  0.0000000E+00;  0.0000000E+00;
 -1.8000001E-01;  9.9999998E-03; -3.6000001E-01;82;  0.0000000E+00;  0.0000000E+00;  0.0000000E+00;  1.0000000E+03;  4.0000001E-01;  0.0000000E+00;0;  0.0000000E+00;  0.0000000E+00;  0.0000000E+00;0;  0.0000000E+00;  1.0000000E+04;  0.0000000E+00;  0.0000000E+00;  1.0000000E+04;  0.0000000E+00;  1.0000000E+04;  0.0000000E+00;  0.0000000E+00;  0.0000000E+00;  0.0000000E+00;
 -1.6000000E-01;  9.9999998E-03; -4.0000001E-01;121;  0.0000000E+00;  0.0000000E+00;  0.0000000E+00;  1.0000000E+03;  4.0000001E-01;  0.0000000E+00;0;  0.0000000E+00;  0.0000000E+00;  0.0000000E+00;0;  0.0000000E+00;  1.0000000E+04;  0.0000000E+00;  0.0000000E+00;  1.0000000E+04;  0.0000000E+00;  1.0000000E+04;  0.0000000E+00;  0.0000000E+00;  0.0000000E+00;  0.0000000E+00;
 -1.6000000E-01;  9.9999998E-03; -3.8000000E-01;122;  0.0000000E+00;  0.0000000E+00;  0.0000000E+00;  1.0000000E+03;  4.0000001E-01;  0.0000000E+00;0;  0.0000000E+00;  0.0000000E+00;  0.0000000E+00;0;  0.0000000E+00;  1.0000000E+04;  0.0000000E+00;  0.0000000E+00;  1.0000000E+04;  0.0000000E+00;  1.0000000E+04;  0.0000000E+00;  0.0000000E+00;  0.0000000E+00;  0.0000000E+00;
 -1.6000000E-01;  9.9999998E-03; -3.6000001E-01;123;  0.0000000E+00;  0.0000000E+00;  0.0000000E+00;  1.0000000E+03;  4.0000001E-01;  0.0000000E+00;0;  0.0000000E+00;  0.0000000E+00;  0.0000000E+00;0;  0.0000000E+00;  1.0000000E+04;  0.0000000E+00;  0.0000000E+00;  1.0000000E+04;  0.0000000E+00;  1.0000000E+04;  0.0000000E+00;  0.0000000E+00;  0.0000000E+00;  0.0000000E+00;
 -1.4000000E-01;  9.9999998E-03; -4.0000001E-01;162;  0.0000000E+00;  0.0000000E+00;  0.0000000E+00;  1.0000000E+03;  4.0000001E-01;  0.0000000E+00;0;  0.0000000E+00;  0.0000000E+00;  0.0000000E+00;0;  0.0000000E+00;  1.0000000E+04;  0.0000000E+00;  0.0000000E+00;  1.0000000E+04;  0.0000000E+00;  1.0000000E+04;  0.0000000E+00;  0.0000000E+00;  0.0000000E+00;  0.0000000E+00;
 -1.4000000E-01;  9.9999998E-03; -3.8000000E-01;163;  0.0000000E+00;  0.0000000E+00;  0.0000000E+00;  1.0000000E+03;  4.0000001E-01;  0.0000000E+00;0;  0.0000000E+00;  0.0000000E+00;  0.0000000E+00;0;  0.0000000E+00;  1.0000000E+04;  0.0000000E+00;  0.0000000E+00;  1.0000000E+04;  0.0000000E+00;  1.0000000E+04;  0.0000000E+00;  0.0000000E+00;  0.0000000E+00;  0.0000000E+00;
 -1.4000000E-01;  9.9999998E-03; -3.6000001E-01;164;  0.0000000E+00;  0.0000000E+00;  0.0000000E+00;  1.0000000E+03;  4.0000001E-01;  0.0000000E+00;0;  0.0000000E+00;  0.0000000E+00;  0.0000000E+00;0; -1.3300646E-06;  1.0000000E+04;  0.0000000E+00;  0.0000000E+00;  1.0000000E+04;  0.0000000E+00;  1.0000000E+04; -1.0455643E-06;  0.0000000E+00; -2.8450023E-07;  4.1717300E-03;
 -1.2000000E-01;  9.9999998E-03; -4.0000001E-01;203;  0.0000000E+00;  0.0000000E+00;  0.0000000E+00;  1.0000000E+03;  4.0000001E-01;  0.0000000E+00;0;  0.0000000E+00;  0.0000000E+00;  0.0000000E+00;0; -7.4052544E-17;  1.0000000E+04;  0.0000000E+00;  0.0000000E+00;  1.0000000E+04;  0.0000000E+00;  1.0000000E+04; -5.1875371E-17;  0.0000000E+00; -2.2177169E-17;  7.9495296E-14;
 -1.2000000E-01;  9.9999998E-03; -3.8000000E-01;204;  0.0000000E+00;  0.0000000E+00;  0.0000000E+00;  1.0000000E+03;  4.0000001E-01;  0.0000000E+00;0;  0.0000000E+00;  0.0000000E+00;  0.0000000E+00;0; -6.9801126E-06;  1.0000000E+04;  0.0000000E+00;  0.0000000E+00;  1.0000000E+04;  0.0000000E+00;  1.0000000E+04; -4.9093710E-06;  0.0000000E+00; -2.0707414E-06;  3.0701423E-02;
 -1.2000000E-01;  9.9999998E-03; -3.6000001E-01;205;  0.0000000E+00;  0.0000000E+00;  0.0000000E+00;  1.0000000E+03;  4.0000001E-01;  0.0000000E+00;0;  0.0000000E+00;  0.0000000E+00;  0.0000000E+00;0; -4.7039244E-05;  1.0000000E+04;  0.0000000E+00;  0.0000000E+00;  1.0000000E+04;  0.0000000E+00;  1.0000000E+04; -3.5360670E-05;  0.0000000E+00; -1.1678573E-05;  1.7217290E-01;
 -1.0000000E-01;  9.9999998E-03; -4.0000001E-01;244;  0.0000000E+00;  0.0000000E+00;  0.0000000E+00;  1.0000000E+03;  4.0000001E-01;  0.0000000E+00;0;  0.0000000E+00;  0.0000000E+00;  0.0000000E+00;0; -1.2718640E-05;  1.0000000E+04;  0.0000000E+00;  0.0000000E+00;  1.0000000E+04;  0.0000000E+00;  1.0000000E+04; -8.3644645E-06;  0.0000000E+00; -4.3541759E-06;  6.4991154E-02;
 -1.0000000E-01;  9.9999998E-03; -3.8000000E-01;245;  0.0000000E+00;  0.0000000E+00;  0.0000000E+00;  1.0000000E+03;  4.0000001E-01;  0.0000000E+00;0;  0.0000000E+00;  0.0000000E+00;  0.0000000E+00;0; -9.2574497E-05;  1.0000000E+04;  0.0000000E+00;  0.0000000E+00;  1.0000000E+04;  0.0000000E+00;  1.0000000E+04; -6.1693085E-05;  0.0000000E+00; -3.0881412E-05;  4.6045610E-01;
 -1.0000000E-01;  9.9999998E-03; -3.6000001E-01;246;  0.0000000E+00;  0.0000000E+00;  0.0000000E+00;  1.0000004E+03;  4.0000001E-01;  3.9505050E-01;0;  0.0000000E+00;  0.0000000E+00;  0.0000000E+00;0; -2.9134861E-04;  1.0000000E+04;  0.0000000E+00;  0.0000000E+00;  1.0000000E+04;  0.0000000E+00;  1.0000000E+04; -2.1067372E-04;  0.0000000E+00; -8.0674894E-05;  1.1975291E+00;
 -7.9999998E-02;  9.9999998E-03; -4.0000001E-01;285;  0.0000000E+00;  0.0000000E+00;  0.0000000E+00;  1.0000000E+03;  4.0000001E-01;  0.0000000E+00;0;  0.0000000E+00;  0.0000000E+00;  0.0000000E+00;0; -1.0668341E-04;  1.0000000E+04;  0.0000000E+00;  0.0000000E+00;  1.0000000E+04;  0.0000000E+00;  1.0000000E+04; -6.6291563E-05;  0.0000000E+00; -4.0391842E-05;  6.0621995E-01;
 -7.9999998E-02;  9.9999998E-03; -3.8000000E-01;286;  0.0000000E+00;  0.0000000E+00;  0.0000000E+00;  1.0000007E+03;  4.0000001E-01;  5.9257573E-01;0;  0.0000000E+00;  0.0000000E+00;  0.0000000E+00;0; -4.0490343E-04;  1.0000000E+04;  0.0000000E+00;  0.0000000E+00;  1.0000000E+04;  0.0000000E+00;  1.0000000E+04; -2.5802615E-04;  0.0000000E+00; -1.4687730E-04;  2.2041390E+00;
 -7.9999998E-02;  9.9999998E-03; -3.6000001E-01;287;  0.0000000E+00;  0.0000000E+00;  0.0000000E+00;  1.0000015E+03;  4.0000001E-01;  1.2839141E+00;0;  0.0000000E+00;  0.0000000E+00;  0.0000000E+00;0; -9.7235298E-04;  1.0000000E+04;  0.0000000E+00;  0.0000000E+00;  1.0000000E+04;  0.0000000E+00;  1.0000000E+04; -6.7965215E-04;  0.0000000E+00; -2.9270083E-04;  4.3725605E+00;
 -5.9999999E-02;  9.9999998E-03; -4.0000001E-01;326;  0.0000000E+00;  0.0000000E+00;  0.0000000E+00;  1.0000005E+03;  4.0000001E-01;  4.9381313E-01;0;  0.0000000E+00;  0.0000000E+00;  0.0000000E+00;0; -3.7817273E-04;  1.0000000E+04;  0.0000000E+00;  0.0000000E+00;  1.0000000E+04;  0.0000000E+00;  1.0000000E+04; -2.2321820E-04;  0.0000000E+00; -1.5495454E-04;  2.3415296E+00;
 -5.9999999E-02;  9.9999998E-03; -3.8000000E-01;327;  0.0000000E+00;  0.0000000E+00;  0.0000000E+00;  1.0000018E+03;  4.0000001E-01;  1.4814394E+00;0;  0.0000000E+00;  0.0000000E+00;  0.0000000E+00;0; -1.1037886E-03;  1.0000000E+04;  0.0000000E+00;  0.0000000E+00;  1.0000000E+04;  0.0000000E+00;  1.0000000E+04; -6.7346235E-04;  0.0000000E+00; -4.3032624E-04;  6.5054617E+00;
 -5.9999999E-02;  9.9999998E-03; -3.6000001E-01;328;  0.0000000E+00;  0.0000000E+00;  0.0000000E+00;  1.0000040E+03;  4.0000001E-01;  3.2591665E+00;0;  0.0000000E+00;  0.0000000E+00;  0.0000000E+00;0; -2.3178363E-03;  1.0000000E+04;  0.0000000E+00;  0.0000000E+00;  1.0000000E+04;  0.0000000E+00;  1.0000000E+04; -1.5662989E-03;  0.0000000E+00; -7.5153733E-04;  1.1316801E+01;
 -3.9999999E-02;  9.9999998E-03; -4.0000001E-01;367;  0.0000000E+00;  0.0000000E+00;  0.0000000E+00;  1.0000015E+03;  4.0000001E-01;  1.1851515E+00;0;  0.0000000E+00;  0.0000000E+00;  0.0000000E+00;0; -8.8786078E-04;  1.0000000E+04;  0.0000000E+00;  0.0000000E+00;  1.0000000E+04;  0.0000000E+00;  1.0000000E+04; -4.9624447E-04;  0.0000000E+00; -3.9161631E-04;  5.9674711E+00;
 -3.9999999E-02;  9.9999998E-03; -3.8000000E-01;368;  0.0000000E+00;  0.0000000E+00;  0.0000000E+00;  1.0000038E+03;  4.0000001E-01;  3.1604040E+00;0;  0.0000000E+00;  0.0000000E+00;  0.0000000E+00;0; -2.2676969E-03;  1.0000000E+04;  0.0000000E+00;  0.0000000E+00;  1.0000000E+04;  0.0000000E+00;  1.0000000E+04; -1.3203463E-03;  0.0000000E+00; -9.4735052E-04;  1.4449554E+01;
 -3.9999999E-02;  9.9999998E-03; -3.6000001E-01;369;  0.0000000E+00;  0.0000000E+00;  0.0000000E+00;  1.0000076E+03;  4.0000001E-01;  6.2220454E+00;0;  0.0000000E+00;  0.0000000E+00;  0.0000000E+00;0; -4.4127484E-03;  1.0000000E+04;  0.0000000E+00;  0.0000000E+00;  1.0000000E+04;  0.0000000E+00;  1.0000000E+04; -2.8735492E-03;  0.0000000E+00; -1.5391991E-03;  2.3398256E+01;
 -2.0000000E-02;  9.9999998E-03; -4.0000001E-01;408;  0.0000000E+00;  0.0000000E+00;  0.0000000E+00;  1.0000026E+03;  4.0000001E-01;  2.1727777E+00;0;  0.0000000E+00;  0.0000000E+00;  0.0000000E+00;0; -1.6152970E-03;  1.0000000E+04;  0.0000000E+00;  0.0000000E+00;  1.0000000E+04;  0.0000000E+00;  1.0000000E+04; -8.5070677E-04;  0.0000000E+00; -7.6459034E-04;  1.1773270E+01;
 -2.0000000E-02;  9.9999998E-03; -3.8000000E-01;409;  0.0000000E+00;  0.0000000E+00;  0.0000000E+00;  1.0000067E+03;  4.0000001E-01;  5.5307069E+00;0;  0.0000000E+00;  0.0000000E+00;  0.0000000E+00;0; -3.8326145E-03;  1.0000000E+04;  0.0000000E+00;  0.0000000E+00;  1.0000000E+04;  0.0000000E+00;  1.0000000E+04; -2.1215798E-03;  0.0000000E+00; -1.7110347E-03;  2.6384937E+01;
 -2.0000000E-02;  9.9999998E-03; -3.6000001E-01;410;  0.0000000E+00;  0.0000000E+00;  0.0000000E+00;  1.0000122E+03;  4.0000001E-01;  1.0073788E+01;0;  0.0000000E+00;  0.0000000E+00;  0.0000000E+00;0; -7.1239220E-03;  1.0000000E+04;  0.0000000E+00;  0.0000000E+00;  1.0000000E+04;  0.0000000E+00;  1.0000000E+04; -4.4564735E-03;  0.0000000E+00; -2.6674485E-03;  4.1016052E+01;
  0.0000000E+00;  9.9999998E-03; -4.0000001E-01;449;  0.0000000E+00;  0.0000000E+00;  0.0000000E+00;  1.0000042E+03;  4.0000001E-01;  3.4566917E+00;0;  0.0000000E+00;  0.0000000E+00;  0.0000000E+00;0; -2.4600425E-03;  1.0000000E+04;  0.0000000E+00;  0.0000000E+00;  1.0000000E+04;  0.0000000E+00;  1.0000000E+04; -1.2177166E-03;  0.0000000E+00; -1.2423259E-03;  1.9384329E+01;
  0.0000000E+00;  9.9999998E-03; -3.8000000E-01;450;  0.0000000E+00;  0.0000000E+00;  0.0000000E+00;  1.0000096E+03;  4.0000001E-01;  7.9010100E+00;0;  0.0000000E+00;  0.0000000E+00;  0.0000000E+00;0; -5.6018066E-03;  1.0000000E+04;  0.0000000E+00;  0.0000000E+00;  1.0000000E+04;  0.0000000E+00;  1.0000000E+04; -2.9457009E-03;  0.0000000E+00; -2.6561057E-03;  4.1522984E+01;
  0.0000000E+00;  9.9999998E-03; -3.6000001E-01;451;  0.0000000E+00;  0.0000000E+00;  0.0000000E+00;  1.0000176E+03;  4.0000001E-01;  1.4616868E+01;0;  0.0000000E+00;  0.0000000E+00;  0.0000000E+00;0; -1.0120122E-02;  1.0000000E+04;  0.0000000E+00;  0.0000000E+00;  1.0000000E+04;  0.0000000E+00;  1.0000000E+04; -6.0789799E-03;  0.0000000E+00; -4.0411414E-03;  6.3020802E+01;
  2.0000000E-02;  9.9999998E-03; -4.0000001E-01;461;  0.0000000E+00;  0.0000000E+00;  0.0000000E+00;  1.0000057E+03;  4.0000001E-01;  4.7406058E+00;0;  0.0000000E+00;  0.0000000E+00;  0.0000000E+00;0; -3.2914686E-03;  1.0000000E+04;  0.0000000E+00;  0.0000000E+00;  1.0000000E+04;  0.0000000E+00;  1.0000000E+04; -1.5372693E-03;  0.0000000E+00; -1.7541993E-03;  2.7838287E+01;
  2.0000000E-02;  9.9999998E-03; -3.8000000E-01;462;  0.0000000E+00;  0.0000000E+00;  0.0000000E+00;  1.0000129E+03;  4.0000001E-01;  1.0765126E+01;0;  0.0000000E+00;  0.0000000E+00;  0.0000000E+00;0; -7.3337713E-03;  1.0000000E+04;  0.0000000E+00;  0.0000000E+00;  1.0000000E+04;  0.0000000E+00;  1.0000000E+04; -3.6834730E-03;  0.0000000E+00; -3.6502986E-03;  5.8063728E+01;
  2.0000000E-02;  9.9999998E-03; -3.6000001E-01;463;  0.0000000E+00;  0.0000000E+00;  0.0000000E+00;  1.0000229E+03;  4.0000001E-01;  1.9061186E+01;0;  0.0000000E+00;  0.0000000E+00;  0.0000000E+00;0; -1.3014617E-02;  1.0000000E+04;  0.0000000E+00;  0.0000000E+00;  1.0000000E+04;  0.0000000E+00;  1.0000000E+04; -7.5473189E-03;  0.0000000E+00; -5.4672984E-03;  8.6784348E+01;
  3.9999999E-02;  9.9999998E-03; -4.0000001E-01;471;  0.0000000E+00;  0.0000000E+00;  0.0000000E+00;  1.0000071E+03;  4.0000001E-01;  5.9257574E+00;0;  0.0000000E+00;  0.0000000E+00;  0.0000000E+00;0; -4.0186830E-03;  1.0000000E+04;  0.0000000E+00;  0.0000000E+00;  1.0000000E+04;  0.0000000E+00;  1.0000000E+04; -1.7968691E-03;  0.0000000E+00; -2.2218141E-03;  3.6028385E+01;
  3.9999999E-02;  9.9999998E-03; -3.8000000E-01;472;  0.0000000E+00;  0.0000000E+00;  0.0000000E+00;  1.0000159E+03;  4.0000001E-01;  1.3135429E+01;0;  0.0000000E+00;  0.0000000E+00;  0.0000000E+00;0; -8.8670105E-03;  1.0000000E+04;  0.0000000E+00;  0.0000000E+00;  1.0000000E+04;  0.0000000E+00;  1.0000000E+04; -4.3174257E-03;  0.0000000E+00; -4.5495844E-03;  7.3978729E+01;
  3.9999999E-02;  9.9999998E-03; -3.6000001E-01;473;  0.0000000E+00;  0.0000000E+00;  0.0000000E+00;  1.0000281E+03;  4.0000001E-01;  2.3307980E+01;0;  0.0000000E+00;  0.0000000E+00;  0.0000000E+00;0; -1.5573338E-02;  1.0000000E+04;  0.0000000E+00;  0.0000000E+00;  1.0000000E+04;  0.0000000E+00;  1.0000000E+04; -8.8390084E-03;  0.0000000E+00; -6.7343288E-03;  1.0931994E+02;
  5.9999999E-02;  9.9999998E-03; -4.0000001E-01;481;  0.0000000E+00;  0.0000000E+00;  0.0000000E+00;  1.0000085E+03;  4.0000001E-01;  7.1109090E+00;0;  0.0000000E+00;  0.0000000E+00;  0.0000000E+00;0; -4.6398435E-03;  1.0000000E+04;  0.0000000E+00;  0.0000000E+00;  1.0000000E+04;  0.0000000E+00;  1.0000000E+04; -2.0434044E-03;  0.0000000E+00; -2.5964393E-03;  4.3254032E+01;
  5.9999999E-02;  9.9999998E-03; -3.8000000E-01;482;  0.0000000E+00;  0.0000000E+00;  0.0000000E+00;  1.0000187E+03;  4.0000001E-01;  1.5505732E+01;0;  0.0000000E+00;  0.0000000E+00;  0.0000000E+00;0; -1.0206927E-02;  1.0000000E+04;  0.0000000E+00;  0.0000000E+00;  1.0000000E+04;  0.0000000E+00;  1.0000000E+04; -4.9419967E-03;  0.0000000E+00; -5.2649300E-03;  8.8002411E+01;
  5.9999999E-02;  9.9999998E-03; -3.6000001E-01;483;  0.0000000E+00;  0.0000000E+00;  0.0000000E+00;  1.0000328E+03;  4.0000001E-01;  2.7159721E+01;0;  0.0000000E+00;  0.0000000E+00;  0.0000000E+00;0; -1.7844044E-02;  1.0000000E+04;  0.0000000E+00;  0.0000000E+00;  1.0000000E+04;  0.0000000E+00;  1.0000000E+04; -1.0126997E-02;  0.0000000E+00; -7.7170469E-03;  1.2884892E+02;
  7.9999998E-02;  9.9999998E-03; -4.0000001E-01;491;  0.0000000E+00;  0.0000000E+00;  0.0000000E+00;  1.0000098E+03;  4.0000001E-01;  8.0985355E+00;0;  0.0000000E+00;  0.0000000E+00;  0.0000000E+00;0; -5.2509541E-03;  1.0000000E+04;  0.0000000E+00;  0.0000000E+00;  1.0000000E+04;  0.0000000E+00;  1.0000000E+04; -2.3742623E-03;  0.0000000E+00; -2.8766918E-03;  4.9547802E+01;
  7.9999998E-02;  9.9999998E-03; -3.8000000E-01;492;  0.0000000E+00;  0.0000000E+00;  0.0000000E+00;  1.0000218E+03;  4.0000001E-01;  1.8073561E+01;0;  0.0000000E+00;  0.0000000E+00;  0.0000000E+00;0; -1.1555178E-02;  1.0000000E+04;  0.0000000E+00;  0.0000000E+00;  1.0000000E+04;  0.0000000E+00;  1.0000000E+04; -5.7616970E-03;  0.0000000E+00; -5.7934816E-03;  1.0014760E+02;
  7.9999998E-02;  9.9999998E-03; -3.6000001E-01;493;  0.0000000E+00;  0.0000000E+00;  0.0000000E+00;  1.0000383E+03;  4.0000001E-01;  3.1801565E+01;0;  0.0000000E+00;  0.0000000E+00;  0.0000000E+00;0; -2.0206282E-02;  1.0000000E+04;  0.0000000E+00;  0.0000000E+00;  1.0000000E+04;  0.0000000E+00;  1.0000000E+04; -1.1783474E-02;  0.0000000E+00; -8.4228078E-03;  1.4584898E+02;
  1.0000000E-01;  9.9999998E-03; -4.0000001E-01;501;  0.0000000E+00;  0.0000000E+00;  0.0000000E+00;  1.0000119E+03;  4.0000001E-01;  9.8762627E+00;0;  0.0000000E+00;  0.0000000E+00;  0.0000000E+00;0; -6.0352432E-03;  1.0000000E+04;  0.0000000E+00;  0.0000000E+00;  1.0000000E+04;  0.0000000E+00;  1.0000000E+04; -2.9314107E-03;  0.0000000E+00; -3.1038322E-03;  5.8617184E+01;
  1.0000000E-01;  9.9999998E-03; -3.8000000E-01;502;  0.0000000E+00;  0.0000000E+00;  0.0000000E+00;  1.0000259E+03;  4.0000001E-01;  2.1431490E+01;0;  0.0000000E+00;  0.0000000E+00;  0.0000000E+00;0; -1.3293453E-02;  1.0000000E+04;  0.0000000E+00;  0.0000000E+00;  1.0000000E+04;  0.0000000E+00;  1.0000000E+04; -7.0781223E-03;  0.0000000E+00; -6.2153297E-03;  1.1178472E+02;
  1.0000000E-01;  9.9999998E-03; -3.6000001E-01;503;  0.0000000E+00;  0.0000000E+00;  0.0000000E+00;  1.0000455E+03;  4.0000001E-01;  3.7628559E+01;0;  0.0000000E+00;  0.0000000E+00;  0.0000000E+00;0; -2.3331437E-02;  1.0000000E+04;  0.0000000E+00;  0.0000000E+00;  1.0000000E+04;  0.0000000E+00;  1.0000000E+04; -1.4348073E-02;  0.0000000E+00; -8.9833643E-03;  1.6480923E+02;
  1.2000000E-01;  9.9999998E-03; -4.0000001E-01;511;  0.0000000E+00;  0.0000000E+00;  0.0000000E+00;  1.0000146E+03;  4.0000001E-01;  1.2147802E+01;0;  0.0000000E+00;  0.0000000E+00;  0.0000000E+00;0; -7.2648455E-03;  1.0000000E+04;  0.0000000E+00;  0.0000000E+00;  1.0000000E+04;  0.0000000E+00;  1.0000000E+04; -3.9048239E-03;  0.0000000E+00; -3.3600216E-03;  1.0899885E+02;
  1.2000000E-01;  9.9999998E-03; -3.8000000E-01;512;  0.0000000E+00;  0.0000000E+00;  0.0000000E+00;  1.0000321E+03;  4.0000001E-01;  2.6567146E+01;0;  0.0000000E+00;  0.0000000E+00;  0.0000000E+00;0; -1.5979901E-02;  1.0000000E+04;  0.0000000E+00;  0.0000000E+00;  1.0000000E+04;  0.0000000E+00;  1.0000000E+04; -9.2765549E-03;  0.0000000E+00; -6.7033451E-03;  1.3813147E+02;
  1.2000000E-01;  9.9999998E-03; -3.6000001E-01;513;  0.0000000E+00;  0.0000000E+00;  0.0000000E+00;  1.0000564E+03;  4.0000001E-01;  4.6714722E+01;0;  0.0000000E+00;  0.0000000E+00;  0.0000000E+00;0; -2.8150203E-02;  1.0000000E+04;  0.0000000E+00;  0.0000000E+00;  1.0000000E+04;  0.0000000E+00;  1.0000000E+04; -1.8484093E-02;  0.0000000E+00; -9.6661095E-03;  1.9809317E+02;
  1.4000000E-01;  9.9999998E-03; -4.0000001E-01;521;  0.0000000E+00;  0.0000000E+00;  0.0000000E+00;  1.0000193E+03;  4.0000001E-01;  1.5999545E+01;0;  0.0000000E+00;  0.0000000E+00;  0.0000000E+00;0; -9.3827369E-03;  1.0000000E+04;  0.0000000E+00;  0.0000000E+00;  1.0000000E+04;  0.0000000E+00;  1.0000000E+04; -5.5593220E-03;  0.0000000E+00; -3.8234151E-03;  3.1666385E+02;
  1.4000000E-01;  9.9999998E-03; -3.8000000E-01;522;  0.0000000E+00;  0.0000000E+00;  0.0000000E+00;  1.0000423E+03;  4.0000001E-01;  3.5060730E+01;0;  0.0000000E+00;  0.0000000E+00;  0.0000000E+00;0; -2.0424850E-02;  1.0000000E+04;  0.0000000E+00;  0.0000000E+00;  1.0000000E+04;  0.0000000E+00;  1.0000000E+04; -1.2840077E-02;  0.0000000E+00; -7.5847730E-03;  2.7922934E+02;
  1.4000000E-01;  9.9999998E-03; -3.6000001E-01;523;  0.0000000E+00;  0.0000000E+00;  0.0000000E+00;  1.0000742E+03;  4.0000001E-01;  6.1529114E+01;0;  0.0000000E+00;  0.0000000E+00;  0.0000000E+00;0; -3.5879742E-02;  1.0000000E+04;  0.0000000E+00;  0.0000000E+00;  1.0000000E+04;  0.0000000E+00;  1.0000000E+04; -2.4956534E-02;  0.0000000E+00; -1.0923209E-02;  2.6461295E+02;
  1.6000000E-01;  9.9999998E-03; -4.0000001E-01;531;  0.0000000E+00;  0.0000000E+00;  0.0000000E+00;  1.0000277E+03;  4.0000001E-01;  2.2912930E+01;0;  0.0000000E+00;  0.0000000E+00;  0.0000000E+00;0; -1.3100090E-02;  1.0000000E+04;  0.0000000E+00;  0.0000000E+00;  1.0000000E+04;  0.0000000E+00;  1.0000000E+04; -8.2066599E-03;  0.0000000E+00; -4.8934305E-03;  8.8856628E+02;
  1.6000000E-01;  9.9999998E-03; -3.8000000E-01;532;  0.0000000E+00;  0.0000000E+00;  0.0000000E+00;  1.0000587E+03;  4.0000001E-01;  4.8591209E+01;0;  0.0000000E+00;  0.0000000E+00;  0.0000000E+00;0; -2.7601141E-02;  1.0000000E+04;  0.0000000E+00;  0.0000000E+00;  1.0000000E+04;  0.0000000E+00;  1.0000000E+04; -1.8152952E-02;  0.0000000E+00; -9.4481893E-03;  7.3902429E+02;
  1.6000000E-01;  9.9999998E-03; -3.6000001E-01;533;  0.0000000E+00;  0.0000000E+00;  0.0000000E+00;  1.0001012E+03;  4.0000001E-01;  8.3849464E+01;0;  0.0000000E+00;  0.0000000E+00;  0.0000000E+00;0; -4.7700621E-02;  1.0000000E+04;  0.0000000E+00;  0.0000000E+00;  1.0000000E+04;  0.0000000E+00;  1.0000000E+04; -3.4226805E-02;  0.0000000E+00; -1.3473814E-02;  3.6488055E+02;
  1.8000001E-01;  9.9999998E-03; -4.0000001E-01;541;  0.0000000E+00;  0.0000000E+00;  0.0000000E+00;  1.0000420E+03;  4.0000001E-01;  3.4764442E+01;0;  0.0000000E+00;  0.0000000E+00;  0.0000000E+00;0; -1.9363917E-02;  1.0000000E+04;  0.0000000E+00;  0.0000000E+00;  1.0000000E+04;  0.0000000E+00;  1.0000000E+04; -1.1940050E-02;  0.0000000E+00; -7.4238679E-03;  2.1523345E+03;
  1.8000001E-01;  9.9999998E-03; -3.8000000E-01;542;  0.0000000E+00;  0.0000000E+00;  0.0000000E+00;  1.0000831E+03;  4.0000001E-01;  6.8837547E+01;0;  0.0000000E+00;  0.0000000E+00;  0.0000000E+00;0; -3.8110167E-02;  1.0000000E+04;  0.0000000E+00;  0.0000000E+00;  1.0000000E+04;  0.0000000E+00;  1.0000000E+04; -2.4806852E-02;  0.0000000E+00; -1.3303317E-02;  1.7371246E+03;
  1.8000001E-01;  9.9999998E-03; -3.6000001E-01;543;  0.0000000E+00;  0.0000000E+00;  0.0000000E+00;  1.0001385E+03;  4.0000001E-01;  1.1476217E+02;0;  0.0000000E+00;  0.0000000E+00;  0.0000000E+00;0; -6.3737035E-02;  1.0000000E+04;  0.0000000E+00;  0.0000000E+00;  1.0000000E+04;  0.0000000E+00;  1.0000000E+04; -4.5321941E-02;  0.0000000E+00; -1.8415092E-02;  4.5226431E+02;
  2.0000000E-01;  9.9999998E-03; -3.8000000E-01;551;  0.0000000E+00;  0.0000000E+00;  0.0000000E+00;  1.0001166E+03;  4.0000001E-01;  9.6589844E+01;0;  0.0000000E+00;  0.0000000E+00;  0.0000000E+00;0; -5.2141041E-02;  1.0000000E+04;  0.0000000E+00;  0.0000000E+00;  1.0000000E+04;  0.0000000E+00;  1.0000000E+04; -3.1442158E-02;  0.0000000E+00; -2.0698885E-02;  3.3142285E+03;
  2.0000000E-01;  9.9999998E-03; -3.6000001E-01;552;  0.0000000E+00;  0.0000000E+00;  0.0000000E+00;  1.0001852E+03;  4.0000001E-01;  1.5337836E+02;0;  0.0000000E+00;  0.0000000E+00;  0.0000000E+00;0; -8.3109058E-02;  1.0000000E+04;  0.0000000E+00;  0.0000000E+00;  1.0000000E+04;  0.0000000E+00;  1.0000000E+04; -5.5848122E-02;  0.0000000E+00; -2.7260937E-02;  5.7612463E+02;
 -2.2000000E-01;  9.9999998E-03; -3.4000000E-01;2;  0.0000000E+00;  0.0000000E+00;  0.0000000E+00;  1.0000000E+03;  4.0000001E-01;  0.0000000E+00;0;  0.0000000E+00;  0.0000000E+00;  0.0000000E+00;0;  0.0000000E+00;  1.0000000E+04;  0.0000000E+00;  0.0000000E+00;  1.0000000E+04;  0.0000000E+00;  1.0000000E+04;  0.0000000E+00;  0.0000000E+00;  0.0000000E+00;  0.0000000E+00;
 -2.2000000E-01;  9.9999998E-03; -3.1999999E-01;3;  0.0000000E+00;  0.0000000E+00;  0.0000000E+00;  1.0000000E+03;  4.0000001E-01;  0.0000000E+00;0;  0.0000000E+00;  0.0000000E+00;  0.0000000E+00;0;  0.0000000E+00;  1.0000000E+04;  0.0000000E+00;  0.0000000E+00;  1.0000000E+04;  0.0000000E+00;  1.0000000E+04;  0.0000000E+00;  0.0000000E+00;  0.0000000E+00;  0.0000000E+00;
 -2.2000000E-01;  9.9999998E-03; -3.0000001E-01;4;  0.0000000E+00;  0.0000000E+00;  0.0000000E+00;  1.0000000E+03;  4.0000001E-01;  0.0000000E+00;0;  0.0000000E+00;  0.0000000E+00;  0.0000000E+00;0;  0.0000000E+00;  1.0000000E+04;  0.0000000E+00;  0.0000000E+00;  1.0000000E+04;  0.0000000E+00;  1.0000000E+04;  0.0000000E+00;  0.0000000E+00;  0.0000000E+00;  0.0000000E+00;
 -2.2000000E-01;  9.9999998E-03; -2.8000000E-01;5;  0.0000000E+00;  0.0000000E+00;  0.0000000E+00;  1.0000000E+03;  4.0000001E-01;  0.0000000E+00;0;  0.0000000E+00;  0.0000000E+00;  0.0000000E+00;0;  0.0000000E+00;  1.0000000E+04;  0.0000000E+00;  0.0000000E+00;  1.0000000E+04;  0.0000000E+00;  1.0000000E+04;  0.0000000E+00;  0.0000000E+00;  0.0000000E+00;  0.0000000E+00;
 -2.2000000E-01;  9.9999998E-03; -2.5999999E-01;6;  0.0000000E+00;  0.0000000E+00;  0.0000000E+00;  1.0000000E+03;  4.0000001E-01;  0.0000000E+00;0;  0.0000000E+00;  0.0000000E+00;  0.0000000E+00;0;  0.0000000E+00;  1.0000000E+04;  0.0000000E+00;  0.0000000E+00;  1.0000000E+04;  0.0000000E+00;  1.0000000E+04;  0.0000000E+00;  0.0000000E+00;  0.0000000E+00;  0.0000000E+00;
 -2.2000000E-01;  9.9999998E-03; -2.3999999E-01;7;  0.0000000E+00;  0.0000000E+00;  0.0000000E+00;  1.0000000E+03;  4.0000001E-01;  0.0000000E+00;0;  0.0000000E+00;  0.0000000E+00;  0.0000000E+00;0;  0.0000000E+00;  1.0000000E+04;  0.0000000E+00;  0.0000000E+00;  1.0000000E+04;  0.0000000E+00;  1.0000000E+04;  0.0000000E+00;  0.0000000E+00;  0.0000000E+00;  0.0000000E+00;
 -2.2000000E-01;  9.9999998E-03; -2.2000000E-01;8;  0.0000000E+00;  0.0000000E+00;  0.0000000E+00;  1.0000000E+03;  4.0000001E-01;  0.0000000E+00;0;  0.0000000E+00;  0.0000000E+00;  0.0000000E+00;0;  0.0000000E+00;  1.0000000E+04;  0.0000000E+00;  0.0000000E+00;  1.0000000E+04;  0.0000000E+00;  1.0000000E+04;  0.0000000E+00;  0.0000000E+00;  0.0000000E+00;  0.0000000E+00;
 -2.2000000E-01;  9.9999998E-03; -2.0000000E-01;9;  0.0000000E+00;  0.0000000E+00;  0.0000000E+00;  1.0000000E+03;  4.0000001E-01;  0.0000000E+00;0;  0.0000000E+00;  0.0000000E+00;  0.0000000E+00;0;  0.0000000E+00;  1.0000000E+04;  0.0000000E+00;  0.0000000E+00;  1.0000000E+04;  0.0000000E+00;  1.0000000E+04;  0.0000000E+00;  0.0000000E+00;  0.0000000E+00;  0.0000000E+00;
 -2.0000000E-01;  9.9999998E-03; -3.4000000E-01;42;  0.0000000E+00;  0.0000000E+00;  0.0000000E+00;  1.0000000E+03;  4.0000001E-01;  0.0000000E+00;0;  0.0000000E+00;  0.0000000E+00;  0.0000000E+00;0;  0.0000000E+00;  1.0000000E+04;  0.0000000E+00;  0.0000000E+00;  1.0000000E+04;  0.0000000E+00;  1.0000000E+04;  0.0000000E+00;  0.0000000E+00;  0.0000000E+00;  0.0000000E+00;
 -2.0000000E-01;  9.9999998E-03; -3.1999999E-01;43;  0.0000000E+00;  0.0000000E+00;  0.0000000E+00;  1.0000000E+03;  4.0000001E-01;  0.0000000E+00;0;  0.0000000E+00;  0.0000000E+00;  0.0000000E+00;0;  0.0000000E+00;  1.0000000E+04;  0.0000000E+00;  0.0000000E+00;  1.0000000E+04;  0.0000000E+00;  1.0000000E+04;  0.0000000E+00;  0.0000000E+00;  0.0000000E+00;  0.0000000E+00;
 -2.0000000E-01;  9.9999998E-03; -3.0000001E-01;44;  0.0000000E+00;  0.0000000E+00;  0.0000000E+00;  1.0000000E+03;  4.0000001E-01;  0.0000000E+00;0;  0.0000000E+00;  0.0000000E+00;  0.0000000E+00;0;  0.0000000E+00;  1.0000000E+04;  0.0000000E+00;  0.0000000E+00;  1.0000000E+04;  0.0000000E+00;  1.0000000E+04;  0.0000000E+00;  0.0000000E+00;  0.0000000E+00;  0.0000000E+00;
 -2.0000000E-01;  9.9999998E-03; -2.8000000E-01;45;  0.0000000E+00;  0.0000000E+00;  0.0000000E+00;  1.0000000E+03;  4.0000001E-01;  0.0000000E+00;0;  0.0000000E+00;  0.0000000E+00;  0.0000000E+00;0;  0.0000000E+00;  1.0000000E+04;  0.0000000E+00;  0.0000000E+00;  1.0000000E+04;  0.0000000E+00;  1.0000000E+04;  0.0000000E+00;  0.0000000E+00;  0.0000000E+00;  0.0000000E+00;
 -2.0000000E-01;  9.9999998E-03; -2.5999999E-01;46;  0.0000000E+00;  0.0000000E+00;  0.0000000E+00;  1.0000000E+03;  4.0000001E-01;  0.0000000E+00;0;  0.0000000E+00;  0.0000000E+00;  0.0000000E+00;0;  0.0000000E+00;  1.0000000E+04;  0.0000000E+00;  0.0000000E+00;  1.0000000E+04;  0.0000000E+00;  1.0000000E+04;  0.0000000E+00;  0.0000000E+00;  0.0000000E+00;  0.0000000E+00;
 -2.0000000E-01;  9.9999998E-03; -2.3999999E-01;47;  0.0000000E+00;  0.0000000E+00;  0.0000000E+00;  1.0000000E+03;  4.0000001E-01;  0.0000000E+00;0;  0.0000000E+00;  0.0000000E+00;  0.0000000E+00;0;  0.0000000E+00;  1.0000000E+04;  0.0000000E+00;  0.0000000E+00;  1.0000000E+04;  0.0000000E+00;  1.0000000E+04;  0.0000000E+00;  0.0000000E+00;  0.0000000E+00;  0.0000000E+00;
 -2.0000000E-01;  9.9999998E-03; -2.2000000E-01;48;  0.0000000E+00;  0.0000000E+00;  0.0000000E+00;  1.0000000E+03;  4.0000001E-01;  0.0000000E+00;0;  0.0000000E+00;  0.0000000E+00;  0.0000000E+00;0;  0.0000000E+00;  1.0000000E+04;  0.0000000E+00;  0.0000000E+00;  1.0000000E+04;  0.0000000E+00;  1.0000000E+04;  0.0000000E+00;  0.0000000E+00;  0.0000000E+00;  0.0000000E+00;
 -2.0000000E-01;  9.9999998E-03; -2.0000000E-01;49;  0.0000000E+00;  0.0000000E+00;  0.0000000E+00;  1.0000000E+03;  4.0000001E-01;  0.0000000E+00;0;  0.0000000E+00;  0.0000000E+00;  0.0000000E+00;0;  0.0000000E+00;  1.0000000E+04;  0.0000000E+00;  0.0000000E+00;  1.0000000E+04;  0.0000000E+00;  1.0000000E+04;  0.0000000E+00;  0.0000000E+00;  0.0000000E+00;  0.0000000E+00;
 -1.8000001E-01;  9.9999998E-03; -3.4000000E-01;83;  0.0000000E+00;  0.0000000E+00;  0.0000000E+00;  1.0000000E+03;  4.0000001E-01;  0.0000000E+00;0;  0.0000000E+00;  0.0000000E+00;  0.0000000E+00;0;  0.0000000E+00;  1.0000000E+04;  0.0000000E+00;  0.0000000E+00;  1.0000000E+04;  0.0000000E+00;  1.0000000E+04;  0.0000000E+00;  0.0000000E+00;  0.0000000E+00;  0.0000000E+00;
 -1.8000001E-01;  9.9999998E-03; -3.1999999E-01;84;  0.0000000E+00;  0.0000000E+00;  0.0000000E+00;  1.0000000E+03;  4.0000001E-01;  0.0000000E+00;0;  0.0000000E+00;  0.0000000E+00;  0.0000000E+00;0;  0.0000000E+00;  1.0000000E+04;  0.0000000E+00;  0.0000000E+00;  1.0000000E+04;  0.0000000E+00;  1.0000000E+04;  0.0000000E+00;  0.0000000E+00;  0.0000000E+00;  0.0000000E+00;
 -1.8000001E-01;  9.9999998E-03; -3.0000001E-01;85;  0.0000000E+00;  0.0000000E+00;  0.0000000E+00;  1.0000000E+03;  4.0000001E-01;  0.0000000E+00;0;  0.0000000E+00;  0.0000000E+00;  0.0000000E+00;0;  0.0000000E+00;  1.0000000E+04;  0.0000000E+00;  0.0000000E+00;  1.0000000E+04;  0.0000000E+00;  1.0000000E+04;  0.0000000E+00;  0.0000000E+00;  0.0000000E+00;  0.0000000E+00;
 -1.8000001E-01;  9.9999998E-03; -2.8000000E-01;86;  0.0000000E+00;  0.0000000E+00;  0.0000000E+00;  1.0000000E+03;  4.0000001E-01;  0.0000000E+00;0;  0.0000000E+00;  0.0000000E+00;  0.0000000E+00;0;  0.0000000E+00;  1.0000000E+04;  0.0000000E+00;  0.0000000E+00;  1.0000000E+04;  0.0000000E+00;  1.0000000E+04;  0.0000000E+00;  0.0000000E+00;  0.0000000E+00;  0.0000000E+00;
 -1.8000001E-01;  9.9999998E-03; -2.5999999E-01;87;  0.0000000E+00;  0.0000000E+00;  0.0000000E+00;  1.0000000E+03;  4.0000001E-01;  0.0000000E+00;0;  0.0000000E+00;  0.0000000E+00;  0.0000000E+00;0;  0.0000000E+00;  1.0000000E+04;  0.0000000E+00;  0.0000000E+00;  1.0000000E+04;  0.0000000E+00;  1.0000000E+04;  0.0000000E+00;  0.0000000E+00;  0.0000000E+00;  0.0000000E+00;
 -1.8000001E-01;  9.9999998E-03; -2.3999999E-01;88;  0.0000000E+00;  0.0000000E+00;  0.0000000E+00;  1.0000000E+03;  4.0000001E-01;  0.0000000E+00;0;  0.0000000E+00;  0.0000000E+00;  0.0000000E+00;0;  0.0000000E+00;  1.0000000E+04;  0.0000000E+00;  0.0000000E+00;  1.0000000E+04;  0.0000000E+00;  1.0000000E+04;  0.0000000E+00;  0.0000000E+00;  0.0000000E+00;  0.0000000E+00;
 -1.8000001E-01;  9.9999998E-03; -2.2000000E-01;89;  0.0000000E+00;  0.0000000E+00;  0.0000000E+00;  1.0000000E+03;  4.0000001E-01;  0.0000000E+00;0;  0.0000000E+00;  0.0000000E+00;  0.0000000E+00;0;  0.0000000E+00;  1.0000000E+04;  0.0000000E+00;  0.0000000E+00;  1.0000000E+04;  0.0000000E+00;  1.0000000E+04;  0.0000000E+00;  0.0000000E+00;  0.0000000E+00;  0.0000000E+00;
 -1.8000001E-01;  9.9999998E-03; -2.0000000E-01;90;  0.0000000E+00;  0.0000000E+00;  0.0000000E+00;  1.0000000E+03;  4.0000001E-01;  0.0000000E+00;0;  0.0000000E+00;  0.0000000E+00;  0.0000000E+00;0;  0.0000000E+00;  1.0000000E+04;  0.0000000E+00;  0.0000000E+00;  1.0000000E+04;  0.0000000E+00;  1.0000000E+04;  0.0000000E+00;  0.0000000E+00;  0.0000000E+00;  0.0000000E+00;
 -1.6000000E-01;  9.9999998E-03; -3.4000000E-01;124;  0.0000000E+00;  0.0000000E+00;  0.0000000E+00;  1.0000000E+03;  4.0000001E-01;  0.0000000E+00;0;  0.0000000E+00;  0.0000000E+00;  0.0000000E+00;0;  0.0000000E+00;  1.0000000E+04;  0.0000000E+00;  0.0000000E+00;  1.0000000E+04;  0.0000000E+00;  1.0000000E+04;  0.0000000E+00;  0.0000000E+00;  0.0000000E+00;  0.0000000E+00;
 -1.6000000E-01;  9.9999998E-03; -3.1999999E-01;125;  0.0000000E+00;  0.0000000E+00;  0.0000000E+00;  1.0000000E+03;  4.0000001E-01;  0.0000000E+00;0;  0.0000000E+00;  0.0000000E+00;  0.0000000E+00;0; -2.3785526E-07;  1.0000000E+04;  0.0000000E+00;  0.0000000E+00;  1.0000000E+04;  0.0000000E+00;  1.0000000E+04; -2.1855448E-07;  0.0000000E+00; -1.9300792E-08;  2.6536523E-04;
 -1.6000000E-01;  9.9999998E-03; -3.0000001E-01;126;  0.0000000E+00;  0.0000000E+00;  0.0000000E+00;  1.0000000E+03;  4.0000001E-01;  0.0000000E+00;0;  0.0000000E+00;  0.0000000E+00;  0.0000000E+00;0; -1.5113152E-06;  1.0000000E+04;  0.0000000E+00;  0.0000000E+00;  1.0000000E+04;  0.0000000E+00;  1.0000000E+04; -1.4461308E-06;  0.0000000E+00; -6.5184381E-08;  8.2621607E-04;
 -1.6000000E-01;  9.9999998E-03; -2.8000000E-01;127;  0.0000000E+00;  0.0000000E+00;  0.0000000E+00;  1.0000000E+03;  4.0000001E-01;  0.0000000E+00;0;  0.0000000E+00;  0.0000000E+00;  0.0000000E+00;0; -3.5720193E-06;  1.0000000E+04;  0.0000000E+00;  0.0000000E+00;  1.0000000E+04;  0.0000000E+00;  1.0000000E+04; -3.5131291E-06;  0.0000000E+00; -5.8890183E-08;  4.6909862E-04;
 -1.6000000E-01;  9.9999998E-03; -2.5999999E-01;128;  0.0000000E+00;  0.0000000E+00;  0.0000000E+00;  1.0000000E+03;  4.0000001E-01;  0.0000000E+00;0;  0.0000000E+00;  0.0000000E+00;  0.0000000E+00;0; -5.3369881E-06;  1.0000000E+04;  0.0000000E+00;  0.0000000E+00;  1.0000000E+04;  0.0000000E+00;  1.0000000E+04; -5.3304648E-06;  0.0000000E+00; -6.5232362E-09;  5.9810840E-04;
 -1.6000000E-01;  9.9999998E-03; -2.3999999E-01;129;  0.0000000E+00;  0.0000000E+00;  0.0000000E+00;  1.0000000E+03;  4.0000001E-01;  0.0000000E+00;0;  0.0000000E+00;  0.0000000E+00;  0.0000000E+00;0; -6.3220341E-06;  1.0000000E+04;  0.0000000E+00;  0.0000000E+00;  1.0000000E+04;  0.0000000E+00;  1.0000000E+04; -6.3375146E-06;  0.0000000E+00;  1.5480653E-08;  1.0584603E-03;
 -1.6000000E-01;  9.9999998E-03; -2.2000000E-01;130;  0.0000000E+00;  0.0000000E+00;  0.0000000E+00;  1.0000000E+03;  4.0000001E-01;  0.0000000E+00;0;  0.0000000E+00;  0.0000000E+00;  0.0000000E+00;0; -7.0003025E-06;  1.0000000E+04;  0.0000000E+00;  0.0000000E+00;  1.0000000E+04;  0.0000000E+00;  1.0000000E+04; -7.0185947E-06;  0.0000000E+00;  1.8292162E-08;  1.1870513E-03;
 -1.6000000E-01;  9.9999998E-03; -2.0000000E-01;131;  0.0000000E+00;  0.0000000E+00;  0.0000000E+00;  1.0000000E+03;  4.0000001E-01;  0.0000000E+00;0;  0.0000000E+00;  0.0000000E+00;  0.0000000E+00;0; -7.5139055E-06;  1.0000000E+04;  0.0000000E+00;  0.0000000E+00;  1.0000000E+04;  0.0000000E+00;  1.0000000E+04; -7.5325806E-06;  0.0000000E+00;  1.8675065E-08;  1.2572724E-03;
 -1.4000000E-01;  9.9999998E-03; -3.4000000E-01;165;  0.0000000E+00;  0.0000000E+00;  0.0000000E+00;  1.0000000E+03;  4.0000001E-01;  0.0000000E+00;0;  0.0000000E+00;  0.0000000E+00;  0.0000000E+00;0; -1.1431498E-05;  1.0000000E+04;  0.0000000E+00;  0.0000000E+00;  1.0000000E+04;  0.0000000E+00;  1.0000000E+04; -9.6313806E-06;  0.0000000E+00; -1.8001177E-06;  2.6003093E-02;
 -1.4000000E-01;  9.9999998E-03; -3.1999999E-01;166;  0.0000000E+00;  0.0000000E+00;  0.0000000E+00;  1.0000000E+03;  4.0000001E-01;  0.0000000E+00;0;  0.0000000E+00;  0.0000000E+00;  0.0000000E+00;0; -3.7084006E-05;  1.0000000E+04;  0.0000000E+00;  0.0000000E+00;  1.0000000E+04;  0.0000000E+00;  1.0000000E+04; -3.3189914E-05;  0.0000000E+00; -3.8940921E-06;  5.5121146E-02;
 -1.4000000E-01;  9.9999998E-03; -3.0000001E-01;167;  0.0000000E+00;  0.0000000E+00;  0.0000000E+00;  1.0000000E+03;  4.0000001E-01;  0.0000000E+00;0;  0.0000000E+00;  0.0000000E+00;  0.0000000E+00;0; -7.8912868E-05;  1.0000000E+04;  0.0000000E+00;  0.0000000E+00;  1.0000000E+04;  0.0000000E+00;  1.0000000E+04; -7.3871808E-05;  0.0000000E+00; -5.0410581E-06;  6.6932343E-02;
 -1.4000000E-01;  9.9999998E-03; -2.8000000E-01;168;  0.0000000E+00;  0.0000000E+00;  0.0000000E+00;  1.0000001E+03;  4.0000001E-01;  9.8762624E-02;0;  0.0000000E+00;  0.0000000E+00;  0.0000000E+00;0; -1.3042586E-04;  1.0000000E+04;  0.0000000E+00;  0.0000000E+00;  1.0000000E+04;  0.0000000E+00;  1.0000000E+04; -1.2606879E-04;  0.0000000E+00; -4.3570699E-06;  4.9086306E-02;
 -1.4000000E-01;  9.9999998E-03; -2.5999999E-01;169;  0.0000000E+00;  0.0000000E+00;  0.0000000E+00;  1.0000002E+03;  4.0000001E-01;  1.9752525E-01;0;  0.0000000E+00;  0.0000000E+00;  0.0000000E+00;0; -1.8112255E-04;  1.0000000E+04;  0.0000000E+00;  0.0000000E+00;  1.0000000E+04;  0.0000000E+00;  1.0000000E+04; -1.7901197E-04;  0.0000000E+00; -2.1105770E-06;  7.9960497E-03;
 -1.4000000E-01;  9.9999998E-03; -2.3999999E-01;170;  0.0000000E+00;  0.0000000E+00;  0.0000000E+00;  1.0000003E+03;  4.0000001E-01;  2.9628786E-01;0;  0.0000000E+00;  0.0000000E+00;  0.0000000E+00;0; -2.2241588E-04;  1.0000000E+04;  0.0000000E+00;  0.0000000E+00;  1.0000000E+04;  0.0000000E+00;  1.0000000E+04; -2.2286134E-04;  0.0000000E+00;  4.4546692E-07;  3.6379181E-02;
 -1.4000000E-01;  9.9999998E-03; -2.2000000E-01;171;  0.0000000E+00;  0.0000000E+00;  0.0000000E+00;  1.0000004E+03;  4.0000001E-01;  2.9628786E-01;0;  0.0000000E+00;  0.0000000E+00;  0.0000000E+00;0; -2.5153172E-04;  1.0000000E+04;  0.0000000E+00;  0.0000000E+00;  1.0000000E+04;  0.0000000E+00;  1.0000000E+04; -2.5347326E-04;  0.0000000E+00;  1.9415354E-06;  6.2929086E-02;
 -1.4000000E-01;  9.9999998E-03; -2.0000000E-01;172;  0.0000000E+00;  0.0000000E+00;  0.0000000E+00;  1.0000004E+03;  4.0000001E-01;  2.9628786E-01;0;  0.0000000E+00;  0.0000000E+00;  0.0000000E+00;0; -2.7126761E-04;  1.0000000E+04;  0.0000000E+00;  0.0000000E+00;  1.0000000E+04;  0.0000000E+00;  1.0000000E+04; -2.7349786E-04;  0.0000000E+00;  2.2302536E-06;  6.9760732E-02;
 -1.2000000E-01;  9.9999998E-03; -3.4000000E-01;206;  0.0000000E+00;  0.0000000E+00;  0.0000000E+00;  1.0000001E+03;  4.0000001E-01;  9.8762624E-02;0;  0.0000000E+00;  0.0000000E+00;  0.0000000E+00;0; -1.4064077E-04;  1.0000000E+04;  0.0000000E+00;  0.0000000E+00;  1.0000000E+04;  0.0000000E+00;  1.0000000E+04; -1.1499188E-04;  0.0000000E+00; -2.5648887E-05;  3.7449640E-01;
 -1.2000000E-01;  9.9999998E-03; -3.1999999E-01;207;  0.0000000E+00;  0.0000000E+00;  0.0000000E+00;  1.0000004E+03;  4.0000001E-01;  3.9505050E-01;0;  0.0000000E+00;  0.0000000E+00;  0.0000000E+00;0; -2.9746362E-04;  1.0000000E+04;  0.0000000E+00;  0.0000000E+00;  1.0000000E+04;  0.0000000E+00;  1.0000000E+04; -2.6095269E-04;  0.0000000E+00; -3.6510941E-05;  5.1937151E-01;
 -1.2000000E-01;  9.9999998E-03; -3.0000001E-01;208;  0.0000000E+00;  0.0000000E+00;  0.0000000E+00;  1.0000008E+03;  4.0000001E-01;  6.9133836E-01;0;  0.0000000E+00;  0.0000000E+00;  0.0000000E+00;0; -5.1201001E-04;  1.0000000E+04;  0.0000000E+00;  0.0000000E+00;  1.0000000E+04;  0.0000000E+00;  1.0000000E+04; -4.7291597E-04;  0.0000000E+00; -3.9094040E-05;  5.2783149E-01;
 -1.2000000E-01;  9.9999998E-03; -2.8000000E-01;209;  0.0000000E+00;  0.0000000E+00;  0.0000000E+00;  1.0000012E+03;  4.0000001E-01;  9.8762625E-01;0;  0.0000000E+00;  0.0000000E+00;  0.0000000E+00;0; -7.5913983E-04;  1.0000000E+04;  0.0000000E+00;  0.0000000E+00;  1.0000000E+04;  0.0000000E+00;  1.0000000E+04; -7.2739326E-04;  0.0000000E+00; -3.1746560E-05;  3.8085753E-01;
 -1.2000000E-01;  9.9999998E-03; -2.5999999E-01;210;  0.0000000E+00;  0.0000000E+00;  0.0000000E+00;  1.0000015E+03;  4.0000001E-01;  1.2839141E+00;0;  0.0000000E+00;  0.0000000E+00;  0.0000000E+00;0; -1.0018001E-03;  1.0000000E+04;  0.0000000E+00;  0.0000000E+00;  1.0000000E+04;  0.0000000E+00;  1.0000000E+04; -9.8516955E-04;  0.0000000E+00; -1.6630476E-05;  1.1662836E-01;
 -1.2000000E-01;  9.9999998E-03; -2.3999999E-01;211;  0.0000000E+00;  0.0000000E+00;  0.0000000E+00;  1.0000020E+03;  4.0000001E-01;  1.5802020E+00;0;  0.0000000E+00;  0.0000000E+00;  0.0000000E+00;0; -1.2093685E-03;  1.0000000E+04;  0.0000000E+00;  0.0000000E+00;  1.0000000E+04;  0.0000000E+00;  1.0000000E+04; -1.2098900E-03;  0.0000000E+00;  5.2152262E-07;  1.7328131E-01;
 -1.2000000E-01;  9.9999998E-03; -2.2000000E-01;212;  0.0000000E+00;  0.0000000E+00;  0.0000000E+00;  1.0000022E+03;  4.0000001E-01;  1.7777272E+00;0;  0.0000000E+00;  0.0000000E+00;  0.0000000E+00;0; -1.3697017E-03;  1.0000000E+04;  0.0000000E+00;  0.0000000E+00;  1.0000000E+04;  0.0000000E+00;  1.0000000E+04; -1.3831524E-03;  0.0000000E+00;  1.3450780E-05;  3.9140591E-01;
 -1.2000000E-01;  9.9999998E-03; -2.0000000E-01;213;  0.0000000E+00;  0.0000000E+00;  0.0000000E+00;  1.0000024E+03;  4.0000001E-01;  1.9752525E+00;0;  0.0000000E+00;  0.0000000E+00;  0.0000000E+00;0; -1.4858722E-03;  1.0000000E+04;  0.0000000E+00;  0.0000000E+00;  1.0000000E+04;  0.0000000E+00;  1.0000000E+04; -1.5054169E-03;  0.0000000E+00;  1.9544785E-05;  4.9835247E-01;
 -1.0000000E-01;  9.9999998E-03; -3.4000000E-01;247;  0.0000000E+00;  0.0000000E+00;  0.0000000E+00;  1.0000010E+03;  4.0000001E-01;  8.8886362E-01;0;  0.0000000E+00;  0.0000000E+00;  0.0000000E+00;0; -6.3673162E-04;  1.0000000E+04;  0.0000000E+00;  0.0000000E+00;  1.0000000E+04;  0.0000000E+00;  1.0000000E+04; -5.0690526E-04;  0.0000000E+00; -1.2982634E-04;  1.9042674E+00;
 -1.0000000E-01;  9.9999998E-03; -3.1999999E-01;248;  0.0000000E+00;  0.0000000E+00;  0.0000000E+00;  1.0000018E+03;  4.0000001E-01;  1.4814394E+00;0;  0.0000000E+00;  0.0000000E+00;  0.0000000E+00;0; -1.1432878E-03;  1.0000000E+04;  0.0000000E+00;  0.0000000E+00;  1.0000000E+04;  0.0000000E+00;  1.0000000E+04; -9.8530261E-04;  0.0000000E+00; -1.5798512E-04;  2.2642930E+00;
 -1.0000000E-01;  9.9999998E-03; -3.0000001E-01;249;  0.0000000E+00;  0.0000000E+00;  0.0000000E+00;  1.0000029E+03;  4.0000001E-01;  2.4690657E+00;0;  0.0000000E+00;  0.0000000E+00;  0.0000000E+00;0; -1.7938400E-03;  1.0000000E+04;  0.0000000E+00;  0.0000000E+00;  1.0000000E+04;  0.0000000E+00;  1.0000000E+04; -1.6379656E-03;  0.0000000E+00; -1.5587444E-04;  2.1389701E+00;
 -1.0000000E-01;  9.9999998E-03; -2.8000000E-01;250;  0.0000000E+00;  0.0000000E+00;  0.0000000E+00;  1.0000042E+03;  4.0000001E-01;  3.4566917E+00;0;  0.0000000E+00;  0.0000000E+00;  0.0000000E+00;0; -2.5215654E-03;  1.0000000E+04;  0.0000000E+00;  0.0000000E+00;  1.0000000E+04;  0.0000000E+00;  1.0000000E+04; -2.3995857E-03;  0.0000000E+00; -1.2197984E-04;  1.5150046E+00;
 -1.0000000E-01;  9.9999998E-03; -2.5999999E-01;251;  0.0000000E+00;  0.0000000E+00;  0.0000000E+00;  1.0000054E+03;  4.0000001E-01;  4.5430808E+00;0;  0.0000000E+00;  0.0000000E+00;  0.0000000E+00;0; -3.2303196E-03;  1.0000000E+04;  0.0000000E+00;  0.0000000E+00;  1.0000000E+04;  0.0000000E+00;  1.0000000E+04; -3.1664774E-03;  0.0000000E+00; -6.3842141E-05;  5.2255851E-01;
 -1.0000000E-01;  9.9999998E-03; -2.3999999E-01;252;  0.0000000E+00;  0.0000000E+00;  0.0000000E+00;  1.0000065E+03;  4.0000001E-01;  5.4319444E+00;0;  0.0000000E+00;  0.0000000E+00;  0.0000000E+00;0; -3.8439562E-03;  1.0000000E+04;  0.0000000E+00;  0.0000000E+00;  1.0000000E+04;  0.0000000E+00;  1.0000000E+04; -3.8446290E-03;  0.0000000E+00;  6.7292609E-07;  5.5131346E-01;
 -1.0000000E-01;  9.9999998E-03; -2.2000000E-01;253;  0.0000000E+00;  0.0000000E+00;  0.0000000E+00;  1.0000072E+03;  4.0000001E-01;  5.9257574E+00;0;  0.0000000E+00;  0.0000000E+00;  0.0000000E+00;0; -4.3324283E-03;  1.0000000E+04;  0.0000000E+00;  0.0000000E+00;  1.0000000E+04;  0.0000000E+00;  1.0000000E+04; -4.3840795E-03;  0.0000000E+00;  5.1651339E-05;  1.3956490E+00;
 -1.0000000E-01;  9.9999998E-03; -2.0000000E-01;254;  0.0000000E+00;  0.0000000E+00;  0.0000000E+00;  1.0000079E+03;  4.0000001E-01;  6.6170959E+00;0;  0.0000000E+00;  0.0000000E+00;  0.0000000E+00;0; -4.7002193E-03;  1.0000000E+04;  0.0000000E+00;  0.0000000E+00;  1.0000000E+04;  0.0000000E+00;  1.0000000E+04; -4.7799810E-03;  0.0000000E+00;  7.9761514E-05;  1.8684170E+00;
 -7.9999998E-02;  9.9999998E-03; -3.4000000E-01;288;  0.0000000E+00;  0.0000000E+00;  0.0000000E+00;  1.0000031E+03;  4.0000001E-01;  2.5678282E+00;0;  0.0000000E+00;  0.0000000E+00;  0.0000000E+00;0; -1.8435961E-03;  1.0000000E+04;  0.0000000E+00;  0.0000000E+00;  1.0000000E+04;  0.0000000E+00;  1.0000000E+04; -1.4331747E-03;  0.0000000E+00; -4.1042143E-04;  6.0647011E+00;
 -7.9999998E-02;  9.9999998E-03; -3.1999999E-01;289;  0.0000000E+00;  0.0000000E+00;  0.0000000E+00;  1.0000051E+03;  4.0000001E-01;  4.2467928E+00;0;  0.0000000E+00;  0.0000000E+00;  0.0000000E+00;0; -3.0485697E-03;  1.0000000E+04;  0.0000000E+00;  0.0000000E+00;  1.0000000E+04;  0.0000000E+00;  1.0000000E+04; -2.5857342E-03;  0.0000000E+00; -4.6283533E-04;  6.6993618E+00;
 -7.9999998E-02;  9.9999998E-03; -3.0000001E-01;290;  0.0000000E+00;  0.0000000E+00;  0.0000000E+00;  1.0000077E+03;  4.0000001E-01;  6.4195704E+00;0;  0.0000000E+00;  0.0000000E+00;  0.0000000E+00;0; -4.5497920E-03;  1.0000000E+04;  0.0000000E+00;  0.0000000E+00;  1.0000000E+04;  0.0000000E+00;  1.0000000E+04; -4.1122464E-03;  0.0000000E+00; -4.3754553E-04;  6.0890174E+00;
 -7.9999998E-02;  9.9999998E-03; -2.8000000E-01;291;  0.0000000E+00;  0.0000000E+00;  0.0000000E+00;  1.0000104E+03;  4.0000001E-01;  8.6911106E+00;0;  0.0000000E+00;  0.0000000E+00;  0.0000000E+00;0; -6.1992039E-03;  1.0000000E+04;  0.0000000E+00;  0.0000000E+00;  1.0000000E+04;  0.0000000E+00;  1.0000000E+04; -5.8646989E-03;  0.0000000E+00; -3.3450514E-04;  4.2554512E+00;
 -7.9999998E-02;  9.9999998E-03; -2.5999999E-01;292;  0.0000000E+00;  0.0000000E+00;  0.0000000E+00;  1.0000132E+03;  4.0000001E-01;  1.0962651E+01;0;  0.0000000E+00;  0.0000000E+00;  0.0000000E+00;0; -7.7917064E-03;  1.0000000E+04;  0.0000000E+00;  0.0000000E+00;  1.0000000E+04;  0.0000000E+00;  1.0000000E+04; -7.6187914E-03;  0.0000000E+00; -1.7291489E-04;  1.5295072E+00;
 -7.9999998E-02;  9.9999998E-03; -2.3999999E-01;293;  0.0000000E+00;  0.0000000E+00;  0.0000000E+00;  1.0000154E+03;  4.0000001E-01;  1.2740378E+01;0;  0.0000000E+00;  0.0000000E+00;  0.0000000E+00;0; -9.1713844E-03;  1.0000000E+04;  0.0000000E+00;  0.0000000E+00;  1.0000000E+04;  0.0000000E+00;  1.0000000E+04; -9.1747995E-03;  0.0000000E+00;  3.4147779E-06;  1.3831178E+00;
 -7.9999998E-02;  9.9999998E-03; -2.2000000E-01;294;  0.0000000E+00;  0.0000000E+00;  0.0000000E+00;  1.0000172E+03;  4.0000001E-01;  1.4221818E+01;0;  0.0000000E+00;  0.0000000E+00;  0.0000000E+00;0; -1.0281556E-02;  1.0000000E+04;  0.0000000E+00;  0.0000000E+00;  1.0000000E+04;  0.0000000E+00;  1.0000000E+04; -1.0426716E-02;  0.0000000E+00;  1.4515949E-04;  3.7091699E+00;
 -7.9999998E-02;  9.9999998E-03; -2.0000000E-01;295;  0.0000000E+00;  0.0000000E+00;  0.0000000E+00;  1.0000186E+03;  4.0000001E-01;  1.5406969E+01;0;  0.0000000E+00;  0.0000000E+00;  0.0000000E+00;0; -1.1132888E-02;  1.0000000E+04;  0.0000000E+00;  0.0000000E+00;  1.0000000E+04;  0.0000000E+00;  1.0000000E+04; -1.1360619E-02;  0.0000000E+00;  2.2773114E-04;  5.0723124E+00;
 -5.9999999E-02;  9.9999998E-03; -3.4000000E-01;329;  0.0000000E+00;  0.0000000E+00;  0.0000000E+00;  1.0000070E+03;  4.0000001E-01;  5.7282324E+00;0;  0.0000000E+00;  0.0000000E+00;  0.0000000E+00;0; -4.0642554E-03;  1.0000000E+04;  0.0000000E+00;  0.0000000E+00;  1.0000000E+04;  0.0000000E+00;  1.0000000E+04; -3.0836631E-03;  0.0000000E+00; -9.8059257E-04;  1.4620016E+01;
 -5.9999999E-02;  9.9999998E-03; -3.1999999E-01;330;  0.0000000E+00;  0.0000000E+00;  0.0000000E+00;  1.0000109E+03;  4.0000001E-01;  8.9873991E+00;0;  0.0000000E+00;  0.0000000E+00;  0.0000000E+00;0; -6.4042164E-03;  1.0000000E+04;  0.0000000E+00;  0.0000000E+00;  1.0000000E+04;  0.0000000E+00;  1.0000000E+04; -5.3428742E-03;  0.0000000E+00; -1.0613423E-03;  1.5525203E+01;
 -5.9999999E-02;  9.9999998E-03; -3.0000001E-01;331;  0.0000000E+00;  0.0000000E+00;  0.0000000E+00;  1.0000158E+03;  4.0000001E-01;  1.3135429E+01;0;  0.0000000E+00;  0.0000000E+00;  0.0000000E+00;0; -9.2679309E-03;  1.0000000E+04;  0.0000000E+00;  0.0000000E+00;  1.0000000E+04;  0.0000000E+00;  1.0000000E+04; -8.2889609E-03;  0.0000000E+00; -9.7896974E-04;  1.3809732E+01;
 -5.9999999E-02;  9.9999998E-03; -2.8000000E-01;332;  0.0000000E+00;  0.0000000E+00;  0.0000000E+00;  1.0000210E+03;  4.0000001E-01;  1.7382221E+01;0;  0.0000000E+00;  0.0000000E+00;  0.0000000E+00;0; -1.2373360E-02;  1.0000000E+04;  0.0000000E+00;  0.0000000E+00;  1.0000000E+04;  0.0000000E+00;  1.0000000E+04; -1.1637603E-02;  0.0000000E+00; -7.3575741E-04;  9.5555124E+00;
 -5.9999999E-02;  9.9999998E-03; -2.5999999E-01;333;  0.0000000E+00;  0.0000000E+00;  0.0000000E+00;  1.0000260E+03;  4.0000001E-01;  2.1530252E+01;0;  0.0000000E+00;  0.0000000E+00;  0.0000000E+00;0; -1.5338814E-02;  1.0000000E+04;  0.0000000E+00;  0.0000000E+00;  1.0000000E+04;  0.0000000E+00;  1.0000000E+04; -1.4965424E-02;  0.0000000E+00; -3.7338972E-04;  3.4790108E+00;
 -5.9999999E-02;  9.9999998E-03; -2.3999999E-01;334;  0.0000000E+00;  0.0000000E+00;  0.0000000E+00;  1.0000303E+03;  4.0000001E-01;  2.5085707E+01;0;  0.0000000E+00;  0.0000000E+00;  0.0000000E+00;0; -1.7892489E-02;  1.0000000E+04;  0.0000000E+00;  0.0000000E+00;  1.0000000E+04;  0.0000000E+00;  1.0000000E+04; -1.7907858E-02;  0.0000000E+00;  1.5368114E-05;  2.9212894E+00;
 -5.9999999E-02;  9.9999998E-03; -2.2000000E-01;335;  0.0000000E+00;  0.0000000E+00;  0.0000000E+00;  1.0000339E+03;  4.0000001E-01;  2.8048586E+01;0;  0.0000000E+00;  0.0000000E+00;  0.0000000E+00;0; -1.9951172E-02;  1.0000000E+04;  0.0000000E+00;  0.0000000E+00;  1.0000000E+04;  0.0000000E+00;  1.0000000E+04; -2.0279977E-02;  0.0000000E+00;  3.2880480E-04;  8.0427418E+00;
 -5.9999999E-02;  9.9999998E-03; -2.0000000E-01;336;  0.0000000E+00;  0.0000000E+00;  0.0000000E+00;  1.0000363E+03;  4.0000001E-01;  3.0122601E+01;0;  0.0000000E+00;  0.0000000E+00;  0.0000000E+00;0; -2.1543477E-02;  1.0000000E+04;  0.0000000E+00;  0.0000000E+00;  1.0000000E+04;  0.0000000E+00;  1.0000000E+04; -2.2059556E-02;  0.0000000E+00;  5.1607919E-04;  1.1102736E+01;
 -3.9999999E-02;  9.9999998E-03; -3.4000000E-01;370;  0.0000000E+00;  0.0000000E+00;  0.0000000E+00;  1.0000126E+03;  4.0000001E-01;  1.0468838E+01;0;  0.0000000E+00;  0.0000000E+00;  0.0000000E+00;0; -7.3774923E-03;  1.0000000E+04;  0.0000000E+00;  0.0000000E+00;  1.0000000E+04;  0.0000000E+00;  1.0000000E+04; -5.4473327E-03;  0.0000000E+00; -1.9301595E-03;  2.9075605E+01;
 -3.9999999E-02;  9.9999998E-03; -3.1999999E-01;371;  0.0000000E+00;  0.0000000E+00;  0.0000000E+00;  1.0000192E+03;  4.0000001E-01;  1.5900783E+01;0;  0.0000000E+00;  0.0000000E+00;  0.0000000E+00;0; -1.1272058E-02;  1.0000000E+04;  0.0000000E+00;  0.0000000E+00;  1.0000000E+04;  0.0000000E+00;  1.0000000E+04; -9.2292586E-03;  0.0000000E+00; -2.0427990E-03;  3.0233646E+01;
 -3.9999999E-02;  9.9999998E-03; -3.0000001E-01;372;  0.0000000E+00;  0.0000000E+00;  0.0000000E+00;  1.0000272E+03;  4.0000001E-01;  2.2517878E+01;0;  0.0000000E+00;  0.0000000E+00;  0.0000000E+00;0; -1.5978467E-02;  1.0000000E+04;  0.0000000E+00;  0.0000000E+00;  1.0000000E+04;  0.0000000E+00;  1.0000000E+04; -1.4121832E-02;  0.0000000E+00; -1.8566346E-03;  2.6568165E+01;
 -3.9999999E-02;  9.9999998E-03; -2.8000000E-01;373;  0.0000000E+00;  0.0000000E+00;  0.0000000E+00;  1.0000357E+03;  4.0000001E-01;  2.9628788E+01;0;  0.0000000E+00;  0.0000000E+00;  0.0000000E+00;0; -2.1012899E-02;  1.0000000E+04;  0.0000000E+00;  0.0000000E+00;  1.0000000E+04;  0.0000000E+00;  1.0000000E+04; -1.9639101E-02;  0.0000000E+00; -1.3737979E-03;  1.8201042E+01;
 -3.9999999E-02;  9.9999998E-03; -2.5999999E-01;374;  0.0000000E+00;  0.0000000E+00;  0.0000000E+00;  1.0000438E+03;  4.0000001E-01;  3.6344646E+01;0;  0.0000000E+00;  0.0000000E+00;  0.0000000E+00;0; -2.5746362E-02;  1.0000000E+04;  0.0000000E+00;  0.0000000E+00;  1.0000000E+04;  0.0000000E+00;  1.0000000E+04; -2.5067829E-02;  0.0000000E+00; -6.7853439E-04;  6.5719790E+00;
 -3.9999999E-02;  9.9999998E-03; -2.3999999E-01;375;  0.0000000E+00;  0.0000000E+00;  0.0000000E+00;  1.0000505E+03;  4.0000001E-01;  4.1875351E+01;0;  0.0000000E+00;  0.0000000E+00;  0.0000000E+00;0; -2.9779492E-02;  1.0000000E+04;  0.0000000E+00;  0.0000000E+00;  1.0000000E+04;  0.0000000E+00;  1.0000000E+04; -2.9830238E-02;  0.0000000E+00;  5.0745766E-05;  5.4320536E+00;
 -3.9999999E-02;  9.9999998E-03; -2.2000000E-01;376;  0.0000000E+00;  0.0000000E+00;  0.0000000E+00;  1.0000560E+03;  4.0000001E-01;  4.6418434E+01;0;  0.0000000E+00;  0.0000000E+00;  0.0000000E+00;0; -3.3022705E-02;  1.0000000E+04;  0.0000000E+00;  0.0000000E+00;  1.0000000E+04;  0.0000000E+00;  1.0000000E+04; -3.3656605E-02;  0.0000000E+00;  6.3390011E-04;  1.4953476E+01;
 -3.9999999E-02;  9.9999998E-03; -2.0000000E-01;377;  0.0000000E+00;  0.0000000E+00;  0.0000000E+00;  1.0000603E+03;  4.0000001E-01;  4.9973888E+01;0;  0.0000000E+00;  0.0000000E+00;  0.0000000E+00;0; -3.5540033E-02;  1.0000000E+04;  0.0000000E+00;  0.0000000E+00;  1.0000000E+04;  0.0000000E+00;  1.0000000E+04; -3.6525559E-02;  0.0000000E+00;  9.8552497E-04;  2.0667538E+01;
 -2.0000000E-02;  9.9999998E-03; -3.4000000E-01;411;  0.0000000E+00;  0.0000000E+00;  0.0000000E+00;  1.0000199E+03;  4.0000001E-01;  1.6493359E+01;0;  0.0000000E+00;  0.0000000E+00;  0.0000000E+00;0; -1.1548986E-02;  1.0000000E+04;  0.0000000E+00;  0.0000000E+00;  1.0000000E+04;  0.0000000E+00;  1.0000000E+04; -8.2763005E-03;  0.0000000E+00; -3.2726855E-03;  4.9900616E+01;
 -2.0000000E-02;  9.9999998E-03; -3.1999999E-01;412;  0.0000000E+00;  0.0000000E+00;  0.0000000E+00;  1.0000298E+03;  4.0000001E-01;  2.4690657E+01;0;  0.0000000E+00;  0.0000000E+00;  0.0000000E+00;0; -1.7269099E-02;  1.0000000E+04;  0.0000000E+00;  0.0000000E+00;  1.0000000E+04;  0.0000000E+00;  1.0000000E+04; -1.3847264E-02;  0.0000000E+00; -3.4218351E-03;  5.1321262E+01;
 -2.0000000E-02;  9.9999998E-03; -3.0000001E-01;413;  0.0000000E+00;  0.0000000E+00;  0.0000000E+00;  1.0000415E+03;  4.0000001E-01;  3.4369392E+01;0;  0.0000000E+00;  0.0000000E+00;  0.0000000E+00;0; -2.4081446E-02;  1.0000000E+04;  0.0000000E+00;  0.0000000E+00;  1.0000000E+04;  0.0000000E+00;  1.0000000E+04; -2.1003319E-02;  0.0000000E+00; -3.0781266E-03;  4.4734196E+01;
 -2.0000000E-02;  9.9999998E-03; -2.8000000E-01;414;  0.0000000E+00;  0.0000000E+00;  0.0000000E+00;  1.0000536E+03;  4.0000001E-01;  4.4443180E+01;0;  0.0000000E+00;  0.0000000E+00;  0.0000000E+00;0; -3.1234186E-02;  1.0000000E+04;  0.0000000E+00;  0.0000000E+00;  1.0000000E+04;  0.0000000E+00;  1.0000000E+04; -2.8997473E-02;  0.0000000E+00; -2.2367132E-03;  3.0220932E+01;
 -2.0000000E-02;  9.9999998E-03; -2.5999999E-01;415;  0.0000000E+00;  0.0000000E+00;  0.0000000E+00;  1.0000649E+03;  4.0000001E-01;  5.3726868E+01;0;  0.0000000E+00;  0.0000000E+00;  0.0000000E+00;0; -3.7818398E-02;  1.0000000E+04;  0.0000000E+00;  0.0000000E+00;  1.0000000E+04;  0.0000000E+00;  1.0000000E+04; -3.6755838E-02;  0.0000000E+00; -1.0625622E-03;  1.0570810E+01;
 -2.0000000E-02;  9.9999998E-03; -2.3999999E-01;416;  0.0000000E+00;  0.0000000E+00;  0.0000000E+00;  1.0000742E+03;  4.0000001E-01;  6.1529114E+01;0;  0.0000000E+00;  0.0000000E+00;  0.0000000E+00;0; -4.3364413E-02;  1.0000000E+04;  0.0000000E+00;  0.0000000E+00;  1.0000000E+04;  0.0000000E+00;  1.0000000E+04; -4.3494768E-02;  0.0000000E+00;  1.3035571E-04;  9.1287308E+00;
 -2.0000000E-02;  9.9999998E-03; -2.2000000E-01;417;  0.0000000E+00;  0.0000000E+00;  0.0000000E+00;  1.0000818E+03;  4.0000001E-01;  6.7849922E+01;0;  0.0000000E+00;  0.0000000E+00;  0.0000000E+00;0; -4.7806848E-02;  1.0000000E+04;  0.0000000E+00;  0.0000000E+00;  1.0000000E+04;  0.0000000E+00;  1.0000000E+04; -4.8876461E-02;  0.0000000E+00;  1.0696144E-03;  2.4508532E+01;
 -2.0000000E-02;  9.9999998E-03; -2.0000000E-01;418;  0.0000000E+00;  0.0000000E+00;  0.0000000E+00;  1.0000876E+03;  4.0000001E-01;  7.2590530E+01;0;  0.0000000E+00;  0.0000000E+00;  0.0000000E+00;0; -5.1255260E-02;  1.0000000E+04;  0.0000000E+00;  0.0000000E+00;  1.0000000E+04;  0.0000000E+00;  1.0000000E+04; -5.2891150E-02;  0.0000000E+00;  1.6358903E-03;  3.3695469E+01;
  0.0000000E+00;  9.9999998E-03; -3.4000000E-01;452;  0.0000000E+00;  0.0000000E+00;  0.0000000E+00;  1.0000280E+03;  4.0000001E-01;  2.3209217E+01;0;  0.0000000E+00;  0.0000000E+00;  0.0000000E+00;0; -1.6061354E-02;  1.0000000E+04;  0.0000000E+00;  0.0000000E+00;  1.0000000E+04;  0.0000000E+00;  1.0000000E+04; -1.1164152E-02;  0.0000000E+00; -4.8972028E-03;  7.5770042E+01;
  0.0000000E+00;  9.9999998E-03; -3.1999999E-01;453;  0.0000000E+00;  0.0000000E+00;  0.0000000E+00;  1.0000411E+03;  4.0000001E-01;  3.4073105E+01;0;  0.0000000E+00;  0.0000000E+00;  0.0000000E+00;0; -2.3611549E-02;  1.0000000E+04;  0.0000000E+00;  0.0000000E+00;  1.0000000E+04;  0.0000000E+00;  1.0000000E+04; -1.8530535E-02;  0.0000000E+00; -5.0810156E-03;  7.7397377E+01;
  0.0000000E+00;  9.9999998E-03; -3.0000001E-01;454;  0.0000000E+00;  0.0000000E+00;  0.0000000E+00;  1.0000562E+03;  4.0000001E-01;  4.6615959E+01;0;  0.0000000E+00;  0.0000000E+00;  0.0000000E+00;0; -3.2378964E-02;  1.0000000E+04;  0.0000000E+00;  0.0000000E+00;  1.0000000E+04;  0.0000000E+00;  1.0000000E+04; -2.7871108E-02;  0.0000000E+00; -4.5078569E-03;  6.6639786E+01;
  2.0000000E-02;  9.9999998E-03; -3.4000000E-01;464;  0.0000000E+00;  0.0000000E+00;  0.0000000E+00;  1.0000358E+03;  4.0000001E-01;  2.9727551E+01;0;  0.0000000E+00;  0.0000000E+00;  0.0000000E+00;0; -2.0336116E-02;  1.0000000E+04;  0.0000000E+00;  0.0000000E+00;  1.0000000E+04;  0.0000000E+00;  1.0000000E+04; -1.3771831E-02;  0.0000000E+00; -6.5642847E-03;  1.0341821E+02;
  2.0000000E-02;  9.9999998E-03; -3.1999999E-01;465;  0.0000000E+00;  0.0000000E+00;  0.0000000E+00;  1.0000520E+03;  4.0000001E-01;  4.3060505E+01;0;  0.0000000E+00;  0.0000000E+00;  0.0000000E+00;0; -2.9461721E-02;  1.0000000E+04;  0.0000000E+00;  0.0000000E+00;  1.0000000E+04;  0.0000000E+00;  1.0000000E+04; -2.2704380E-02;  0.0000000E+00; -6.7573413E-03;  1.0487620E+02;
  3.9999999E-02;  9.9999998E-03; -3.4000000E-01;474;  0.0000000E+00;  0.0000000E+00;  0.0000000E+00;  1.0000434E+03;  4.0000001E-01;  3.5949596E+01;0;  0.0000000E+00;  0.0000000E+00;  0.0000000E+00;0; -2.4081293E-02;  1.0000000E+04;  0.0000000E+00;  0.0000000E+00;  1.0000000E+04;  0.0000000E+00;  1.0000000E+04; -1.6077327E-02;  0.0000000E+00; -8.0039669E-03;  1.2900946E+02;
  3.9999999E-02;  9.9999998E-03; -3.1999999E-01;475;  0.0000000E+00;  0.0000000E+00;  0.0000000E+00;  1.0000621E+03;  4.0000001E-01;  5.1455326E+01;0;  0.0000000E+00;  0.0000000E+00;  0.0000000E+00;0; -3.4515373E-02;  1.0000000E+04;  0.0000000E+00;  0.0000000E+00;  1.0000000E+04;  0.0000000E+00;  1.0000000E+04; -2.6373776E-02;  0.0000000E+00; -8.1415987E-03;  1.2932339E+02;
  5.9999999E-02;  9.9999998E-03; -3.4000000E-01;484;  0.0000000E+00;  0.0000000E+00;  0.0000000E+00;  1.0000505E+03;  4.0000001E-01;  4.1875351E+01;0;  0.0000000E+00;  0.0000000E+00;  0.0000000E+00;0; -2.7455550E-02;  1.0000000E+04;  0.0000000E+00;  0.0000000E+00;  1.0000000E+04;  0.0000000E+00;  1.0000000E+04; -1.8382968E-02;  0.0000000E+00; -9.0725813E-03;  1.5047427E+02;
  5.9999999E-02;  9.9999998E-03; -3.1999999E-01;485;  0.0000000E+00;  0.0000000E+00;  0.0000000E+00;  1.0000721E+03;  4.0000001E-01;  5.9751389E+01;0;  0.0000000E+00;  0.0000000E+00;  0.0000000E+00;0; -3.9161541E-02;  1.0000000E+04;  0.0000000E+00;  0.0000000E+00;  1.0000000E+04;  0.0000000E+00;  1.0000000E+04; -3.0055268E-02;  0.0000000E+00; -9.1062728E-03;  1.4886279E+02;
  7.9999998E-02;  9.9999998E-03; -3.4000000E-01;494;  0.0000000E+00;  0.0000000E+00;  0.0000000E+00;  1.0000588E+03;  4.0000001E-01;  4.8788734E+01;0;  0.0000000E+00;  0.0000000E+00;  0.0000000E+00;0; -3.1078296E-02;  1.0000000E+04;  0.0000000E+00;  0.0000000E+00;  1.0000000E+04;  0.0000000E+00;  1.0000000E+04; -2.1277633E-02;  0.0000000E+00; -9.8006632E-03;  1.6886389E+02;
  7.9999998E-02;  9.9999998E-03; -3.1999999E-01;495;  0.0000000E+00;  0.0000000E+00;  0.0000000E+00;  1.0000836E+03;  4.0000001E-01;  6.9232597E+01;0;  0.0000000E+00;  0.0000000E+00;  0.0000000E+00;0; -4.4252556E-02;  1.0000000E+04;  0.0000000E+00;  0.0000000E+00;  1.0000000E+04;  0.0000000E+00;  1.0000000E+04; -3.4546278E-02;  0.0000000E+00; -9.7062774E-03;  1.6473662E+02;
  1.0000000E-01;  9.9999998E-03; -3.4000000E-01;504;  0.0000000E+00;  0.0000000E+00;  0.0000000E+00;  1.0000701E+03;  4.0000001E-01;  5.8072422E+01;0;  0.0000000E+00;  0.0000000E+00;  0.0000000E+00;0; -3.5963222E-02;  1.0000000E+04;  0.0000000E+00;  0.0000000E+00;  1.0000000E+04;  0.0000000E+00;  1.0000000E+04; -2.5594577E-02;  0.0000000E+00; -1.0368644E-02;  1.9859096E+02;
  1.0000000E-01;  9.9999998E-03; -3.1999999E-01;505;  0.0000000E+00;  0.0000000E+00;  0.0000000E+00;  1.0000995E+03;  4.0000001E-01;  8.2466789E+01;0;  0.0000000E+00;  0.0000000E+00;  0.0000000E+00;0; -5.1096223E-02;  1.0000000E+04;  0.0000000E+00;  0.0000000E+00;  1.0000000E+04;  0.0000000E+00;  1.0000000E+04; -4.0953692E-02;  0.0000000E+00; -1.0142529E-02;  1.9817026E+02;
  1.2000000E-01;  9.9999998E-03; -3.4000000E-01;514;  0.0000000E+00;  0.0000000E+00;  0.0000000E+00;  1.0000872E+03;  4.0000001E-01;  7.2195480E+01;0;  0.0000000E+00;  0.0000000E+00;  0.0000000E+00;0; -4.3428350E-02;  1.0000000E+04;  0.0000000E+00;  0.0000000E+00;  1.0000000E+04;  0.0000000E+00;  1.0000000E+04; -3.2318968E-02;  0.0000000E+00; -1.1109381E-02;  3.1865411E+02;
  1.2000000E-01;  9.9999998E-03; -3.1999999E-01;515;  0.0000000E+00;  0.0000000E+00;  0.0000000E+00;  1.0001226E+03;  4.0000001E-01;  1.0152798E+02;0;  0.0000000E+00;  0.0000000E+00;  0.0000000E+00;0; -6.1289910E-02;  1.0000000E+04;  0.0000000E+00;  0.0000000E+00;  1.0000000E+04;  0.0000000E+00;  1.0000000E+04; -5.0527588E-02;  0.0000000E+00; -1.0762324E-02;  3.8621375E+02;
  1.4000000E-01;  9.9999998E-03; -3.4000000E-01;524;  0.0000000E+00;  0.0000000E+00;  0.0000000E+00;  1.0001135E+03;  4.0000001E-01;  9.4022018E+01;0;  0.0000000E+00;  0.0000000E+00;  0.0000000E+00;0; -5.5070136E-02;  1.0000000E+04;  0.0000000E+00;  0.0000000E+00;  1.0000000E+04;  0.0000000E+00;  1.0000000E+04; -4.2519808E-02;  0.0000000E+00; -1.2550327E-02;  6.9521649E+02;
  1.4000000E-01;  9.9999998E-03; -3.1999999E-01;525;  0.0000000E+00;  0.0000000E+00;  0.0000000E+00;  1.0001574E+03;  4.0000001E-01;  1.3036667E+02;0;  0.0000000E+00;  0.0000000E+00;  0.0000000E+00;0; -7.6604798E-02;  1.0000000E+04;  0.0000000E+00;  0.0000000E+00;  1.0000000E+04;  0.0000000E+00;  1.0000000E+04; -6.4510375E-02;  0.0000000E+00; -1.2094424E-02;  9.8136731E+02;
  1.6000000E-01;  9.9999998E-03; -3.4000000E-01;534;  0.0000000E+00;  0.0000000E+00;  0.0000000E+00;  1.0001528E+03;  4.0000001E-01;  1.2661369E+02;0;  0.0000000E+00;  0.0000000E+00;  0.0000000E+00;0; -7.2303593E-02;  1.0000000E+04;  0.0000000E+00;  0.0000000E+00;  1.0000000E+04;  0.0000000E+00;  1.0000000E+04; -5.6799993E-02;  0.0000000E+00; -1.5503597E-02;  1.5015590E+03;
  1.6000000E-01;  9.9999998E-03; -3.1999999E-01;535;  0.0000000E+00;  0.0000000E+00;  0.0000000E+00;  1.0002076E+03;  4.0000001E-01;  1.7194572E+02;0;  0.0000000E+00;  0.0000000E+00;  0.0000000E+00;0; -9.8493367E-02;  1.0000000E+04;  0.0000000E+00;  0.0000000E+00;  1.0000000E+04;  0.0000000E+00;  1.0000000E+04; -8.3547667E-02;  0.0000000E+00; -1.4945703E-02;  2.2658638E+03;
  1.8000001E-01;  9.9999998E-03; -3.4000000E-01;544;  0.0000000E+00;  0.0000000E+00;  0.0000000E+00;  1.0002062E+03;  4.0000001E-01;  1.7085934E+02;0;  0.0000000E+00;  0.0000000E+00;  0.0000000E+00;0; -9.5058285E-02;  1.0000000E+04;  0.0000000E+00;  0.0000000E+00;  1.0000000E+04;  0.0000000E+00;  1.0000000E+04; -7.3860981E-02;  0.0000000E+00; -2.1197306E-02;  2.7920122E+03;
  1.8000001E-01;  9.9999998E-03; -3.1999999E-01;545;  0.0000000E+00;  0.0000000E+00;  0.0000000E+00;  1.0002742E+03;  4.0000001E-01;  2.2715404E+02;0;  0.0000000E+00;  0.0000000E+00;  0.0000000E+00;0; -1.2688938E-01;  1.0000000E+04;  0.0000000E+00;  0.0000000E+00;  1.0000000E+04;  0.0000000E+00;  1.0000000E+04; -1.0631058E-01;  0.0000000E+00; -2.0578805E-02;  4.4357412E+03;
  2.0000000E-01;  9.9999998E-03; -3.4000000E-01;553;  0.0000000E+00;  0.0000000E+00;  0.0000000E+00;  1.0002701E+03;  4.0000001E-01;  2.2379611E+02;0;  0.0000000E+00;  0.0000000E+00;  0.0000000E+00;0; -1.2154973E-01;  1.0000000E+04;  0.0000000E+00;  0.0000000E+00;  1.0000000E+04;  0.0000000E+00;  1.0000000E+04; -9.0263791E-02;  0.0000000E+00; -3.1285942E-02;  4.2322197E+03;
  2.0000000E-01;  9.9999998E-03; -3.1999999E-01;554;  0.0000000E+00;  0.0000000E+00;  0.0000000E+00;  1.0003542E+03;  4.0000001E-01;  2.9342377E+02;0;  0.0000000E+00;  0.0000000E+00;  0.0000000E+00;0; -1.5982714E-01;  1.0000000E+04;  0.0000000E+00;  0.0000000E+00;  1.0000000E+04;  0.0000000E+00;  1.0000000E+04; -1.2902920E-01;  0.0000000E+00; -3.0797945E-02;  7.1404346E+03;
 -2.2000000E-01;  9.9999998E-03; -1.8000001E-01;10;  0.0000000E+00;  0.0000000E+00;  0.0000000E+00;  1.0000000E+03;  4.0000001E-01;  0.0000000E+00;0;  0.0000000E+00;  0.0000000E+00;  0.0000000E+00;0;  0.0000000E+00;  1.0000000E+04;  0.0000000E+00;  0.0000000E+00;  1.0000000E+04;  0.0000000E+00;  1.0000000E+04;  0.0000000E+00;  0.0000000E+00;  0.0000000E+00;  0.0000000E+00;
 -2.2000000E-01;  9.9999998E-03; -1.6000000E-01;11;  0.0000000E+00;  0.0000000E+00;  0.0000000E+00;  1.0000000E+03;  4.0000001E-01;  0.0000000E+00;0;  0.0000000E+00;  0.0000000E+00;  0.0000000E+00;0;  0.0000000E+00;  1.0000000E+04;  0.0000000E+00;  0.0000000E+00;  1.0000000E+04;  0.0000000E+00;  1.0000000E+04;  0.0000000E+00;  0.0000000E+00;  0.0000000E+00;  0.0000000E+00;
 -2.2000000E-01;  9.9999998E-03; -1.4000000E-01;12;  0.0000000E+00;  0.0000000E+00;  0.0000000E+00;  1.0000000E+03;  4.0000001E-01;  0.0000000E+00;0;  0.0000000E+00;  0.0000000E+00;  0.0000000E+00;0;  0.0000000E+00;  1.0000000E+04;  0.0000000E+00;  0.0000000E+00;  1.0000000E+04;  0.0000000E+00;  1.0000000E+04;  0.0000000E+00;  0.0000000E+00;  0.0000000E+00;  0.0000000E+00;
 -2.2000000E-01;  9.9999998E-03; -1.2000000E-01;13;  0.0000000E+00;  0.0000000E+00;  0.0000000E+00;  1.0000000E+03;  4.0000001E-01;  0.0000000E+00;0;  0.0000000E+00;  0.0000000E+00;  0.0000000E+00;0;  0.0000000E+00;  1.0000000E+04;  0.0000000E+00;  0.0000000E+00;  1.0000000E+04;  0.0000000E+00;  1.0000000E+04;  0.0000000E+00;  0.0000000E+00;  0.0000000E+00;  0.0000000E+00;
 -2.2000000E-01;  9.9999998E-03; -1.0000000E-01;14;  0.0000000E+00;  0.0000000E+00;  0.0000000E+00;  1.0000000E+03;  4.0000001E-01;  0.0000000E+00;0;  0.0000000E+00;  0.0000000E+00;  0.0000000E+00;0;  0.0000000E+00;  1.0000000E+04;  0.0000000E+00;  0.0000000E+00;  1.0000000E+04;  0.0000000E+00;  1.0000000E+04;  0.0000000E+00;  0.0000000E+00;  0.0000000E+00;  0.0000000E+00;
 -2.2000000E-01;  9.9999998E-03; -7.9999998E-02;15;  0.0000000E+00;  0.0000000E+00;  0.0000000E+00;  1.0000000E+03;  4.0000001E-01;  0.0000000E+00;0;  0.0000000E+00;  0.0000000E+00;  0.0000000E+00;0;  0.0000000E+00;  1.0000000E+04;  0.0000000E+00;  0.0000000E+00;  1.0000000E+04;  0.0000000E+00;  1.0000000E+04;  0.0000000E+00;  0.0000000E+00;  0.0000000E+00;  0.0000000E+00;
 -2.2000000E-01;  9.9999998E-03; -5.9999999E-02;16;  0.0000000E+00;  0.0000000E+00;  0.0000000E+00;  1.0000000E+03;  4.0000001E-01;  0.0000000E+00;0;  0.0000000E+00;  0.0000000E+00;  0.0000000E+00;0;  0.0000000E+00;  1.0000000E+04;  0.0000000E+00;  0.0000000E+00;  1.0000000E+04;  0.0000000E+00;  1.0000000E+04;  0.0000000E+00;  0.0000000E+00;  0.0000000E+00;  0.0000000E+00;
 -2.2000000E-01;  9.9999998E-03; -3.9999999E-02;17;  0.0000000E+00;  0.0000000E+00;  0.0000000E+00;  1.0000000E+03;  4.0000001E-01;  0.0000000E+00;0;  0.0000000E+00;  0.0000000E+00;  0.0000000E+00;0;  0.0000000E+00;  1.0000000E+04;  0.0000000E+00;  0.0000000E+00;  1.0000000E+04;  0.0000000E+00;  1.0000000E+04;  0.0000000E+00;  0.0000000E+00;  0.0000000E+00;  0.0000000E+00;
 -2.2000000E-01;  9.9999998E-03; -2.0000000E-02;18;  0.0000000E+00;  0.0000000E+00;  0.0000000E+00;  1.0000000E+03;  4.0000001E-01;  0.0000000E+00;0;  0.0000000E+00;  0.0000000E+00;  0.0000000E+00;0;  0.0000000E+00;  1.0000000E+04;  0.0000000E+00;  0.0000000E+00;  1.0000000E+04;  0.0000000E+00;  1.0000000E+04;  0.0000000E+00;  0.0000000E+00;  0.0000000E+00;  0.0000000E+00;
 -2.0000000E-01;  9.9999998E-03; -1.8000001E-01;50;  0.0000000E+00;  0.0000000E+00;  0.0000000E+00;  1.0000000E+03;  4.0000001E-01;  0.0000000E+00;0;  0.0000000E+00;  0.0000000E+00;  0.0000000E+00;0;  0.0000000E+00;  1.0000000E+04;  0.0000000E+00;  0.0000000E+00;  1.0000000E+04;  0.0000000E+00;  1.0000000E+04;  0.0000000E+00;  0.0000000E+00;  0.0000000E+00;  0.0000000E+00;
 -2.0000000E-01;  9.9999998E-03; -1.6000000E-01;51;  0.0000000E+00;  0.0000000E+00;  0.0000000E+00;  1.0000000E+03;  4.0000001E-01;  0.0000000E+00;0;  0.0000000E+00;  0.0000000E+00;  0.0000000E+00;0;  0.0000000E+00;  1.0000000E+04;  0.0000000E+00;  0.0000000E+00;  1.0000000E+04;  0.0000000E+00;  1.0000000E+04;  0.0000000E+00;  0.0000000E+00;  0.0000000E+00;  0.0000000E+00;
 -2.0000000E-01;  9.9999998E-03; -1.4000000E-01;52;  0.0000000E+00;  0.0000000E+00;  0.0000000E+00;  1.0000000E+03;  4.0000001E-01;  0.0000000E+00;0;  0.0000000E+00;  0.0000000E+00;  0.0000000E+00;0;  0.0000000E+00;  1.0000000E+04;  0.0000000E+00;  0.0000000E+00;  1.0000000E+04;  0.0000000E+00;  1.0000000E+04;  0.0000000E+00;  0.0000000E+00;  0.0000000E+00;  0.0000000E+00;
 -2.0000000E-01;  9.9999998E-03; -1.2000000E-01;53;  0.0000000E+00;  0.0000000E+00;  0.0000000E+00;  1.0000000E+03;  4.0000001E-01;  0.0000000E+00;0;  0.0000000E+00;  0.0000000E+00;  0.0000000E+00;0;  0.0000000E+00;  1.0000000E+04;  0.0000000E+00;  0.0000000E+00;  1.0000000E+04;  0.0000000E+00;  1.0000000E+04;  0.0000000E+00;  0.0000000E+00;  0.0000000E+00;  0.0000000E+00;
 -2.0000000E-01;  9.9999998E-03; -1.0000000E-01;54;  0.0000000E+00;  0.0000000E+00;  0.0000000E+00;  1.0000000E+03;  4.0000001E-01;  0.0000000E+00;0;  0.0000000E+00;  0.0000000E+00;  0.0000000E+00;0;  0.0000000E+00;  1.0000000E+04;  0.0000000E+00;  0.0000000E+00;  1.0000000E+04;  0.0000000E+00;  1.0000000E+04;  0.0000000E+00;  0.0000000E+00;  0.0000000E+00;  0.0000000E+00;
 -2.0000000E-01;  9.9999998E-03; -7.9999998E-02;55;  0.0000000E+00;  0.0000000E+00;  0.0000000E+00;  1.0000000E+03;  4.0000001E-01;  0.0000000E+00;0;  0.0000000E+00;  0.0000000E+00;  0.0000000E+00;0;  0.0000000E+00;  1.0000000E+04;  0.0000000E+00;  0.0000000E+00;  1.0000000E+04;  0.0000000E+00;  1.0000000E+04;  0.0000000E+00;  0.0000000E+00;  0.0000000E+00;  0.0000000E+00;
 -2.0000000E-01;  9.9999998E-03; -5.9999999E-02;56;  0.0000000E+00;  0.0000000E+00;  0.0000000E+00;  1.0000000E+03;  4.0000001E-01;  0.0000000E+00;0;  0.0000000E+00;  0.0000000E+00;  0.0000000E+00;0;  0.0000000E+00;  1.0000000E+04;  0.0000000E+00;  0.0000000E+00;  1.0000000E+04;  0.0000000E+00;  1.0000000E+04;  0.0000000E+00;  0.0000000E+00;  0.0000000E+00;  0.0000000E+00;
 -2.0000000E-01;  9.9999998E-03; -3.9999999E-02;57;  0.0000000E+00;  0.0000000E+00;  0.0000000E+00;  1.0000000E+03;  4.0000001E-01;  0.0000000E+00;0;  0.0000000E+00;  0.0000000E+00;  0.0000000E+00;0;  0.0000000E+00;  1.0000000E+04;  0.0000000E+00;  0.0000000E+00;  1.0000000E+04;  0.0000000E+00;  1.0000000E+04;  0.0000000E+00;  0.0000000E+00;  0.0000000E+00;  0.0000000E+00;
 -2.0000000E-01;  9.9999998E-03; -2.0000000E-02;58;  0.0000000E+00;  0.0000000E+00;  0.0000000E+00;  1.0000000E+03;  4.0000001E-01;  0.0000000E+00;0;  0.0000000E+00;  0.0000000E+00;  0.0000000E+00;0;  0.0000000E+00;  1.0000000E+04;  0.0000000E+00;  0.0000000E+00;  1.0000000E+04;  0.0000000E+00;  1.0000000E+04;  0.0000000E+00;  0.0000000E+00;  0.0000000E+00;  0.0000000E+00;
 -1.8000001E-01;  9.9999998E-03; -1.8000001E-01;91;  0.0000000E+00;  0.0000000E+00;  0.0000000E+00;  1.0000000E+03;  4.0000001E-01;  0.0000000E+00;0;  0.0000000E+00;  0.0000000E+00;  0.0000000E+00;0;  0.0000000E+00;  1.0000000E+04;  0.0000000E+00;  0.0000000E+00;  1.0000000E+04;  0.0000000E+00;  1.0000000E+04;  0.0000000E+00;  0.0000000E+00;  0.0000000E+00;  0.0000000E+00;
 -1.8000001E-01;  9.9999998E-03; -1.6000000E-01;92;  0.0000000E+00;  0.0000000E+00;  0.0000000E+00;  1.0000000E+03;  4.0000001E-01;  0.0000000E+00;0;  0.0000000E+00;  0.0000000E+00;  0.0000000E+00;0;  0.0000000E+00;  1.0000000E+04;  0.0000000E+00;  0.0000000E+00;  1.0000000E+04;  0.0000000E+00;  1.0000000E+04;  0.0000000E+00;  0.0000000E+00;  0.0000000E+00;  0.0000000E+00;
 -1.8000001E-01;  9.9999998E-03; -1.4000000E-01;93;  0.0000000E+00;  0.0000000E+00;  0.0000000E+00;  1.0000000E+03;  4.0000001E-01;  0.0000000E+00;0;  0.0000000E+00;  0.0000000E+00;  0.0000000E+00;0;  0.0000000E+00;  1.0000000E+04;  0.0000000E+00;  0.0000000E+00;  1.0000000E+04;  0.0000000E+00;  1.0000000E+04;  0.0000000E+00;  0.0000000E+00;  0.0000000E+00;  0.0000000E+00;
 -1.8000001E-01;  9.9999998E-03; -1.2000000E-01;94;  0.0000000E+00;  0.0000000E+00;  0.0000000E+00;  1.0000000E+03;  4.0000001E-01;  0.0000000E+00;0;  0.0000000E+00;  0.0000000E+00;  0.0000000E+00;0;  0.0000000E+00;  1.0000000E+04;  0.0000000E+00;  0.0000000E+00;  1.0000000E+04;  0.0000000E+00;  1.0000000E+04;  0.0000000E+00;  0.0000000E+00;  0.0000000E+00;  0.0000000E+00;
 -1.8000001E-01;  9.9999998E-03; -1.0000000E-01;95;  0.0000000E+00;  0.0000000E+00;  0.0000000E+00;  1.0000000E+03;  4.0000001E-01;  0.0000000E+00;0;  0.0000000E+00;  0.0000000E+00;  0.0000000E+00;0;  0.0000000E+00;  1.0000000E+04;  0.0000000E+00;  0.0000000E+00;  1.0000000E+04;  0.0000000E+00;  1.0000000E+04;  0.0000000E+00;  0.0000000E+00;  0.0000000E+00;  0.0000000E+00;
 -1.8000001E-01;  9.9999998E-03; -7.9999998E-02;96;  0.0000000E+00;  0.0000000E+00;  0.0000000E+00;  1.0000000E+03;  4.0000001E-01;  0.0000000E+00;0;  0.0000000E+00;  0.0000000E+00;  0.0000000E+00;0;  0.0000000E+00;  1.0000000E+04;  0.0000000E+00;  0.0000000E+00;  1.0000000E+04;  0.0000000E+00;  1.0000000E+04;  0.0000000E+00;  0.0000000E+00;  0.0000000E+00;  0.0000000E+00;
 -1.8000001E-01;  9.9999998E-03; -5.9999999E-02;97;  0.0000000E+00;  0.0000000E+00;  0.0000000E+00;  1.0000000E+03;  4.0000001E-01;  0.0000000E+00;0;  0.0000000E+00;  0.0000000E+00;  0.0000000E+00;0;  0.0000000E+00;  1.0000000E+04;  0.0000000E+00;  0.0000000E+00;  1.0000000E+04;  0.0000000E+00;  1.0000000E+04;  0.0000000E+00;  0.0000000E+00;  0.0000000E+00;  0.0000000E+00;
 -1.8000001E-01;  9.9999998E-03; -3.9999999E-02;98;  0.0000000E+00;  0.0000000E+00;  0.0000000E+00;  1.0000000E+03;  4.0000001E-01;  0.0000000E+00;0;  0.0000000E+00;  0.0000000E+00;  0.0000000E+00;0;  0.0000000E+00;  1.0000000E+04;  0.0000000E+00;  0.0000000E+00;  1.0000000E+04;  0.0000000E+00;  1.0000000E+04;  0.0000000E+00;  0.0000000E+00;  0.0000000E+00;  0.0000000E+00;
 -1.8000001E-01;  9.9999998E-03; -2.0000000E-02;99;  0.0000000E+00;  0.0000000E+00;  0.0000000E+00;  1.0000000E+03;  4.0000001E-01;  0.0000000E+00;0;  0.0000000E+00;  0.0000000E+00;  0.0000000E+00;0;  0.0000000E+00;  1.0000000E+04;  0.0000000E+00;  0.0000000E+00;  1.0000000E+04;  0.0000000E+00;  1.0000000E+04;  0.0000000E+00;  0.0000000E+00;  0.0000000E+00;  0.0000000E+00;
 -1.6000000E-01;  9.9999998E-03; -1.8000001E-01;132;  0.0000000E+00;  0.0000000E+00;  0.0000000E+00;  1.0000000E+03;  4.0000001E-01;  0.0000000E+00;0;  0.0000000E+00;  0.0000000E+00;  0.0000000E+00;0; -7.8798694E-06;  1.0000000E+04;  0.0000000E+00;  0.0000000E+00;  1.0000000E+04;  0.0000000E+00;  1.0000000E+04; -7.8974426E-06;  0.0000000E+00;  1.7572912E-08;  1.2844808E-03;
 -1.6000000E-01;  9.9999998E-03; -1.6000000E-01;133;  0.0000000E+00;  0.0000000E+00;  0.0000000E+00;  1.0000000E+03;  4.0000001E-01;  0.0000000E+00;0;  0.0000000E+00;  0.0000000E+00;  0.0000000E+00;0; -8.1233693E-06;  1.0000000E+04;  0.0000000E+00;  0.0000000E+00;  1.0000000E+04;  0.0000000E+00;  1.0000000E+04; -8.1389917E-06;  0.0000000E+00;  1.5622097E-08;  1.2819526E-03;
 -1.6000000E-01;  9.9999998E-03; -1.4000000E-01;134;  0.0000000E+00;  0.0000000E+00;  0.0000000E+00;  1.0000000E+03;  4.0000001E-01;  0.0000000E+00;0;  0.0000000E+00;  0.0000000E+00;  0.0000000E+00;0; -8.2715860E-06;  1.0000000E+04;  0.0000000E+00;  0.0000000E+00;  1.0000000E+04;  0.0000000E+00;  1.0000000E+04; -8.2849083E-06;  0.0000000E+00;  1.3321841E-08;  1.2621037E-03;
 -1.6000000E-01;  9.9999998E-03; -1.2000000E-01;135;  0.0000000E+00;  0.0000000E+00;  0.0000000E+00;  1.0000000E+03;  4.0000001E-01;  0.0000000E+00;0;  0.0000000E+00;  0.0000000E+00;  0.0000000E+00;0; -8.3502791E-06;  1.0000000E+04;  0.0000000E+00;  0.0000000E+00;  1.0000000E+04;  0.0000000E+00;  1.0000000E+04; -8.3613941E-06;  0.0000000E+00;  1.1114611E-08;  1.2350309E-03;
 -1.6000000E-01;  9.9999998E-03; -1.0000000E-01;136;  0.0000000E+00;  0.0000000E+00;  0.0000000E+00;  1.0000000E+03;  4.0000001E-01;  0.0000000E+00;0;  0.0000000E+00;  0.0000000E+00;  0.0000000E+00;0; -8.3822506E-06;  1.0000000E+04;  0.0000000E+00;  0.0000000E+00;  1.0000000E+04;  0.0000000E+00;  1.0000000E+04; -8.3913028E-06;  0.0000000E+00;  9.0519574E-09;  1.2046030E-03;
 -1.6000000E-01;  9.9999998E-03; -7.9999998E-02;137;  0.0000000E+00;  0.0000000E+00;  0.0000000E+00;  1.0000000E+03;  4.0000001E-01;  0.0000000E+00;0;  0.0000000E+00;  0.0000000E+00;  0.0000000E+00;0; -8.3858567E-06;  1.0000000E+04;  0.0000000E+00;  0.0000000E+00;  1.0000000E+04;  0.0000000E+00;  1.0000000E+04; -8.3930845E-06;  0.0000000E+00;  7.2273028E-09;  1.1749119E-03;
 -1.6000000E-01;  9.9999998E-03; -5.9999999E-02;138;  0.0000000E+00;  0.0000000E+00;  0.0000000E+00;  1.0000000E+03;  4.0000001E-01;  0.0000000E+00;0;  0.0000000E+00;  0.0000000E+00;  0.0000000E+00;0; -8.3752193E-06;  1.0000000E+04;  0.0000000E+00;  0.0000000E+00;  1.0000000E+04;  0.0000000E+00;  1.0000000E+04; -8.3809473E-06;  0.0000000E+00;  5.7281175E-09;  1.1490331E-03;
 -1.6000000E-01;  9.9999998E-03; -3.9999999E-02;139;  0.0000000E+00;  0.0000000E+00;  0.0000000E+00;  1.0000000E+03;  4.0000001E-01;  0.0000000E+00;0;  0.0000000E+00;  0.0000000E+00;  0.0000000E+00;0; -8.3607420E-06;  1.0000000E+04;  0.0000000E+00;  0.0000000E+00;  1.0000000E+04;  0.0000000E+00;  1.0000000E+04; -8.3653385E-06;  0.0000000E+00;  4.5966675E-09;  1.1289028E-03;
 -1.6000000E-01;  9.9999998E-03; -2.0000000E-02;140;  0.0000000E+00;  0.0000000E+00;  0.0000000E+00;  1.0000000E+03;  4.0000001E-01;  0.0000000E+00;0;  0.0000000E+00;  0.0000000E+00;  0.0000000E+00;0; -8.3493615E-06;  1.0000000E+04;  0.0000000E+00;  0.0000000E+00;  1.0000000E+04;  0.0000000E+00;  1.0000000E+04; -8.3532641E-06;  0.0000000E+00;  3.9023647E-09;  1.1162863E-03;
 -1.4000000E-01;  9.9999998E-03; -1.8000001E-01;173;  0.0000000E+00;  0.0000000E+00;  0.0000000E+00;  1.0000004E+03;  4.0000001E-01;  3.9505050E-01;0;  0.0000000E+00;  0.0000000E+00;  0.0000000E+00;0; -2.8544990E-04;  1.0000000E+04;  0.0000000E+00;  0.0000000E+00;  1.0000000E+04;  0.0000000E+00;  1.0000000E+04; -2.8759407E-04;  0.0000000E+00;  2.1441683E-06;  7.0044428E-02;
 -1.4000000E-01;  9.9999998E-03; -1.6000000E-01;174;  0.0000000E+00;  0.0000000E+00;  0.0000000E+00;  1.0000004E+03;  4.0000001E-01;  3.9505050E-01;0;  0.0000000E+00;  0.0000000E+00;  0.0000000E+00;0; -2.9527140E-04;  1.0000000E+04;  0.0000000E+00;  0.0000000E+00;  1.0000000E+04;  0.0000000E+00;  1.0000000E+04; -2.9721059E-04;  0.0000000E+00;  1.9391975E-06;  6.7851938E-02;
 -1.4000000E-01;  9.9999998E-03; -1.4000000E-01;175;  0.0000000E+00;  0.0000000E+00;  0.0000000E+00;  1.0000004E+03;  4.0000001E-01;  3.9505050E-01;0;  0.0000000E+00;  0.0000000E+00;  0.0000000E+00;0; -3.0159327E-04;  1.0000000E+04;  0.0000000E+00;  0.0000000E+00;  1.0000000E+04;  0.0000000E+00;  1.0000000E+04; -3.0327393E-04;  0.0000000E+00;  1.6806647E-06;  6.4338394E-02;
 -1.4000000E-01;  9.9999998E-03; -1.2000000E-01;176;  0.0000000E+00;  0.0000000E+00;  0.0000000E+00;  1.0000004E+03;  4.0000001E-01;  3.9505050E-01;0;  0.0000000E+00;  0.0000000E+00;  0.0000000E+00;0; -3.0528463E-04;  1.0000000E+04;  0.0000000E+00;  0.0000000E+00;  1.0000000E+04;  0.0000000E+00;  1.0000000E+04; -3.0669675E-04;  0.0000000E+00;  1.4121223E-06;  6.0339887E-02;
 -1.4000000E-01;  9.9999998E-03; -1.0000000E-01;177;  0.0000000E+00;  0.0000000E+00;  0.0000000E+00;  1.0000004E+03;  4.0000001E-01;  3.9505050E-01;0;  0.0000000E+00;  0.0000000E+00;  0.0000000E+00;0; -3.0713415E-04;  1.0000000E+04;  0.0000000E+00;  0.0000000E+00;  1.0000000E+04;  0.0000000E+00;  1.0000000E+04; -3.0829315E-04;  0.0000000E+00;  1.1589995E-06;  5.6384537E-02;
 -1.4000000E-01;  9.9999998E-03; -7.9999998E-02;178;  0.0000000E+00;  0.0000000E+00;  0.0000000E+00;  1.0000004E+03;  4.0000001E-01;  3.9505050E-01;0;  0.0000000E+00;  0.0000000E+00;  0.0000000E+00;0; -3.0780636E-04;  1.0000000E+04;  0.0000000E+00;  0.0000000E+00;  1.0000000E+04;  0.0000000E+00;  1.0000000E+04; -3.0874225E-04;  0.0000000E+00;  9.3588369E-07;  5.2797500E-02;
 -1.4000000E-01;  9.9999998E-03; -5.9999999E-02;179;  0.0000000E+00;  0.0000000E+00;  0.0000000E+00;  1.0000004E+03;  4.0000001E-01;  3.9505050E-01;0;  0.0000000E+00;  0.0000000E+00;  0.0000000E+00;0; -3.0782635E-04;  1.0000000E+04;  0.0000000E+00;  0.0000000E+00;  1.0000000E+04;  0.0000000E+00;  1.0000000E+04; -3.0857773E-04;  0.0000000E+00;  7.5138638E-07;  4.9786218E-02;
 -1.4000000E-01;  9.9999998E-03; -3.9999999E-02;180;  0.0000000E+00;  0.0000000E+00;  0.0000000E+00;  1.0000004E+03;  4.0000001E-01;  3.9505050E-01;0;  0.0000000E+00;  0.0000000E+00;  0.0000000E+00;0; -3.0758025E-04;  1.0000000E+04;  0.0000000E+00;  0.0000000E+00;  1.0000000E+04;  0.0000000E+00;  1.0000000E+04; -3.0819382E-04;  0.0000000E+00;  6.1357105E-07;  4.7520854E-02;
 -1.4000000E-01;  9.9999998E-03; -2.0000000E-02;181;  0.0000000E+00;  0.0000000E+00;  0.0000000E+00;  1.0000004E+03;  4.0000001E-01;  3.9505050E-01;0;  0.0000000E+00;  0.0000000E+00;  0.0000000E+00;0; -3.0733118E-04;  1.0000000E+04;  0.0000000E+00;  0.0000000E+00;  1.0000000E+04;  0.0000000E+00;  1.0000000E+04; -3.0785962E-04;  0.0000000E+00;  5.2842915E-07;  4.6116143E-02;
 -1.2000000E-01;  9.9999998E-03; -1.8000001E-01;214;  0.0000000E+00;  0.0000000E+00;  0.0000000E+00;  1.0000026E+03;  4.0000001E-01;  2.1727777E+00;0;  0.0000000E+00;  0.0000000E+00;  0.0000000E+00;0; -1.5675339E-03;  1.0000000E+04;  0.0000000E+00;  0.0000000E+00;  1.0000000E+04;  0.0000000E+00;  1.0000000E+04; -1.5875696E-03;  0.0000000E+00;  2.0035644E-05;  5.1431847E-01;
 -1.2000000E-01;  9.9999998E-03; -1.6000000E-01;215;  0.0000000E+00;  0.0000000E+00;  0.0000000E+00;  1.0000026E+03;  4.0000001E-01;  2.1727777E+00;0;  0.0000000E+00;  0.0000000E+00;  0.0000000E+00;0; -1.6245279E-03;  1.0000000E+04;  0.0000000E+00;  0.0000000E+00;  1.0000000E+04;  0.0000000E+00;  1.0000000E+04; -1.6429323E-03;  0.0000000E+00;  1.8404467E-05;  4.9385732E-01;
 -1.2000000E-01;  9.9999998E-03; -1.4000000E-01;216;  0.0000000E+00;  0.0000000E+00;  0.0000000E+00;  1.0000027E+03;  4.0000001E-01;  2.2715404E+00;0;  0.0000000E+00;  0.0000000E+00;  0.0000000E+00;0; -1.6623577E-03;  1.0000000E+04;  0.0000000E+00;  0.0000000E+00;  1.0000000E+04;  0.0000000E+00;  1.0000000E+04; -1.6784943E-03;  0.0000000E+00;  1.6136521E-05;  4.6069738E-01;
 -1.2000000E-01;  9.9999998E-03; -1.2000000E-01;217;  0.0000000E+00;  0.0000000E+00;  0.0000000E+00;  1.0000027E+03;  4.0000001E-01;  2.2715404E+00;0;  0.0000000E+00;  0.0000000E+00;  0.0000000E+00;0; -1.6854943E-03;  1.0000000E+04;  0.0000000E+00;  0.0000000E+00;  1.0000000E+04;  0.0000000E+00;  1.0000000E+04; -1.6991763E-03;  0.0000000E+00;  1.3681925E-05;  4.2273223E-01;
 -1.2000000E-01;  9.9999998E-03; -1.0000000E-01;218;  0.0000000E+00;  0.0000000E+00;  0.0000000E+00;  1.0000027E+03;  4.0000001E-01;  2.2715404E+00;0;  0.0000000E+00;  0.0000000E+00;  0.0000000E+00;0; -1.6981150E-03;  1.0000000E+04;  0.0000000E+00;  0.0000000E+00;  1.0000000E+04;  0.0000000E+00;  1.0000000E+04; -1.7094362E-03;  0.0000000E+00;  1.1321190E-05;  3.8516772E-01;
 -1.2000000E-01;  9.9999998E-03; -7.9999998E-02;219;  0.0000000E+00;  0.0000000E+00;  0.0000000E+00;  1.0000027E+03;  4.0000001E-01;  2.2715404E+00;0;  0.0000000E+00;  0.0000000E+00;  0.0000000E+00;0; -1.7038051E-03;  1.0000000E+04;  0.0000000E+00;  0.0000000E+00;  1.0000000E+04;  0.0000000E+00;  1.0000000E+04; -1.7130258E-03;  0.0000000E+00;  9.2207620E-06;  3.5123432E-01;
 -1.2000000E-01;  9.9999998E-03; -5.9999999E-02;220;  0.0000000E+00;  0.0000000E+00;  0.0000000E+00;  1.0000027E+03;  4.0000001E-01;  2.2715404E+00;0;  0.0000000E+00;  0.0000000E+00;  0.0000000E+00;0; -1.7054344E-03;  1.0000000E+04;  0.0000000E+00;  0.0000000E+00;  1.0000000E+04;  0.0000000E+00;  1.0000000E+04; -1.7129211E-03;  0.0000000E+00;  7.4866962E-06;  3.2299939E-01;
 -1.2000000E-01;  9.9999998E-03; -3.9999999E-02;221;  0.0000000E+00;  0.0000000E+00;  0.0000000E+00;  1.0000027E+03;  4.0000001E-01;  2.2715404E+00;0;  0.0000000E+00;  0.0000000E+00;  0.0000000E+00;0; -1.7051478E-03;  1.0000000E+04;  0.0000000E+00;  0.0000000E+00;  1.0000000E+04;  0.0000000E+00;  1.0000000E+04; -1.7113402E-03;  0.0000000E+00;  6.1923806E-06;  3.0185625E-01;
 -1.2000000E-01;  9.9999998E-03; -2.0000000E-02;222;  0.0000000E+00;  0.0000000E+00;  0.0000000E+00;  1.0000027E+03;  4.0000001E-01;  2.2715404E+00;0;  0.0000000E+00;  0.0000000E+00;  0.0000000E+00;0; -1.7044098E-03;  1.0000000E+04;  0.0000000E+00;  0.0000000E+00;  1.0000000E+04;  0.0000000E+00;  1.0000000E+04; -1.7098025E-03;  0.0000000E+00;  5.3926892E-06;  2.8878379E-01;
 -1.0000000E-01;  9.9999998E-03; -1.8000001E-01;255;  0.0000000E+00;  0.0000000E+00;  0.0000000E+00;  1.0000082E+03;  4.0000001E-01;  6.8146210E+00;0;  0.0000000E+00;  0.0000000E+00;  0.0000000E+00;0; -4.9665673E-03;  1.0000000E+04;  0.0000000E+00;  0.0000000E+00;  1.0000000E+04;  0.0000000E+00;  1.0000000E+04; -5.0539365E-03;  0.0000000E+00;  8.7369423E-05;  2.0095398E+00;
 -1.0000000E-01;  9.9999998E-03; -1.6000000E-01;256;  0.0000000E+00;  0.0000000E+00;  0.0000000E+00;  1.0000085E+03;  4.0000001E-01;  7.1109090E+00;0;  0.0000000E+00;  0.0000000E+00;  0.0000000E+00;0; -5.1534572E-03;  1.0000000E+04;  0.0000000E+00;  0.0000000E+00;  1.0000000E+04;  0.0000000E+00;  1.0000000E+04; -5.2358247E-03;  0.0000000E+00;  8.2367536E-05;  1.9439805E+00;
 -1.0000000E-01;  9.9999998E-03; -1.4000000E-01;257;  0.0000000E+00;  0.0000000E+00;  0.0000000E+00;  1.0000087E+03;  4.0000001E-01;  7.2096715E+00;0;  0.0000000E+00;  0.0000000E+00;  0.0000000E+00;0; -5.2795759E-03;  1.0000000E+04;  0.0000000E+00;  0.0000000E+00;  1.0000000E+04;  0.0000000E+00;  1.0000000E+04; -5.3525800E-03;  0.0000000E+00;  7.3004136E-05;  1.8017303E+00;
 -1.0000000E-01;  9.9999998E-03; -1.2000000E-01;258;  0.0000000E+00;  0.0000000E+00;  0.0000000E+00;  1.0000087E+03;  4.0000001E-01;  7.2096715E+00;0;  0.0000000E+00;  0.0000000E+00;  0.0000000E+00;0; -5.3589973E-03;  1.0000000E+04;  0.0000000E+00;  0.0000000E+00;  1.0000000E+04;  0.0000000E+00;  1.0000000E+04; -5.4214224E-03;  0.0000000E+00;  6.2425286E-05;  1.6344968E+00;
 -1.0000000E-01;  9.9999998E-03; -1.0000000E-01;259;  0.0000000E+00;  0.0000000E+00;  0.0000000E+00;  1.0000089E+03;  4.0000001E-01;  7.4071970E+00;0;  0.0000000E+00;  0.0000000E+00;  0.0000000E+00;0; -5.4044607E-03;  1.0000000E+04;  0.0000000E+00;  0.0000000E+00;  1.0000000E+04;  0.0000000E+00;  1.0000000E+04; -5.4565044E-03;  0.0000000E+00;  5.2043524E-05;  1.4671406E+00;
 -1.0000000E-01;  9.9999998E-03; -7.9999998E-02;260;  0.0000000E+00;  0.0000000E+00;  0.0000000E+00;  1.0000091E+03;  4.0000001E-01;  7.5059595E+00;0;  0.0000000E+00;  0.0000000E+00;  0.0000000E+00;0; -5.4270644E-03;  1.0000000E+04;  0.0000000E+00;  0.0000000E+00;  1.0000000E+04;  0.0000000E+00;  1.0000000E+04; -5.4697902E-03;  0.0000000E+00;  4.2725598E-05;  1.3154334E+00;
 -1.0000000E-01;  9.9999998E-03; -5.9999999E-02;261;  0.0000000E+00;  0.0000000E+00;  0.0000000E+00;  1.0000091E+03;  4.0000001E-01;  7.5059595E+00;0;  0.0000000E+00;  0.0000000E+00;  0.0000000E+00;0; -5.4357974E-03;  1.0000000E+04;  0.0000000E+00;  0.0000000E+00;  1.0000000E+04;  0.0000000E+00;  1.0000000E+04; -5.4708049E-03;  0.0000000E+00;  3.5007335E-05;  1.1892068E+00;
 -1.0000000E-01;  9.9999998E-03; -3.9999999E-02;262;  0.0000000E+00;  0.0000000E+00;  0.0000000E+00;  1.0000091E+03;  4.0000001E-01;  7.5059595E+00;0;  0.0000000E+00;  0.0000000E+00;  0.0000000E+00;0; -5.4374281E-03;  1.0000000E+04;  0.0000000E+00;  0.0000000E+00;  1.0000000E+04;  0.0000000E+00;  1.0000000E+04; -5.4666749E-03;  0.0000000E+00;  2.9246801E-05;  1.0948584E+00;
 -1.0000000E-01;  9.9999998E-03; -2.0000000E-02;263;  0.0000000E+00;  0.0000000E+00;  0.0000000E+00;  1.0000091E+03;  4.0000001E-01;  7.5059595E+00;0;  0.0000000E+00;  0.0000000E+00;  0.0000000E+00;0; -5.4366095E-03;  1.0000000E+04;  0.0000000E+00;  0.0000000E+00;  1.0000000E+04;  0.0000000E+00;  1.0000000E+04; -5.4622991E-03;  0.0000000E+00;  2.5689569E-05;  1.0365961E+00;
 -7.9999998E-02;  9.9999998E-03; -1.8000001E-01;296;  0.0000000E+00;  0.0000000E+00;  0.0000000E+00;  1.0000197E+03;  4.0000001E-01;  1.6295834E+01;0;  0.0000000E+00;  0.0000000E+00;  0.0000000E+00;0; -1.1762379E-02;  1.0000000E+04;  0.0000000E+00;  0.0000000E+00;  1.0000000E+04;  0.0000000E+00;  1.0000000E+04; -1.2017953E-02;  0.0000000E+00;  2.5557450E-04;  5.5501513E+00;
 -7.9999998E-02;  9.9999998E-03; -1.6000000E-01;297;  0.0000000E+00;  0.0000000E+00;  0.0000000E+00;  1.0000206E+03;  4.0000001E-01;  1.7085934E+01;0;  0.0000000E+00;  0.0000000E+00;  0.0000000E+00;0; -1.2211185E-02;  1.0000000E+04;  0.0000000E+00;  0.0000000E+00;  1.0000000E+04;  0.0000000E+00;  1.0000000E+04; -1.2458485E-02;  0.0000000E+00;  2.4729944E-04;  5.4392614E+00;
 -7.9999998E-02;  9.9999998E-03; -1.4000000E-01;298;  0.0000000E+00;  0.0000000E+00;  0.0000000E+00;  1.0000209E+03;  4.0000001E-01;  1.7283459E+01;0;  0.0000000E+00;  0.0000000E+00;  0.0000000E+00;0; -1.2517350E-02;  1.0000000E+04;  0.0000000E+00;  0.0000000E+00;  1.0000000E+04;  0.0000000E+00;  1.0000000E+04; -1.2738944E-02;  0.0000000E+00;  2.2159441E-04;  5.0365562E+00;
 -7.9999998E-02;  9.9999998E-03; -1.2000000E-01;299;  0.0000000E+00;  0.0000000E+00;  0.0000000E+00;  1.0000212E+03;  4.0000001E-01;  1.7579746E+01;0;  0.0000000E+00;  0.0000000E+00;  0.0000000E+00;0; -1.2713642E-02;  1.0000000E+04;  0.0000000E+00;  0.0000000E+00;  1.0000000E+04;  0.0000000E+00;  1.0000000E+04; -1.2904617E-02;  0.0000000E+00;  1.9097487E-04;  4.5432720E+00;
 -7.9999998E-02;  9.9999998E-03; -1.0000000E-01;300;  0.0000000E+00;  0.0000000E+00;  0.0000000E+00;  1.0000217E+03;  4.0000001E-01;  1.7974798E+01;0;  0.0000000E+00;  0.0000000E+00;  0.0000000E+00;0; -1.2829250E-02;  1.0000000E+04;  0.0000000E+00;  0.0000000E+00;  1.0000000E+04;  0.0000000E+00;  1.0000000E+04; -1.2989562E-02;  0.0000000E+00;  1.6031202E-04;  4.0425987E+00;
 -7.9999998E-02;  9.9999998E-03; -7.9999998E-02;301;  0.0000000E+00;  0.0000000E+00;  0.0000000E+00;  1.0000217E+03;  4.0000001E-01;  1.7974798E+01;0;  0.0000000E+00;  0.0000000E+00;  0.0000000E+00;0; -1.2889788E-02;  1.0000000E+04;  0.0000000E+00;  0.0000000E+00;  1.0000000E+04;  0.0000000E+00;  1.0000000E+04; -1.3022309E-02;  0.0000000E+00;  1.3252083E-04;  3.5858324E+00;
 -7.9999998E-02;  9.9999998E-03; -5.9999999E-02;302;  0.0000000E+00;  0.0000000E+00;  0.0000000E+00;  1.0000217E+03;  4.0000001E-01;  1.7974798E+01;0;  0.0000000E+00;  0.0000000E+00;  0.0000000E+00;0; -1.2916154E-02;  1.0000000E+04;  0.0000000E+00;  0.0000000E+00;  1.0000000E+04;  0.0000000E+00;  1.0000000E+04; -1.3025560E-02;  0.0000000E+00;  1.0940647E-04;  3.2049801E+00;
 -7.9999998E-02;  9.9999998E-03; -3.9999999E-02;303;  0.0000000E+00;  0.0000000E+00;  0.0000000E+00;  1.0000217E+03;  4.0000001E-01;  1.7974798E+01;0;  0.0000000E+00;  0.0000000E+00;  0.0000000E+00;0; -1.2924160E-02;  1.0000000E+04;  0.0000000E+00;  0.0000000E+00;  1.0000000E+04;  0.0000000E+00;  1.0000000E+04; -1.3016290E-02;  0.0000000E+00;  9.2130475E-05;  2.9202423E+00;
 -7.9999998E-02;  9.9999998E-03; -2.0000000E-02;304;  0.0000000E+00;  0.0000000E+00;  0.0000000E+00;  1.0000217E+03;  4.0000001E-01;  1.7974798E+01;0;  0.0000000E+00;  0.0000000E+00;  0.0000000E+00;0; -1.2924741E-02;  1.0000000E+04;  0.0000000E+00;  0.0000000E+00;  1.0000000E+04;  0.0000000E+00;  1.0000000E+04; -1.3006201E-02;  0.0000000E+00;  8.1460246E-05;  2.7444789E+00;
 -5.9999999E-02;  9.9999998E-03; -1.8000001E-01;337;  0.0000000E+00;  0.0000000E+00;  0.0000000E+00;  1.0000383E+03;  4.0000001E-01;  3.1801565E+01;0;  0.0000000E+00;  0.0000000E+00;  0.0000000E+00;0; -2.2735763E-02;  1.0000000E+04;  0.0000000E+00;  0.0000000E+00;  1.0000000E+04;  0.0000000E+00;  1.0000000E+04; -2.3320498E-02;  0.0000000E+00;  5.8473519E-04;  1.2238246E+01;
 -5.9999999E-02;  9.9999998E-03; -1.6000000E-01;338;  0.0000000E+00;  0.0000000E+00;  0.0000000E+00;  1.0000397E+03;  4.0000001E-01;  3.2887955E+01;0;  0.0000000E+00;  0.0000000E+00;  0.0000000E+00;0; -2.3596890E-02;  1.0000000E+04;  0.0000000E+00;  0.0000000E+00;  1.0000000E+04;  0.0000000E+00;  1.0000000E+04; -2.4170037E-02;  0.0000000E+00;  5.7314709E-04;  1.2065975E+01;
 -5.9999999E-02;  9.9999998E-03; -1.4000000E-01;339;  0.0000000E+00;  0.0000000E+00;  0.0000000E+00;  1.0000407E+03;  4.0000001E-01;  3.3776817E+01;0;  0.0000000E+00;  0.0000000E+00;  0.0000000E+00;0; -2.4190281E-02;  1.0000000E+04;  0.0000000E+00;  0.0000000E+00;  1.0000000E+04;  0.0000000E+00;  1.0000000E+04; -2.4709700E-02;  0.0000000E+00;  5.1941851E-04;  1.1195982E+01;
 -5.9999999E-02;  9.9999998E-03; -1.2000000E-01;340;  0.0000000E+00;  0.0000000E+00;  0.0000000E+00;  1.0000416E+03;  4.0000001E-01;  3.4468155E+01;0;  0.0000000E+00;  0.0000000E+00;  0.0000000E+00;0; -2.4574915E-02;  1.0000000E+04;  0.0000000E+00;  0.0000000E+00;  1.0000000E+04;  0.0000000E+00;  1.0000000E+04; -2.5025690E-02;  0.0000000E+00;  4.5077439E-04;  1.0067772E+01;
 -5.9999999E-02;  9.9999998E-03; -1.0000000E-01;341;  0.0000000E+00;  0.0000000E+00;  0.0000000E+00;  1.0000417E+03;  4.0000001E-01;  3.4566917E+01;0;  0.0000000E+00;  0.0000000E+00;  0.0000000E+00;0; -2.4805227E-02;  1.0000000E+04;  0.0000000E+00;  0.0000000E+00;  1.0000000E+04;  0.0000000E+00;  1.0000000E+04; -2.5185969E-02;  0.0000000E+00;  3.8074143E-04;  8.9074621E+00;
 -5.9999999E-02;  9.9999998E-03; -7.9999998E-02;342;  0.0000000E+00;  0.0000000E+00;  0.0000000E+00;  1.0000419E+03;  4.0000001E-01;  3.4665680E+01;0;  0.0000000E+00;  0.0000000E+00;  0.0000000E+00;0; -2.4929333E-02;  1.0000000E+04;  0.0000000E+00;  0.0000000E+00;  1.0000000E+04;  0.0000000E+00;  1.0000000E+04; -2.5245978E-02;  0.0000000E+00;  3.1664319E-04;  7.8417182E+00;
 -5.9999999E-02;  9.9999998E-03; -5.9999999E-02;343;  0.0000000E+00;  0.0000000E+00;  0.0000000E+00;  1.0000421E+03;  4.0000001E-01;  3.4863205E+01;0;  0.0000000E+00;  0.0000000E+00;  0.0000000E+00;0; -2.4986634E-02;  1.0000000E+04;  0.0000000E+00;  0.0000000E+00;  1.0000000E+04;  0.0000000E+00;  1.0000000E+04; -2.5249712E-02;  0.0000000E+00;  2.6307750E-04;  6.9504366E+00;
 -5.9999999E-02;  9.9999998E-03; -3.9999999E-02;344;  0.0000000E+00;  0.0000000E+00;  0.0000000E+00;  1.0000421E+03;  4.0000001E-01;  3.4863205E+01;0;  0.0000000E+00;  0.0000000E+00;  0.0000000E+00;0; -2.5007056E-02;  1.0000000E+04;  0.0000000E+00;  0.0000000E+00;  1.0000000E+04;  0.0000000E+00;  1.0000000E+04; -2.5230017E-02;  0.0000000E+00;  2.2296075E-04;  6.2834110E+00;
 -5.9999999E-02;  9.9999998E-03; -2.0000000E-02;345;  0.0000000E+00;  0.0000000E+00;  0.0000000E+00;  1.0000421E+03;  4.0000001E-01;  3.4863205E+01;0;  0.0000000E+00;  0.0000000E+00;  0.0000000E+00;0; -2.5011286E-02;  1.0000000E+04;  0.0000000E+00;  0.0000000E+00;  1.0000000E+04;  0.0000000E+00;  1.0000000E+04; -2.5209451E-02;  0.0000000E+00;  1.9816567E-04;  5.8716083E+00;
 -3.9999999E-02;  9.9999998E-03; -1.8000001E-01;378;  0.0000000E+00;  0.0000000E+00;  0.0000000E+00;  1.0000633E+03;  4.0000001E-01;  5.2442955E+01;0;  0.0000000E+00;  0.0000000E+00;  0.0000000E+00;0; -3.7438508E-02;  1.0000000E+04;  0.0000000E+00;  0.0000000E+00;  1.0000000E+04;  0.0000000E+00;  1.0000000E+04; -3.8558051E-02;  0.0000000E+00;  1.1195433E-03;  2.2829462E+01;
 -3.9999999E-02;  9.9999998E-03; -1.6000000E-01;379;  0.0000000E+00;  0.0000000E+00;  0.0000000E+00;  1.0000657E+03;  4.0000001E-01;  5.4418205E+01;0;  0.0000000E+00;  0.0000000E+00;  0.0000000E+00;0; -3.8821761E-02;  1.0000000E+04;  0.0000000E+00;  0.0000000E+00;  1.0000000E+04;  0.0000000E+00;  1.0000000E+04; -3.9925564E-02;  0.0000000E+00;  1.1038033E-03;  2.2542639E+01;
 -3.9999999E-02;  9.9999998E-03; -1.4000000E-01;380;  0.0000000E+00;  0.0000000E+00;  0.0000000E+00;  1.0000673E+03;  4.0000001E-01;  5.5702122E+01;0;  0.0000000E+00;  0.0000000E+00;  0.0000000E+00;0; -3.9781749E-02;  1.0000000E+04;  0.0000000E+00;  0.0000000E+00;  1.0000000E+04;  0.0000000E+00;  1.0000000E+04; -4.0789951E-02;  0.0000000E+00;  1.0082001E-03;  2.0936060E+01;
 -3.9999999E-02;  9.9999998E-03; -1.2000000E-01;381;  0.0000000E+00;  0.0000000E+00;  0.0000000E+00;  1.0000683E+03;  4.0000001E-01;  5.6590984E+01;0;  0.0000000E+00;  0.0000000E+00;  0.0000000E+00;0; -4.0408120E-02;  1.0000000E+04;  0.0000000E+00;  0.0000000E+00;  1.0000000E+04;  0.0000000E+00;  1.0000000E+04; -4.1288298E-02;  0.0000000E+00;  8.8017667E-04;  1.8783318E+01;
 -3.9999999E-02;  9.9999998E-03; -1.0000000E-01;382;  0.0000000E+00;  0.0000000E+00;  0.0000000E+00;  1.0000691E+03;  4.0000001E-01;  5.7282322E+01;0;  0.0000000E+00;  0.0000000E+00;  0.0000000E+00;0; -4.0786333E-02;  1.0000000E+04;  0.0000000E+00;  0.0000000E+00;  1.0000000E+04;  0.0000000E+00;  1.0000000E+04; -4.1533772E-02;  0.0000000E+00;  7.4744003E-04;  1.6545803E+01;
 -3.9999999E-02;  9.9999998E-03; -7.9999998E-02;383;  0.0000000E+00;  0.0000000E+00;  0.0000000E+00;  1.0000693E+03;  4.0000001E-01;  5.7381084E+01;0;  0.0000000E+00;  0.0000000E+00;  0.0000000E+00;0; -4.0993202E-02;  1.0000000E+04;  0.0000000E+00;  0.0000000E+00;  1.0000000E+04;  0.0000000E+00;  1.0000000E+04; -4.1618064E-02;  0.0000000E+00;  6.2486326E-04;  1.4478642E+01;
 -3.9999999E-02;  9.9999998E-03; -5.9999999E-02;384;  0.0000000E+00;  0.0000000E+00;  0.0000000E+00;  1.0000695E+03;  4.0000001E-01;  5.7578609E+01;0;  0.0000000E+00;  0.0000000E+00;  0.0000000E+00;0; -4.1091464E-02;  1.0000000E+04;  0.0000000E+00;  0.0000000E+00;  1.0000000E+04;  0.0000000E+00;  1.0000000E+04; -4.1613407E-02;  0.0000000E+00;  5.2194396E-04;  1.2744857E+01;
 -3.9999999E-02;  9.9999998E-03; -3.9999999E-02;385;  0.0000000E+00;  0.0000000E+00;  0.0000000E+00;  1.0000696E+03;  4.0000001E-01;  5.7677372E+01;0;  0.0000000E+00;  0.0000000E+00;  0.0000000E+00;0; -4.1128945E-02;  1.0000000E+04;  0.0000000E+00;  0.0000000E+00;  1.0000000E+04;  0.0000000E+00;  1.0000000E+04; -4.1573629E-02;  0.0000000E+00;  4.4468298E-04;  1.1445686E+01;
 -3.9999999E-02;  9.9999998E-03; -2.0000000E-02;386;  0.0000000E+00;  0.0000000E+00;  0.0000000E+00;  1.0000696E+03;  4.0000001E-01;  5.7677372E+01;0;  0.0000000E+00;  0.0000000E+00;  0.0000000E+00;0; -4.1138623E-02;  1.0000000E+04;  0.0000000E+00;  0.0000000E+00;  1.0000000E+04;  0.0000000E+00;  1.0000000E+04; -4.1535504E-02;  0.0000000E+00;  3.9688280E-04;  1.0643304E+01;
 -2.0000000E-02;  9.9999998E-03; -1.8000001E-01;419;  0.0000000E+00;  0.0000000E+00;  0.0000000E+00;  1.0000920E+03;  4.0000001E-01;  7.6244743E+01;0;  0.0000000E+00;  0.0000000E+00;  0.0000000E+00;0; -5.3863261E-02;  1.0000000E+04;  0.0000000E+00;  0.0000000E+00;  1.0000000E+04;  0.0000000E+00;  1.0000000E+04; -5.5718549E-02;  0.0000000E+00;  1.8552882E-03;  3.7164028E+01;
 -2.0000000E-02;  9.9999998E-03; -1.6000000E-01;420;  0.0000000E+00;  0.0000000E+00;  0.0000000E+00;  1.0000950E+03;  4.0000001E-01;  7.8713814E+01;0;  0.0000000E+00;  0.0000000E+00;  0.0000000E+00;0; -5.5772204E-02;  1.0000000E+04;  0.0000000E+00;  0.0000000E+00;  1.0000000E+04;  0.0000000E+00;  1.0000000E+04; -5.7605833E-02;  0.0000000E+00;  1.8336287E-03;  3.6662186E+01;
 -2.0000000E-02;  9.9999998E-03; -1.4000000E-01;421;  0.0000000E+00;  0.0000000E+00;  0.0000000E+00;  1.0000971E+03;  4.0000001E-01;  8.0491539E+01;0;  0.0000000E+00;  0.0000000E+00;  0.0000000E+00;0; -5.7101864E-02;  1.0000000E+04;  0.0000000E+00;  0.0000000E+00;  1.0000000E+04;  0.0000000E+00;  1.0000000E+04; -5.8784597E-02;  0.0000000E+00;  1.6827324E-03;  3.4019753E+01;
 -2.0000000E-02;  9.9999998E-03; -1.2000000E-01;422;  0.0000000E+00;  0.0000000E+00;  0.0000000E+00;  1.0000985E+03;  4.0000001E-01;  8.1577927E+01;0;  0.0000000E+00;  0.0000000E+00;  0.0000000E+00;0; -5.7970971E-02;  1.0000000E+04;  0.0000000E+00;  0.0000000E+00;  1.0000000E+04;  0.0000000E+00;  1.0000000E+04; -5.9447657E-02;  0.0000000E+00;  1.4766870E-03;  3.0459757E+01;
 -2.0000000E-02;  9.9999998E-03; -1.0000000E-01;423;  0.0000000E+00;  0.0000000E+00;  0.0000000E+00;  1.0000995E+03;  4.0000001E-01;  8.2466789E+01;0;  0.0000000E+00;  0.0000000E+00;  0.0000000E+00;0; -5.8496911E-02;  1.0000000E+04;  0.0000000E+00;  0.0000000E+00;  1.0000000E+04;  0.0000000E+00;  1.0000000E+04; -5.9756927E-02;  0.0000000E+00;  1.2600159E-03;  2.6729641E+01;
 -2.0000000E-02;  9.9999998E-03; -7.9999998E-02;424;  0.0000000E+00;  0.0000000E+00;  0.0000000E+00;  1.0001000E+03;  4.0000001E-01;  8.2861839E+01;0;  0.0000000E+00;  0.0000000E+00;  0.0000000E+00;0; -5.8785938E-02;  1.0000000E+04;  0.0000000E+00;  0.0000000E+00;  1.0000000E+04;  0.0000000E+00;  1.0000000E+04; -5.9844282E-02;  0.0000000E+00;  1.0583421E-03;  2.3267954E+01;
 -2.0000000E-02;  9.9999998E-03; -5.9999999E-02;425;  0.0000000E+00;  0.0000000E+00;  0.0000000E+00;  1.0001002E+03;  4.0000001E-01;  8.3059364E+01;0;  0.0000000E+00;  0.0000000E+00;  0.0000000E+00;0; -5.8924574E-02;  1.0000000E+04;  0.0000000E+00;  0.0000000E+00;  1.0000000E+04;  0.0000000E+00;  1.0000000E+04; -5.9812825E-02;  0.0000000E+00;  8.8825065E-04;  2.0357325E+01;
 -2.0000000E-02;  9.9999998E-03; -3.9999999E-02;426;  0.0000000E+00;  0.0000000E+00;  0.0000000E+00;  1.0001003E+03;  4.0000001E-01;  8.3059364E+01;0;  0.0000000E+00;  0.0000000E+00;  0.0000000E+00;0; -5.8978636E-02;  1.0000000E+04;  0.0000000E+00;  0.0000000E+00;  1.0000000E+04;  0.0000000E+00;  1.0000000E+04; -5.9738893E-02;  0.0000000E+00;  7.6025666E-04;  1.8173754E+01;
 -2.0000000E-02;  9.9999998E-03; -2.0000000E-02;427;  0.0000000E+00;  0.0000000E+00;  0.0000000E+00;  1.0001003E+03;  4.0000001E-01;  8.3158127E+01;0;  0.0000000E+00;  0.0000000E+00;  0.0000000E+00;0; -5.8993518E-02;  1.0000000E+04;  0.0000000E+00;  0.0000000E+00;  1.0000000E+04;  0.0000000E+00;  1.0000000E+04; -5.9674498E-02;  0.0000000E+00;  6.8097882E-04;  1.6824558E+01;
 -2.2000000E-01;  9.9999998E-03;  0.0000000E+00;19;  0.0000000E+00;  0.0000000E+00;  0.0000000E+00;  1.0000000E+03;  4.0000001E-01;  0.0000000E+00;0;  0.0000000E+00;  0.0000000E+00;  0.0000000E+00;0;  0.0000000E+00;  1.0000000E+04;  0.0000000E+00;  0.0000000E+00;  1.0000000E+04;  0.0000000E+00;  1.0000000E+04;  0.0000000E+00;  0.0000000E+00;  0.0000000E+00;  0.0000000E+00;
 -2.2000000E-01;  9.9999998E-03;  2.0000000E-02;20;  0.0000000E+00;  0.0000000E+00;  0.0000000E+00;  1.0000000E+03;  4.0000001E-01;  0.0000000E+00;0;  0.0000000E+00;  0.0000000E+00;  0.0000000E+00;0;  0.0000000E+00;  1.0000000E+04;  0.0000000E+00;  0.0000000E+00;  1.0000000E+04;  0.0000000E+00;  1.0000000E+04;  0.0000000E+00;  0.0000000E+00;  0.0000000E+00;  0.0000000E+00;
 -2.2000000E-01;  9.9999998E-03;  3.9999999E-02;21;  0.0000000E+00;  0.0000000E+00;  0.0000000E+00;  1.0000000E+03;  4.0000001E-01;  0.0000000E+00;0;  0.0000000E+00;  0.0000000E+00;  0.0000000E+00;0;  0.0000000E+00;  1.0000000E+04;  0.0000000E+00;  0.0000000E+00;  1.0000000E+04;  0.0000000E+00;  1.0000000E+04;  0.0000000E+00;  0.0000000E+00;  0.0000000E+00;  0.0000000E+00;
 -2.2000000E-01;  9.9999998E-03;  5.9999999E-02;22;  0.0000000E+00;  0.0000000E+00;  0.0000000E+00;  1.0000000E+03;  4.0000001E-01;  0.0000000E+00;0;  0.0000000E+00;  0.0000000E+00;  0.0000000E+00;0;  0.0000000E+00;  1.0000000E+04;  0.0000000E+00;  0.0000000E+00;  1.0000000E+04;  0.0000000E+00;  1.0000000E+04;  0.0000000E+00;  0.0000000E+00;  0.0000000E+00;  0.0000000E+00;
 -2.2000000E-01;  9.9999998E-03;  7.9999998E-02;23;  0.0000000E+00;  0.0000000E+00;  0.0000000E+00;  1.0000000E+03;  4.0000001E-01;  0.0000000E+00;0;  0.0000000E+00;  0.0000000E+00;  0.0000000E+00;0;  0.0000000E+00;  1.0000000E+04;  0.0000000E+00;  0.0000000E+00;  1.0000000E+04;  0.0000000E+00;  1.0000000E+04;  0.0000000E+00;  0.0000000E+00;  0.0000000E+00;  0.0000000E+00;
 -2.2000000E-01;  9.9999998E-03;  1.0000000E-01;24;  0.0000000E+00;  0.0000000E+00;  0.0000000E+00;  1.0000000E+03;  4.0000001E-01;  0.0000000E+00;0;  0.0000000E+00;  0.0000000E+00;  0.0000000E+00;0;  0.0000000E+00;  1.0000000E+04;  0.0000000E+00;  0.0000000E+00;  1.0000000E+04;  0.0000000E+00;  1.0000000E+04;  0.0000000E+00;  0.0000000E+00;  0.0000000E+00;  0.0000000E+00;
 -2.2000000E-01;  9.9999998E-03;  1.2000000E-01;25;  0.0000000E+00;  0.0000000E+00;  0.0000000E+00;  1.0000000E+03;  4.0000001E-01;  0.0000000E+00;0;  0.0000000E+00;  0.0000000E+00;  0.0000000E+00;0;  0.0000000E+00;  1.0000000E+04;  0.0000000E+00;  0.0000000E+00;  1.0000000E+04;  0.0000000E+00;  1.0000000E+04;  0.0000000E+00;  0.0000000E+00;  0.0000000E+00;  0.0000000E+00;
 -2.2000000E-01;  9.9999998E-03;  1.4000000E-01;26;  0.0000000E+00;  0.0000000E+00;  0.0000000E+00;  1.0000000E+03;  4.0000001E-01;  0.0000000E+00;0;  0.0000000E+00;  0.0000000E+00;  0.0000000E+00;0;  0.0000000E+00;  1.0000000E+04;  0.0000000E+00;  0.0000000E+00;  1.0000000E+04;  0.0000000E+00;  1.0000000E+04;  0.0000000E+00;  0.0000000E+00;  0.0000000E+00;  0.0000000E+00;
 -2.0000000E-01;  9.9999998E-03;  0.0000000E+00;59;  0.0000000E+00;  0.0000000E+00;  0.0000000E+00;  1.0000000E+03;  4.0000001E-01;  0.0000000E+00;0;  0.0000000E+00;  0.0000000E+00;  0.0000000E+00;0;  0.0000000E+00;  1.0000000E+04;  0.0000000E+00;  0.0000000E+00;  1.0000000E+04;  0.0000000E+00;  1.0000000E+04;  0.0000000E+00;  0.0000000E+00;  0.0000000E+00;  0.0000000E+00;
 -2.0000000E-01;  9.9999998E-03;  2.0000000E-02;60;  0.0000000E+00;  0.0000000E+00;  0.0000000E+00;  1.0000000E+03;  4.0000001E-01;  0.0000000E+00;0;  0.0000000E+00;  0.0000000E+00;  0.0000000E+00;0;  0.0000000E+00;  1.0000000E+04;  0.0000000E+00;  0.0000000E+00;  1.0000000E+04;  0.0000000E+00;  1.0000000E+04;  0.0000000E+00;  0.0000000E+00;  0.0000000E+00;  0.0000000E+00;
 -2.0000000E-01;  9.9999998E-03;  3.9999999E-02;61;  0.0000000E+00;  0.0000000E+00;  0.0000000E+00;  1.0000000E+03;  4.0000001E-01;  0.0000000E+00;0;  0.0000000E+00;  0.0000000E+00;  0.0000000E+00;0;  0.0000000E+00;  1.0000000E+04;  0.0000000E+00;  0.0000000E+00;  1.0000000E+04;  0.0000000E+00;  1.0000000E+04;  0.0000000E+00;  0.0000000E+00;  0.0000000E+00;  0.0000000E+00;
 -2.0000000E-01;  9.9999998E-03;  5.9999999E-02;62;  0.0000000E+00;  0.0000000E+00;  0.0000000E+00;  1.0000000E+03;  4.0000001E-01;  0.0000000E+00;0;  0.0000000E+00;  0.0000000E+00;  0.0000000E+00;0;  0.0000000E+00;  1.0000000E+04;  0.0000000E+00;  0.0000000E+00;  1.0000000E+04;  0.0000000E+00;  1.0000000E+04;  0.0000000E+00;  0.0000000E+00;  0.0000000E+00;  0.0000000E+00;
 -2.0000000E-01;  9.9999998E-03;  7.9999998E-02;63;  0.0000000E+00;  0.0000000E+00;  0.0000000E+00;  1.0000000E+03;  4.0000001E-01;  0.0000000E+00;0;  0.0000000E+00;  0.0000000E+00;  0.0000000E+00;0;  0.0000000E+00;  1.0000000E+04;  0.0000000E+00;  0.0000000E+00;  1.0000000E+04;  0.0000000E+00;  1.0000000E+04;  0.0000000E+00;  0.0000000E+00;  0.0000000E+00;  0.0000000E+00;
 -2.0000000E-01;  9.9999998E-03;  1.0000000E-01;64;  0.0000000E+00;  0.0000000E+00;  0.0000000E+00;  1.0000000E+03;  4.0000001E-01;  0.0000000E+00;0;  0.0000000E+00;  0.0000000E+00;  0.0000000E+00;0;  0.0000000E+00;  1.0000000E+04;  0.0000000E+00;  0.0000000E+00;  1.0000000E+04;  0.0000000E+00;  1.0000000E+04;  0.0000000E+00;  0.0000000E+00;  0.0000000E+00;  0.0000000E+00;
 -2.0000000E-01;  9.9999998E-03;  1.2000000E-01;65;  0.0000000E+00;  0.0000000E+00;  0.0000000E+00;  1.0000000E+03;  4.0000001E-01;  0.0000000E+00;0;  0.0000000E+00;  0.0000000E+00;  0.0000000E+00;0;  0.0000000E+00;  1.0000000E+04;  0.0000000E+00;  0.0000000E+00;  1.0000000E+04;  0.0000000E+00;  1.0000000E+04;  0.0000000E+00;  0.0000000E+00;  0.0000000E+00;  0.0000000E+00;
 -2.0000000E-01;  9.9999998E-03;  1.4000000E-01;66;  0.0000000E+00;  0.0000000E+00;  0.0000000E+00;  1.0000000E+03;  4.0000001E-01;  0.0000000E+00;0;  0.0000000E+00;  0.0000000E+00;  0.0000000E+00;0;  0.0000000E+00;  1.0000000E+04;  0.0000000E+00;  0.0000000E+00;  1.0000000E+04;  0.0000000E+00;  1.0000000E+04;  0.0000000E+00;  0.0000000E+00;  0.0000000E+00;  0.0000000E+00;
 -1.8000001E-01;  9.9999998E-03;  0.0000000E+00;100;  0.0000000E+00;  0.0000000E+00;  0.0000000E+00;  1.0000000E+03;  4.0000001E-01;  0.0000000E+00;0;  0.0000000E+00;  0.0000000E+00;  0.0000000E+00;0;  0.0000000E+00;  1.0000000E+04;  0.0000000E+00;  0.0000000E+00;  1.0000000E+04;  0.0000000E+00;  1.0000000E+04;  0.0000000E+00;  0.0000000E+00;  0.0000000E+00;  0.0000000E+00;
 -1.8000001E-01;  9.9999998E-03;  2.0000000E-02;101;  0.0000000E+00;  0.0000000E+00;  0.0000000E+00;  1.0000000E+03;  4.0000001E-01;  0.0000000E+00;0;  0.0000000E+00;  0.0000000E+00;  0.0000000E+00;0;  0.0000000E+00;  1.0000000E+04;  0.0000000E+00;  0.0000000E+00;  1.0000000E+04;  0.0000000E+00;  1.0000000E+04;  0.0000000E+00;  0.0000000E+00;  0.0000000E+00;  0.0000000E+00;
 -1.8000001E-01;  9.9999998E-03;  3.9999999E-02;102;  0.0000000E+00;  0.0000000E+00;  0.0000000E+00;  1.0000000E+03;  4.0000001E-01;  0.0000000E+00;0;  0.0000000E+00;  0.0000000E+00;  0.0000000E+00;0;  0.0000000E+00;  1.0000000E+04;  0.0000000E+00;  0.0000000E+00;  1.0000000E+04;  0.0000000E+00;  1.0000000E+04;  0.0000000E+00;  0.0000000E+00;  0.0000000E+00;  0.0000000E+00;
 -1.8000001E-01;  9.9999998E-03;  5.9999999E-02;103;  0.0000000E+00;  0.0000000E+00;  0.0000000E+00;  1.0000000E+03;  4.0000001E-01;  0.0000000E+00;0;  0.0000000E+00;  0.0000000E+00;  0.0000000E+00;0;  0.0000000E+00;  1.0000000E+04;  0.0000000E+00;  0.0000000E+00;  1.0000000E+04;  0.0000000E+00;  1.0000000E+04;  0.0000000E+00;  0.0000000E+00;  0.0000000E+00;  0.0000000E+00;
 -1.8000001E-01;  9.9999998E-03;  7.9999998E-02;104;  0.0000000E+00;  0.0000000E+00;  0.0000000E+00;  1.0000000E+03;  4.0000001E-01;  0.0000000E+00;0;  0.0000000E+00;  0.0000000E+00;  0.0000000E+00;0;  0.0000000E+00;  1.0000000E+04;  0.0000000E+00;  0.0000000E+00;  1.0000000E+04;  0.0000000E+00;  1.0000000E+04;  0.0000000E+00;  0.0000000E+00;  0.0000000E+00;  0.0000000E+00;
 -1.8000001E-01;  9.9999998E-03;  1.0000000E-01;105;  0.0000000E+00;  0.0000000E+00;  0.0000000E+00;  1.0000000E+03;  4.0000001E-01;  0.0000000E+00;0;  0.0000000E+00;  0.0000000E+00;  0.0000000E+00;0;  0.0000000E+00;  1.0000000E+04;  0.0000000E+00;  0.0000000E+00;  1.0000000E+04;  0.0000000E+00;  1.0000000E+04;  0.0000000E+00;  0.0000000E+00;  0.0000000E+00;  0.0000000E+00;
 -1.8000001E-01;  9.9999998E-03;  1.2000000E-01;106;  0.0000000E+00;  0.0000000E+00;  0.0000000E+00;  1.0000000E+03;  4.0000001E-01;  0.0000000E+00;0;  0.0000000E+00;  0.0000000E+00;  0.0000000E+00;0;  0.0000000E+00;  1.0000000E+04;  0.0000000E+00;  0.0000000E+00;  1.0000000E+04;  0.0000000E+00;  1.0000000E+04;  0.0000000E+00;  0.0000000E+00;  0.0000000E+00;  0.0000000E+00;
 -1.8000001E-01;  9.9999998E-03;  1.4000000E-01;107;  0.0000000E+00;  0.0000000E+00;  0.0000000E+00;  1.0000000E+03;  4.0000001E-01;  0.0000000E+00;0;  0.0000000E+00;  0.0000000E+00;  0.0000000E+00;0;  0.0000000E+00;  1.0000000E+04;  0.0000000E+00;  0.0000000E+00;  1.0000000E+04;  0.0000000E+00;  1.0000000E+04;  0.0000000E+00;  0.0000000E+00;  0.0000000E+00;  0.0000000E+00;
 -1.6000000E-01;  9.9999998E-03;  0.0000000E+00;141;  0.0000000E+00;  0.0000000E+00;  0.0000000E+00;  1.0000000E+03;  4.0000001E-01;  0.0000000E+00;0;  0.0000000E+00;  0.0000000E+00;  0.0000000E+00;0; -8.3451323E-06;  1.0000000E+04;  0.0000000E+00;  0.0000000E+00;  1.0000000E+04;  0.0000000E+00;  1.0000000E+04; -8.3487994E-06;  0.0000000E+00;  3.6667114E-09;  1.1119709E-03;
 -1.6000000E-01;  9.9999998E-03;  2.0000000E-02;142;  0.0000000E+00;  0.0000000E+00;  0.0000000E+00;  1.0000000E+03;  4.0000001E-01;  0.0000000E+00;0;  0.0000000E+00;  0.0000000E+00;  0.0000000E+00;0; -8.3493605E-06;  1.0000000E+04;  0.0000000E+00;  0.0000000E+00;  1.0000000E+04;  0.0000000E+00;  1.0000000E+04; -8.3532632E-06;  0.0000000E+00;  3.9023798E-09;  1.1162864E-03;
 -1.6000000E-01;  9.9999998E-03;  3.9999999E-02;143;  0.0000000E+00;  0.0000000E+00;  0.0000000E+00;  1.0000000E+03;  4.0000001E-01;  0.0000000E+00;0;  0.0000000E+00;  0.0000000E+00;  0.0000000E+00;0; -8.3607401E-06;  1.0000000E+04;  0.0000000E+00;  0.0000000E+00;  1.0000000E+04;  0.0000000E+00;  1.0000000E+04; -8.3653367E-06;  0.0000000E+00;  4.5966839E-09;  1.1289027E-03;
 -1.6000000E-01;  9.9999998E-03;  5.9999999E-02;144;  0.0000000E+00;  0.0000000E+00;  0.0000000E+00;  1.0000000E+03;  4.0000001E-01;  0.0000000E+00;0;  0.0000000E+00;  0.0000000E+00;  0.0000000E+00;0; -8.3752184E-06;  1.0000000E+04;  0.0000000E+00;  0.0000000E+00;  1.0000000E+04;  0.0000000E+00;  1.0000000E+04; -8.3809464E-06;  0.0000000E+00;  5.7281113E-09;  1.1490332E-03;
 -1.6000000E-01;  9.9999998E-03;  7.9999998E-02;145;  0.0000000E+00;  0.0000000E+00;  0.0000000E+00;  1.0000000E+03;  4.0000001E-01;  0.0000000E+00;0;  0.0000000E+00;  0.0000000E+00;  0.0000000E+00;0; -8.3858586E-06;  1.0000000E+04;  0.0000000E+00;  0.0000000E+00;  1.0000000E+04;  0.0000000E+00;  1.0000000E+04; -8.3930854E-06;  0.0000000E+00;  7.2272930E-09;  1.1749119E-03;
 -1.6000000E-01;  9.9999998E-03;  1.0000000E-01;146;  0.0000000E+00;  0.0000000E+00;  0.0000000E+00;  1.0000000E+03;  4.0000001E-01;  0.0000000E+00;0;  0.0000000E+00;  0.0000000E+00;  0.0000000E+00;0; -8.3822488E-06;  1.0000000E+04;  0.0000000E+00;  0.0000000E+00;  1.0000000E+04;  0.0000000E+00;  1.0000000E+04; -8.3913010E-06;  0.0000000E+00;  9.0519627E-09;  1.2046034E-03;
 -1.6000000E-01;  9.9999998E-03;  1.2000000E-01;147;  0.0000000E+00;  0.0000000E+00;  0.0000000E+00;  1.0000000E+03;  4.0000001E-01;  0.0000000E+00;0;  0.0000000E+00;  0.0000000E+00;  0.0000000E+00;0; -8.3502819E-06;  1.0000000E+04;  0.0000000E+00;  0.0000000E+00;  1.0000000E+04;  0.0000000E+00;  1.0000000E+04; -8.3613968E-06;  0.0000000E+00;  1.1114615E-08;  1.2350311E-03;
 -1.6000000E-01;  9.9999998E-03;  1.4000000E-01;148;  0.0000000E+00;  0.0000000E+00;  0.0000000E+00;  1.0000000E+03;  4.0000001E-01;  0.0000000E+00;0;  0.0000000E+00;  0.0000000E+00;  0.0000000E+00;0; -8.2715878E-06;  1.0000000E+04;  0.0000000E+00;  0.0000000E+00;  1.0000000E+04;  0.0000000E+00;  1.0000000E+04; -8.2849101E-06;  0.0000000E+00;  1.3321837E-08;  1.2621034E-03;
 -1.4000000E-01;  9.9999998E-03;  0.0000000E+00;182;  0.0000000E+00;  0.0000000E+00;  0.0000000E+00;  1.0000004E+03;  4.0000001E-01;  3.9505050E-01;0;  0.0000000E+00;  0.0000000E+00;  0.0000000E+00;0; -3.0723197E-04;  1.0000000E+04;  0.0000000E+00;  0.0000000E+00;  1.0000000E+04;  0.0000000E+00;  1.0000000E+04; -3.0773148E-04;  0.0000000E+00;  4.9951848E-07;  4.5639072E-02;
 -1.4000000E-01;  9.9999998E-03;  2.0000000E-02;183;  0.0000000E+00;  0.0000000E+00;  0.0000000E+00;  1.0000004E+03;  4.0000001E-01;  3.9505050E-01;0;  0.0000000E+00;  0.0000000E+00;  0.0000000E+00;0; -3.0733127E-04;  1.0000000E+04;  0.0000000E+00;  0.0000000E+00;  1.0000000E+04;  0.0000000E+00;  1.0000000E+04; -3.0785971E-04;  0.0000000E+00;  5.2842989E-07;  4.6116143E-02;
 -1.4000000E-01;  9.9999998E-03;  3.9999999E-02;184;  0.0000000E+00;  0.0000000E+00;  0.0000000E+00;  1.0000004E+03;  4.0000001E-01;  3.9505050E-01;0;  0.0000000E+00;  0.0000000E+00;  0.0000000E+00;0; -3.0758025E-04;  1.0000000E+04;  0.0000000E+00;  0.0000000E+00;  1.0000000E+04;  0.0000000E+00;  1.0000000E+04; -3.0819382E-04;  0.0000000E+00;  6.1357173E-07;  4.7520857E-02;
 -1.4000000E-01;  9.9999998E-03;  5.9999999E-02;185;  0.0000000E+00;  0.0000000E+00;  0.0000000E+00;  1.0000004E+03;  4.0000001E-01;  3.9505050E-01;0;  0.0000000E+00;  0.0000000E+00;  0.0000000E+00;0; -3.0782633E-04;  1.0000000E+04;  0.0000000E+00;  0.0000000E+00;  1.0000000E+04;  0.0000000E+00;  1.0000000E+04; -3.0857770E-04;  0.0000000E+00;  7.5138655E-07;  4.9786221E-02;
 -1.4000000E-01;  9.9999998E-03;  7.9999998E-02;186;  0.0000000E+00;  0.0000000E+00;  0.0000000E+00;  1.0000004E+03;  4.0000001E-01;  3.9505050E-01;0;  0.0000000E+00;  0.0000000E+00;  0.0000000E+00;0; -3.0780633E-04;  1.0000000E+04;  0.0000000E+00;  0.0000000E+00;  1.0000000E+04;  0.0000000E+00;  1.0000000E+04; -3.0874222E-04;  0.0000000E+00;  9.3588335E-07;  5.2797515E-02;
 -1.4000000E-01;  9.9999998E-03;  1.0000000E-01;187;  0.0000000E+00;  0.0000000E+00;  0.0000000E+00;  1.0000004E+03;  4.0000001E-01;  3.9505050E-01;0;  0.0000000E+00;  0.0000000E+00;  0.0000000E+00;0; -3.0713415E-04;  1.0000000E+04;  0.0000000E+00;  0.0000000E+00;  1.0000000E+04;  0.0000000E+00;  1.0000000E+04; -3.0829315E-04;  0.0000000E+00;  1.1589992E-06;  5.6384549E-02;
 -1.4000000E-01;  9.9999998E-03;  1.2000000E-01;188;  0.0000000E+00;  0.0000000E+00;  0.0000000E+00;  1.0000004E+03;  4.0000001E-01;  3.9505050E-01;0;  0.0000000E+00;  0.0000000E+00;  0.0000000E+00;0; -3.0528472E-04;  1.0000000E+04;  0.0000000E+00;  0.0000000E+00;  1.0000000E+04;  0.0000000E+00;  1.0000000E+04; -3.0669683E-04;  0.0000000E+00;  1.4121224E-06;  6.0339894E-02;
 -1.4000000E-01;  9.9999998E-03;  1.4000000E-01;189;  0.0000000E+00;  0.0000000E+00;  0.0000000E+00;  1.0000004E+03;  4.0000001E-01;  3.9505050E-01;0;  0.0000000E+00;  0.0000000E+00;  0.0000000E+00;0; -3.0159322E-04;  1.0000000E+04;  0.0000000E+00;  0.0000000E+00;  1.0000000E+04;  0.0000000E+00;  1.0000000E+04; -3.0327388E-04;  0.0000000E+00;  1.6806656E-06;  6.4338379E-02;
 -1.2000000E-01;  9.9999998E-03;  0.0000000E+00;223;  0.0000000E+00;  0.0000000E+00;  0.0000000E+00;  1.0000027E+03;  4.0000001E-01;  2.2715404E+00;0;  0.0000000E+00;  0.0000000E+00;  0.0000000E+00;0; -1.7040708E-03;  1.0000000E+04;  0.0000000E+00;  0.0000000E+00;  1.0000000E+04;  0.0000000E+00;  1.0000000E+04; -1.7091933E-03;  0.0000000E+00;  5.1224642E-06;  2.8436536E-01;
 -1.2000000E-01;  9.9999998E-03;  2.0000000E-02;224;  0.0000000E+00;  0.0000000E+00;  0.0000000E+00;  1.0000027E+03;  4.0000001E-01;  2.2715404E+00;0;  0.0000000E+00;  0.0000000E+00;  0.0000000E+00;0; -1.7044098E-03;  1.0000000E+04;  0.0000000E+00;  0.0000000E+00;  1.0000000E+04;  0.0000000E+00;  1.0000000E+04; -1.7098025E-03;  0.0000000E+00;  5.3926933E-06;  2.8878379E-01;
 -1.2000000E-01;  9.9999998E-03;  3.9999999E-02;225;  0.0000000E+00;  0.0000000E+00;  0.0000000E+00;  1.0000027E+03;  4.0000001E-01;  2.2715404E+00;0;  0.0000000E+00;  0.0000000E+00;  0.0000000E+00;0; -1.7051477E-03;  1.0000000E+04;  0.0000000E+00;  0.0000000E+00;  1.0000000E+04;  0.0000000E+00;  1.0000000E+04; -1.7113400E-03;  0.0000000E+00;  6.1923865E-06;  3.0185634E-01;
 -1.2000000E-01;  9.9999998E-03;  5.9999999E-02;226;  0.0000000E+00;  0.0000000E+00;  0.0000000E+00;  1.0000027E+03;  4.0000001E-01;  2.2715404E+00;0;  0.0000000E+00;  0.0000000E+00;  0.0000000E+00;0; -1.7054344E-03;  1.0000000E+04;  0.0000000E+00;  0.0000000E+00;  1.0000000E+04;  0.0000000E+00;  1.0000000E+04; -1.7129211E-03;  0.0000000E+00;  7.4867007E-06;  3.2299948E-01;
 -1.2000000E-01;  9.9999998E-03;  7.9999998E-02;227;  0.0000000E+00;  0.0000000E+00;  0.0000000E+00;  1.0000027E+03;  4.0000001E-01;  2.2715404E+00;0;  0.0000000E+00;  0.0000000E+00;  0.0000000E+00;0; -1.7038046E-03;  1.0000000E+04;  0.0000000E+00;  0.0000000E+00;  1.0000000E+04;  0.0000000E+00;  1.0000000E+04; -1.7130254E-03;  0.0000000E+00;  9.2207629E-06;  3.5123441E-01;
 -1.2000000E-01;  9.9999998E-03;  1.0000000E-01;228;  0.0000000E+00;  0.0000000E+00;  0.0000000E+00;  1.0000027E+03;  4.0000001E-01;  2.2715404E+00;0;  0.0000000E+00;  0.0000000E+00;  0.0000000E+00;0; -1.6981151E-03;  1.0000000E+04;  0.0000000E+00;  0.0000000E+00;  1.0000000E+04;  0.0000000E+00;  1.0000000E+04; -1.7094363E-03;  0.0000000E+00;  1.1321189E-05;  3.8516769E-01;
 -1.2000000E-01;  9.9999998E-03;  1.2000000E-01;229;  0.0000000E+00;  0.0000000E+00;  0.0000000E+00;  1.0000027E+03;  4.0000001E-01;  2.2715404E+00;0;  0.0000000E+00;  0.0000000E+00;  0.0000000E+00;0; -1.6854943E-03;  1.0000000E+04;  0.0000000E+00;  0.0000000E+00;  1.0000000E+04;  0.0000000E+00;  1.0000000E+04; -1.6991763E-03;  0.0000000E+00;  1.3681926E-05;  4.2273223E-01;
 -1.2000000E-01;  9.9999998E-03;  1.4000000E-01;230;  0.0000000E+00;  0.0000000E+00;  0.0000000E+00;  1.0000027E+03;  4.0000001E-01;  2.2715404E+00;0;  0.0000000E+00;  0.0000000E+00;  0.0000000E+00;0; -1.6623570E-03;  1.0000000E+04;  0.0000000E+00;  0.0000000E+00;  1.0000000E+04;  0.0000000E+00;  1.0000000E+04; -1.6784936E-03;  0.0000000E+00;  1.6136528E-05;  4.6069738E-01;
 -1.0000000E-01;  9.9999998E-03;  0.0000000E+00;264;  0.0000000E+00;  0.0000000E+00;  0.0000000E+00;  1.0000091E+03;  4.0000001E-01;  7.5059595E+00;0;  0.0000000E+00;  0.0000000E+00;  0.0000000E+00;0; -5.4360419E-03;  1.0000000E+04;  0.0000000E+00;  0.0000000E+00;  1.0000000E+04;  0.0000000E+00;  1.0000000E+04; -5.4605287E-03;  0.0000000E+00;  2.4486899E-05;  1.0169053E+00;
 -1.0000000E-01;  9.9999998E-03;  2.0000000E-02;265;  0.0000000E+00;  0.0000000E+00;  0.0000000E+00;  1.0000091E+03;  4.0000001E-01;  7.5059595E+00;0;  0.0000000E+00;  0.0000000E+00;  0.0000000E+00;0; -5.4366086E-03;  1.0000000E+04;  0.0000000E+00;  0.0000000E+00;  1.0000000E+04;  0.0000000E+00;  1.0000000E+04; -5.4622982E-03;  0.0000000E+00;  2.5689591E-05;  1.0365961E+00;
 -1.0000000E-01;  9.9999998E-03;  3.9999999E-02;266;  0.0000000E+00;  0.0000000E+00;  0.0000000E+00;  1.0000091E+03;  4.0000001E-01;  7.5059595E+00;0;  0.0000000E+00;  0.0000000E+00;  0.0000000E+00;0; -5.4374267E-03;  1.0000000E+04;  0.0000000E+00;  0.0000000E+00;  1.0000000E+04;  0.0000000E+00;  1.0000000E+04; -5.4666735E-03;  0.0000000E+00;  2.9246816E-05;  1.0948586E+00;
 -1.0000000E-01;  9.9999998E-03;  5.9999999E-02;267;  0.0000000E+00;  0.0000000E+00;  0.0000000E+00;  1.0000091E+03;  4.0000001E-01;  7.5059595E+00;0;  0.0000000E+00;  0.0000000E+00;  0.0000000E+00;0; -5.4357974E-03;  1.0000000E+04;  0.0000000E+00;  0.0000000E+00;  1.0000000E+04;  0.0000000E+00;  1.0000000E+04; -5.4708049E-03;  0.0000000E+00;  3.5007357E-05;  1.1892072E+00;
 -1.0000000E-01;  9.9999998E-03;  7.9999998E-02;268;  0.0000000E+00;  0.0000000E+00;  0.0000000E+00;  1.0000091E+03;  4.0000001E-01;  7.5059595E+00;0;  0.0000000E+00;  0.0000000E+00;  0.0000000E+00;0; -5.4270639E-03;  1.0000000E+04;  0.0000000E+00;  0.0000000E+00;  1.0000000E+04;  0.0000000E+00;  1.0000000E+04; -5.4697897E-03;  0.0000000E+00;  4.2725602E-05;  1.3154337E+00;
 -1.0000000E-01;  9.9999998E-03;  1.0000000E-01;269;  0.0000000E+00;  0.0000000E+00;  0.0000000E+00;  1.0000089E+03;  4.0000001E-01;  7.4071970E+00;0;  0.0000000E+00;  0.0000000E+00;  0.0000000E+00;0; -5.4044602E-03;  1.0000000E+04;  0.0000000E+00;  0.0000000E+00;  1.0000000E+04;  0.0000000E+00;  1.0000000E+04; -5.4565039E-03;  0.0000000E+00;  5.2043535E-05;  1.4671409E+00;
 -1.0000000E-01;  9.9999998E-03;  1.2000000E-01;270;  0.0000000E+00;  0.0000000E+00;  0.0000000E+00;  1.0000087E+03;  4.0000001E-01;  7.2096715E+00;0;  0.0000000E+00;  0.0000000E+00;  0.0000000E+00;0; -5.3589968E-03;  1.0000000E+04;  0.0000000E+00;  0.0000000E+00;  1.0000000E+04;  0.0000000E+00;  1.0000000E+04; -5.4214220E-03;  0.0000000E+00;  6.2425279E-05;  1.6344969E+00;
 -1.0000000E-01;  9.9999998E-03;  1.4000000E-01;271;  0.0000000E+00;  0.0000000E+00;  0.0000000E+00;  1.0000087E+03;  4.0000001E-01;  7.2096715E+00;0;  0.0000000E+00;  0.0000000E+00;  0.0000000E+00;0; -5.2795759E-03;  1.0000000E+04;  0.0000000E+00;  0.0000000E+00;  1.0000000E+04;  0.0000000E+00;  1.0000000E+04; -5.3525800E-03;  0.0000000E+00;  7.3004165E-05;  1.8017303E+00;
 -7.9999998E-02;  9.9999998E-03;  0.0000000E+00;305;  0.0000000E+00;  0.0000000E+00;  0.0000000E+00;  1.0000217E+03;  4.0000001E-01;  1.7974798E+01;0;  0.0000000E+00;  0.0000000E+00;  0.0000000E+00;0; -1.2924237E-02;  1.0000000E+04;  0.0000000E+00;  0.0000000E+00;  1.0000000E+04;  0.0000000E+00;  1.0000000E+04; -1.3002089E-02;  0.0000000E+00;  7.7851990E-05;  2.6850750E+00;
 -7.9999998E-02;  9.9999998E-03;  2.0000000E-02;306;  0.0000000E+00;  0.0000000E+00;  0.0000000E+00;  1.0000217E+03;  4.0000001E-01;  1.7974798E+01;0;  0.0000000E+00;  0.0000000E+00;  0.0000000E+00;0; -1.2924739E-02;  1.0000000E+04;  0.0000000E+00;  0.0000000E+00;  1.0000000E+04;  0.0000000E+00;  1.0000000E+04; -1.3006199E-02;  0.0000000E+00;  8.1460290E-05;  2.7444794E+00;
 -7.9999998E-02;  9.9999998E-03;  3.9999999E-02;307;  0.0000000E+00;  0.0000000E+00;  0.0000000E+00;  1.0000217E+03;  4.0000001E-01;  1.7974798E+01;0;  0.0000000E+00;  0.0000000E+00;  0.0000000E+00;0; -1.2924157E-02;  1.0000000E+04;  0.0000000E+00;  0.0000000E+00;  1.0000000E+04;  0.0000000E+00;  1.0000000E+04; -1.3016287E-02;  0.0000000E+00;  9.2130562E-05;  2.9202430E+00;
 -7.9999998E-02;  9.9999998E-03;  5.9999999E-02;308;  0.0000000E+00;  0.0000000E+00;  0.0000000E+00;  1.0000217E+03;  4.0000001E-01;  1.7974798E+01;0;  0.0000000E+00;  0.0000000E+00;  0.0000000E+00;0; -1.2916150E-02;  1.0000000E+04;  0.0000000E+00;  0.0000000E+00;  1.0000000E+04;  0.0000000E+00;  1.0000000E+04; -1.3025556E-02;  0.0000000E+00;  1.0940653E-04;  3.2049809E+00;
 -7.9999998E-02;  9.9999998E-03;  7.9999998E-02;309;  0.0000000E+00;  0.0000000E+00;  0.0000000E+00;  1.0000217E+03;  4.0000001E-01;  1.7974798E+01;0;  0.0000000E+00;  0.0000000E+00;  0.0000000E+00;0; -1.2889790E-02;  1.0000000E+04;  0.0000000E+00;  0.0000000E+00;  1.0000000E+04;  0.0000000E+00;  1.0000000E+04; -1.3022311E-02;  0.0000000E+00;  1.3252087E-04;  3.5858335E+00;
 -7.9999998E-02;  9.9999998E-03;  1.0000000E-01;310;  0.0000000E+00;  0.0000000E+00;  0.0000000E+00;  1.0000217E+03;  4.0000001E-01;  1.7974798E+01;0;  0.0000000E+00;  0.0000000E+00;  0.0000000E+00;0; -1.2829253E-02;  1.0000000E+04;  0.0000000E+00;  0.0000000E+00;  1.0000000E+04;  0.0000000E+00;  1.0000000E+04; -1.2989566E-02;  0.0000000E+00;  1.6031209E-04;  4.0426002E+00;
 -7.9999998E-02;  9.9999998E-03;  1.2000000E-01;311;  0.0000000E+00;  0.0000000E+00;  0.0000000E+00;  1.0000212E+03;  4.0000001E-01;  1.7579746E+01;0;  0.0000000E+00;  0.0000000E+00;  0.0000000E+00;0; -1.2713647E-02;  1.0000000E+04;  0.0000000E+00;  0.0000000E+00;  1.0000000E+04;  0.0000000E+00;  1.0000000E+04; -1.2904623E-02;  0.0000000E+00;  1.9097500E-04;  4.5432730E+00;
 -7.9999998E-02;  9.9999998E-03;  1.4000000E-01;312;  0.0000000E+00;  0.0000000E+00;  0.0000000E+00;  1.0000209E+03;  4.0000001E-01;  1.7283459E+01;0;  0.0000000E+00;  0.0000000E+00;  0.0000000E+00;0; -1.2517351E-02;  1.0000000E+04;  0.0000000E+00;  0.0000000E+00;  1.0000000E+04;  0.0000000E+00;  1.0000000E+04; -1.2738945E-02;  0.0000000E+00;  2.2159457E-04;  5.0365562E+00;
 -5.9999999E-02;  9.9999998E-03;  0.0000000E+00;346;  0.0000000E+00;  0.0000000E+00;  0.0000000E+00;  1.0000421E+03;  4.0000001E-01;  3.4863205E+01;0;  0.0000000E+00;  0.0000000E+00;  0.0000000E+00;0; -2.5011385E-02;  1.0000000E+04;  0.0000000E+00;  0.0000000E+00;  1.0000000E+04;  0.0000000E+00;  1.0000000E+04; -2.5201162E-02;  0.0000000E+00;  1.8977823E-04;  5.7324162E+00;
 -5.9999999E-02;  9.9999998E-03;  2.0000000E-02;347;  0.0000000E+00;  0.0000000E+00;  0.0000000E+00;  1.0000421E+03;  4.0000001E-01;  3.4863205E+01;0;  0.0000000E+00;  0.0000000E+00;  0.0000000E+00;0; -2.5011290E-02;  1.0000000E+04;  0.0000000E+00;  0.0000000E+00;  1.0000000E+04;  0.0000000E+00;  1.0000000E+04; -2.5209455E-02;  0.0000000E+00;  1.9816574E-04;  5.8716083E+00;
 -5.9999999E-02;  9.9999998E-03;  3.9999999E-02;348;  0.0000000E+00;  0.0000000E+00;  0.0000000E+00;  1.0000421E+03;  4.0000001E-01;  3.4863205E+01;0;  0.0000000E+00;  0.0000000E+00;  0.0000000E+00;0; -2.5007049E-02;  1.0000000E+04;  0.0000000E+00;  0.0000000E+00;  1.0000000E+04;  0.0000000E+00;  1.0000000E+04; -2.5230009E-02;  0.0000000E+00;  2.2296088E-04;  6.2834120E+00;
 -5.9999999E-02;  9.9999998E-03;  5.9999999E-02;349;  0.0000000E+00;  0.0000000E+00;  0.0000000E+00;  1.0000421E+03;  4.0000001E-01;  3.4863205E+01;0;  0.0000000E+00;  0.0000000E+00;  0.0000000E+00;0; -2.4986636E-02;  1.0000000E+04;  0.0000000E+00;  0.0000000E+00;  1.0000000E+04;  0.0000000E+00;  1.0000000E+04; -2.5249714E-02;  0.0000000E+00;  2.6307767E-04;  6.9504371E+00;
 -5.9999999E-02;  9.9999998E-03;  7.9999998E-02;350;  0.0000000E+00;  0.0000000E+00;  0.0000000E+00;  1.0000419E+03;  4.0000001E-01;  3.4665680E+01;0;  0.0000000E+00;  0.0000000E+00;  0.0000000E+00;0; -2.4929333E-02;  1.0000000E+04;  0.0000000E+00;  0.0000000E+00;  1.0000000E+04;  0.0000000E+00;  1.0000000E+04; -2.5245978E-02;  0.0000000E+00;  3.1664319E-04;  7.8417187E+00;
 -5.9999999E-02;  9.9999998E-03;  1.0000000E-01;351;  0.0000000E+00;  0.0000000E+00;  0.0000000E+00;  1.0000417E+03;  4.0000001E-01;  3.4566917E+01;0;  0.0000000E+00;  0.0000000E+00;  0.0000000E+00;0; -2.4805224E-02;  1.0000000E+04;  0.0000000E+00;  0.0000000E+00;  1.0000000E+04;  0.0000000E+00;  1.0000000E+04; -2.5185965E-02;  0.0000000E+00;  3.8074146E-04;  8.9074640E+00;
 -5.9999999E-02;  9.9999998E-03;  1.2000000E-01;352;  0.0000000E+00;  0.0000000E+00;  0.0000000E+00;  1.0000416E+03;  4.0000001E-01;  3.4468155E+01;0;  0.0000000E+00;  0.0000000E+00;  0.0000000E+00;0; -2.4574911E-02;  1.0000000E+04;  0.0000000E+00;  0.0000000E+00;  1.0000000E+04;  0.0000000E+00;  1.0000000E+04; -2.5025686E-02;  0.0000000E+00;  4.5077439E-04;  1.0067774E+01;
 -5.9999999E-02;  9.9999998E-03;  1.4000000E-01;353;  0.0000000E+00;  0.0000000E+00;  0.0000000E+00;  1.0000407E+03;  4.0000001E-01;  3.3776817E+01;0;  0.0000000E+00;  0.0000000E+00;  0.0000000E+00;0; -2.4190284E-02;  1.0000000E+04;  0.0000000E+00;  0.0000000E+00;  1.0000000E+04;  0.0000000E+00;  1.0000000E+04; -2.4709703E-02;  0.0000000E+00;  5.1941845E-04;  1.1195982E+01;
 -3.9999999E-02;  9.9999998E-03;  0.0000000E+00;387;  0.0000000E+00;  0.0000000E+00;  0.0000000E+00;  1.0000696E+03;  4.0000001E-01;  5.7677372E+01;0;  0.0000000E+00;  0.0000000E+00;  0.0000000E+00;0; -4.1139759E-02;  1.0000000E+04;  0.0000000E+00;  0.0000000E+00;  1.0000000E+04;  0.0000000E+00;  1.0000000E+04; -4.1520469E-02;  0.0000000E+00;  3.8070919E-04;  1.0372094E+01;
 -3.9999999E-02;  9.9999998E-03;  2.0000000E-02;388;  0.0000000E+00;  0.0000000E+00;  0.0000000E+00;  1.0000696E+03;  4.0000001E-01;  5.7677372E+01;0;  0.0000000E+00;  0.0000000E+00;  0.0000000E+00;0; -4.1138630E-02;  1.0000000E+04;  0.0000000E+00;  0.0000000E+00;  1.0000000E+04;  0.0000000E+00;  1.0000000E+04; -4.1535512E-02;  0.0000000E+00;  3.9688303E-04;  1.0643306E+01;
 -3.9999999E-02;  9.9999998E-03;  3.9999999E-02;389;  0.0000000E+00;  0.0000000E+00;  0.0000000E+00;  1.0000696E+03;  4.0000001E-01;  5.7677372E+01;0;  0.0000000E+00;  0.0000000E+00;  0.0000000E+00;0; -4.1128952E-02;  1.0000000E+04;  0.0000000E+00;  0.0000000E+00;  1.0000000E+04;  0.0000000E+00;  1.0000000E+04; -4.1573636E-02;  0.0000000E+00;  4.4468333E-04;  1.1445687E+01;
 -3.9999999E-02;  9.9999998E-03;  5.9999999E-02;390;  0.0000000E+00;  0.0000000E+00;  0.0000000E+00;  1.0000695E+03;  4.0000001E-01;  5.7578609E+01;0;  0.0000000E+00;  0.0000000E+00;  0.0000000E+00;0; -4.1091457E-02;  1.0000000E+04;  0.0000000E+00;  0.0000000E+00;  1.0000000E+04;  0.0000000E+00;  1.0000000E+04; -4.1613400E-02;  0.0000000E+00;  5.2194420E-04;  1.2744859E+01;
 -3.9999999E-02;  9.9999998E-03;  7.9999998E-02;391;  0.0000000E+00;  0.0000000E+00;  0.0000000E+00;  1.0000693E+03;  4.0000001E-01;  5.7381084E+01;0;  0.0000000E+00;  0.0000000E+00;  0.0000000E+00;0; -4.0993188E-02;  1.0000000E+04;  0.0000000E+00;  0.0000000E+00;  1.0000000E+04;  0.0000000E+00;  1.0000000E+04; -4.1618053E-02;  0.0000000E+00;  6.2486361E-04;  1.4478645E+01;
 -3.9999999E-02;  9.9999998E-03;  1.0000000E-01;392;  0.0000000E+00;  0.0000000E+00;  0.0000000E+00;  1.0000691E+03;  4.0000001E-01;  5.7282322E+01;0;  0.0000000E+00;  0.0000000E+00;  0.0000000E+00;0; -4.0786333E-02;  1.0000000E+04;  0.0000000E+00;  0.0000000E+00;  1.0000000E+04;  0.0000000E+00;  1.0000000E+04; -4.1533772E-02;  0.0000000E+00;  7.4744009E-04;  1.6545801E+01;
 -3.9999999E-02;  9.9999998E-03;  1.2000000E-01;393;  0.0000000E+00;  0.0000000E+00;  0.0000000E+00;  1.0000683E+03;  4.0000001E-01;  5.6590984E+01;0;  0.0000000E+00;  0.0000000E+00;  0.0000000E+00;0; -4.0408131E-02;  1.0000000E+04;  0.0000000E+00;  0.0000000E+00;  1.0000000E+04;  0.0000000E+00;  1.0000000E+04; -4.1288309E-02;  0.0000000E+00;  8.8017719E-04;  1.8783318E+01;
 -3.9999999E-02;  9.9999998E-03;  1.4000000E-01;394;  0.0000000E+00;  0.0000000E+00;  0.0000000E+00;  1.0000673E+03;  4.0000001E-01;  5.5702122E+01;0;  0.0000000E+00;  0.0000000E+00;  0.0000000E+00;0; -3.9781764E-02;  1.0000000E+04;  0.0000000E+00;  0.0000000E+00;  1.0000000E+04;  0.0000000E+00;  1.0000000E+04; -4.0789966E-02;  0.0000000E+00;  1.0082008E-03;  2.0936062E+01;
 -2.0000000E-02;  9.9999998E-03;  0.0000000E+00;428;  0.0000000E+00;  0.0000000E+00;  0.0000000E+00;  1.0001003E+03;  4.0000001E-01;  8.3158127E+01;0;  0.0000000E+00;  0.0000000E+00;  0.0000000E+00;0; -5.8995582E-02;  1.0000000E+04;  0.0000000E+00;  0.0000000E+00;  1.0000000E+04;  0.0000000E+00;  1.0000000E+04; -5.9649728E-02;  0.0000000E+00;  6.5414514E-04;  1.6368502E+01;
 -2.0000000E-02;  9.9999998E-03;  2.0000000E-02;429;  0.0000000E+00;  0.0000000E+00;  0.0000000E+00;  1.0001003E+03;  4.0000001E-01;  8.3158127E+01;0;  0.0000000E+00;  0.0000000E+00;  0.0000000E+00;0; -5.8993522E-02;  1.0000000E+04;  0.0000000E+00;  0.0000000E+00;  1.0000000E+04;  0.0000000E+00;  1.0000000E+04; -5.9674501E-02;  0.0000000E+00;  6.8097911E-04;  1.6824562E+01;
 -2.0000000E-02;  9.9999998E-03;  3.9999999E-02;430;  0.0000000E+00;  0.0000000E+00;  0.0000000E+00;  1.0001003E+03;  4.0000001E-01;  8.3059364E+01;0;  0.0000000E+00;  0.0000000E+00;  0.0000000E+00;0; -5.8978621E-02;  1.0000000E+04;  0.0000000E+00;  0.0000000E+00;  1.0000000E+04;  0.0000000E+00;  1.0000000E+04; -5.9738878E-02;  0.0000000E+00;  7.6025707E-04;  1.8173756E+01;
 -2.0000000E-02;  9.9999998E-03;  5.9999999E-02;431;  0.0000000E+00;  0.0000000E+00;  0.0000000E+00;  1.0001002E+03;  4.0000001E-01;  8.3059364E+01;0;  0.0000000E+00;  0.0000000E+00;  0.0000000E+00;0; -5.8924593E-02;  1.0000000E+04;  0.0000000E+00;  0.0000000E+00;  1.0000000E+04;  0.0000000E+00;  1.0000000E+04; -5.9812844E-02;  0.0000000E+00;  8.8825141E-04;  2.0357330E+01;
 -2.0000000E-02;  9.9999998E-03;  7.9999998E-02;432;  0.0000000E+00;  0.0000000E+00;  0.0000000E+00;  1.0001000E+03;  4.0000001E-01;  8.2861839E+01;0;  0.0000000E+00;  0.0000000E+00;  0.0000000E+00;0; -5.8785919E-02;  1.0000000E+04;  0.0000000E+00;  0.0000000E+00;  1.0000000E+04;  0.0000000E+00;  1.0000000E+04; -5.9844263E-02;  0.0000000E+00;  1.0583425E-03;  2.3267956E+01;
 -2.0000000E-02;  9.9999998E-03;  1.0000000E-01;433;  0.0000000E+00;  0.0000000E+00;  0.0000000E+00;  1.0000995E+03;  4.0000001E-01;  8.2466789E+01;0;  0.0000000E+00;  0.0000000E+00;  0.0000000E+00;0; -5.8496922E-02;  1.0000000E+04;  0.0000000E+00;  0.0000000E+00;  1.0000000E+04;  0.0000000E+00;  1.0000000E+04; -5.9756938E-02;  0.0000000E+00;  1.2600160E-03;  2.6729645E+01;
 -2.0000000E-02;  9.9999998E-03;  1.2000000E-01;434;  0.0000000E+00;  0.0000000E+00;  0.0000000E+00;  1.0000985E+03;  4.0000001E-01;  8.1577927E+01;0;  0.0000000E+00;  0.0000000E+00;  0.0000000E+00;0; -5.7970963E-02;  1.0000000E+04;  0.0000000E+00;  0.0000000E+00;  1.0000000E+04;  0.0000000E+00;  1.0000000E+04; -5.9447650E-02;  0.0000000E+00;  1.4766874E-03;  3.0459757E+01;
 -2.0000000E-02;  9.9999998E-03;  1.4000000E-01;435;  0.0000000E+00;  0.0000000E+00;  0.0000000E+00;  1.0000971E+03;  4.0000001E-01;  8.0491539E+01;0;  0.0000000E+00;  0.0000000E+00;  0.0000000E+00;0; -5.7101846E-02;  1.0000000E+04;  0.0000000E+00;  0.0000000E+00;  1.0000000E+04;  0.0000000E+00;  1.0000000E+04; -5.8784578E-02;  0.0000000E+00;  1.6827324E-03;  3.4019749E+01;
 -2.2000000E-01;  9.9999998E-03;  1.6000000E-01;27;  0.0000000E+00;  0.0000000E+00;  0.0000000E+00;  1.0000000E+03;  4.0000001E-01;  0.0000000E+00;0;  0.0000000E+00;  0.0000000E+00;  0.0000000E+00;0;  0.0000000E+00;  1.0000000E+04;  0.0000000E+00;  0.0000000E+00;  1.0000000E+04;  0.0000000E+00;  1.0000000E+04;  0.0000000E+00;  0.0000000E+00;  0.0000000E+00;  0.0000000E+00;
 -2.2000000E-01;  9.9999998E-03;  1.8000001E-01;28;  0.0000000E+00;  0.0000000E+00;  0.0000000E+00;  1.0000000E+03;  4.0000001E-01;  0.0000000E+00;0;  0.0000000E+00;  0.0000000E+00;  0.0000000E+00;0;  0.0000000E+00;  1.0000000E+04;  0.0000000E+00;  0.0000000E+00;  1.0000000E+04;  0.0000000E+00;  1.0000000E+04;  0.0000000E+00;  0.0000000E+00;  0.0000000E+00;  0.0000000E+00;
 -2.2000000E-01;  9.9999998E-03;  2.0000000E-01;29;  0.0000000E+00;  0.0000000E+00;  0.0000000E+00;  1.0000000E+03;  4.0000001E-01;  0.0000000E+00;0;  0.0000000E+00;  0.0000000E+00;  0.0000000E+00;0;  0.0000000E+00;  1.0000000E+04;  0.0000000E+00;  0.0000000E+00;  1.0000000E+04;  0.0000000E+00;  1.0000000E+04;  0.0000000E+00;  0.0000000E+00;  0.0000000E+00;  0.0000000E+00;
 -2.2000000E-01;  9.9999998E-03;  2.2000000E-01;30;  0.0000000E+00;  0.0000000E+00;  0.0000000E+00;  1.0000000E+03;  4.0000001E-01;  0.0000000E+00;0;  0.0000000E+00;  0.0000000E+00;  0.0000000E+00;0;  0.0000000E+00;  1.0000000E+04;  0.0000000E+00;  0.0000000E+00;  1.0000000E+04;  0.0000000E+00;  1.0000000E+04;  0.0000000E+00;  0.0000000E+00;  0.0000000E+00;  0.0000000E+00;
 -2.2000000E-01;  9.9999998E-03;  2.3999999E-01;31;  0.0000000E+00;  0.0000000E+00;  0.0000000E+00;  1.0000000E+03;  4.0000001E-01;  0.0000000E+00;0;  0.0000000E+00;  0.0000000E+00;  0.0000000E+00;0;  0.0000000E+00;  1.0000000E+04;  0.0000000E+00;  0.0000000E+00;  1.0000000E+04;  0.0000000E+00;  1.0000000E+04;  0.0000000E+00;  0.0000000E+00;  0.0000000E+00;  0.0000000E+00;
 -2.2000000E-01;  9.9999998E-03;  2.5999999E-01;32;  0.0000000E+00;  0.0000000E+00;  0.0000000E+00;  1.0000000E+03;  4.0000001E-01;  0.0000000E+00;0;  0.0000000E+00;  0.0000000E+00;  0.0000000E+00;0;  0.0000000E+00;  1.0000000E+04;  0.0000000E+00;  0.0000000E+00;  1.0000000E+04;  0.0000000E+00;  1.0000000E+04;  0.0000000E+00;  0.0000000E+00;  0.0000000E+00;  0.0000000E+00;
 -2.2000000E-01;  9.9999998E-03;  2.8000000E-01;33;  0.0000000E+00;  0.0000000E+00;  0.0000000E+00;  1.0000000E+03;  4.0000001E-01;  0.0000000E+00;0;  0.0000000E+00;  0.0000000E+00;  0.0000000E+00;0;  0.0000000E+00;  1.0000000E+04;  0.0000000E+00;  0.0000000E+00;  1.0000000E+04;  0.0000000E+00;  1.0000000E+04;  0.0000000E+00;  0.0000000E+00;  0.0000000E+00;  0.0000000E+00;
 -2.2000000E-01;  9.9999998E-03;  3.0000001E-01;34;  0.0000000E+00;  0.0000000E+00;  0.0000000E+00;  1.0000000E+03;  4.0000001E-01;  0.0000000E+00;0;  0.0000000E+00;  0.0000000E+00;  0.0000000E+00;0;  0.0000000E+00;  1.0000000E+04;  0.0000000E+00;  0.0000000E+00;  1.0000000E+04;  0.0000000E+00;  1.0000000E+04;  0.0000000E+00;  0.0000000E+00;  0.0000000E+00;  0.0000000E+00;
 -2.2000000E-01;  9.9999998E-03;  3.1999999E-01;35;  0.0000000E+00;  0.0000000E+00;  0.0000000E+00;  1.0000000E+03;  4.0000001E-01;  0.0000000E+00;0;  0.0000000E+00;  0.0000000E+00;  0.0000000E+00;0;  0.0000000E+00;  1.0000000E+04;  0.0000000E+00;  0.0000000E+00;  1.0000000E+04;  0.0000000E+00;  1.0000000E+04;  0.0000000E+00;  0.0000000E+00;  0.0000000E+00;  0.0000000E+00;
 -2.0000000E-01;  9.9999998E-03;  1.6000000E-01;67;  0.0000000E+00;  0.0000000E+00;  0.0000000E+00;  1.0000000E+03;  4.0000001E-01;  0.0000000E+00;0;  0.0000000E+00;  0.0000000E+00;  0.0000000E+00;0;  0.0000000E+00;  1.0000000E+04;  0.0000000E+00;  0.0000000E+00;  1.0000000E+04;  0.0000000E+00;  1.0000000E+04;  0.0000000E+00;  0.0000000E+00;  0.0000000E+00;  0.0000000E+00;
 -2.0000000E-01;  9.9999998E-03;  1.8000001E-01;68;  0.0000000E+00;  0.0000000E+00;  0.0000000E+00;  1.0000000E+03;  4.0000001E-01;  0.0000000E+00;0;  0.0000000E+00;  0.0000000E+00;  0.0000000E+00;0;  0.0000000E+00;  1.0000000E+04;  0.0000000E+00;  0.0000000E+00;  1.0000000E+04;  0.0000000E+00;  1.0000000E+04;  0.0000000E+00;  0.0000000E+00;  0.0000000E+00;  0.0000000E+00;
 -2.0000000E-01;  9.9999998E-03;  2.0000000E-01;69;  0.0000000E+00;  0.0000000E+00;  0.0000000E+00;  1.0000000E+03;  4.0000001E-01;  0.0000000E+00;0;  0.0000000E+00;  0.0000000E+00;  0.0000000E+00;0;  0.0000000E+00;  1.0000000E+04;  0.0000000E+00;  0.0000000E+00;  1.0000000E+04;  0.0000000E+00;  1.0000000E+04;  0.0000000E+00;  0.0000000E+00;  0.0000000E+00;  0.0000000E+00;
 -2.0000000E-01;  9.9999998E-03;  2.2000000E-01;70;  0.0000000E+00;  0.0000000E+00;  0.0000000E+00;  1.0000000E+03;  4.0000001E-01;  0.0000000E+00;0;  0.0000000E+00;  0.0000000E+00;  0.0000000E+00;0;  0.0000000E+00;  1.0000000E+04;  0.0000000E+00;  0.0000000E+00;  1.0000000E+04;  0.0000000E+00;  1.0000000E+04;  0.0000000E+00;  0.0000000E+00;  0.0000000E+00;  0.0000000E+00;
 -2.0000000E-01;  9.9999998E-03;  2.3999999E-01;71;  0.0000000E+00;  0.0000000E+00;  0.0000000E+00;  1.0000000E+03;  4.0000001E-01;  0.0000000E+00;0;  0.0000000E+00;  0.0000000E+00;  0.0000000E+00;0;  0.0000000E+00;  1.0000000E+04;  0.0000000E+00;  0.0000000E+00;  1.0000000E+04;  0.0000000E+00;  1.0000000E+04;  0.0000000E+00;  0.0000000E+00;  0.0000000E+00;  0.0000000E+00;
 -2.0000000E-01;  9.9999998E-03;  2.5999999E-01;72;  0.0000000E+00;  0.0000000E+00;  0.0000000E+00;  1.0000000E+03;  4.0000001E-01;  0.0000000E+00;0;  0.0000000E+00;  0.0000000E+00;  0.0000000E+00;0;  0.0000000E+00;  1.0000000E+04;  0.0000000E+00;  0.0000000E+00;  1.0000000E+04;  0.0000000E+00;  1.0000000E+04;  0.0000000E+00;  0.0000000E+00;  0.0000000E+00;  0.0000000E+00;
 -2.0000000E-01;  9.9999998E-03;  2.8000000E-01;73;  0.0000000E+00;  0.0000000E+00;  0.0000000E+00;  1.0000000E+03;  4.0000001E-01;  0.0000000E+00;0;  0.0000000E+00;  0.0000000E+00;  0.0000000E+00;0;  0.0000000E+00;  1.0000000E+04;  0.0000000E+00;  0.0000000E+00;  1.0000000E+04;  0.0000000E+00;  1.0000000E+04;  0.0000000E+00;  0.0000000E+00;  0.0000000E+00;  0.0000000E+00;
 -2.0000000E-01;  9.9999998E-03;  3.0000001E-01;74;  0.0000000E+00;  0.0000000E+00;  0.0000000E+00;  1.0000000E+03;  4.0000001E-01;  0.0000000E+00;0;  0.0000000E+00;  0.0000000E+00;  0.0000000E+00;0;  0.0000000E+00;  1.0000000E+04;  0.0000000E+00;  0.0000000E+00;  1.0000000E+04;  0.0000000E+00;  1.0000000E+04;  0.0000000E+00;  0.0000000E+00;  0.0000000E+00;  0.0000000E+00;
 -2.0000000E-01;  9.9999998E-03;  3.1999999E-01;75;  0.0000000E+00;  0.0000000E+00;  0.0000000E+00;  1.0000000E+03;  4.0000001E-01;  0.0000000E+00;0;  0.0000000E+00;  0.0000000E+00;  0.0000000E+00;0;  0.0000000E+00;  1.0000000E+04;  0.0000000E+00;  0.0000000E+00;  1.0000000E+04;  0.0000000E+00;  1.0000000E+04;  0.0000000E+00;  0.0000000E+00;  0.0000000E+00;  0.0000000E+00;
 -1.8000001E-01;  9.9999998E-03;  1.6000000E-01;108;  0.0000000E+00;  0.0000000E+00;  0.0000000E+00;  1.0000000E+03;  4.0000001E-01;  0.0000000E+00;0;  0.0000000E+00;  0.0000000E+00;  0.0000000E+00;0;  0.0000000E+00;  1.0000000E+04;  0.0000000E+00;  0.0000000E+00;  1.0000000E+04;  0.0000000E+00;  1.0000000E+04;  0.0000000E+00;  0.0000000E+00;  0.0000000E+00;  0.0000000E+00;
 -1.8000001E-01;  9.9999998E-03;  1.8000001E-01;109;  0.0000000E+00;  0.0000000E+00;  0.0000000E+00;  1.0000000E+03;  4.0000001E-01;  0.0000000E+00;0;  0.0000000E+00;  0.0000000E+00;  0.0000000E+00;0;  0.0000000E+00;  1.0000000E+04;  0.0000000E+00;  0.0000000E+00;  1.0000000E+04;  0.0000000E+00;  1.0000000E+04;  0.0000000E+00;  0.0000000E+00;  0.0000000E+00;  0.0000000E+00;
 -1.8000001E-01;  9.9999998E-03;  2.0000000E-01;110;  0.0000000E+00;  0.0000000E+00;  0.0000000E+00;  1.0000000E+03;  4.0000001E-01;  0.0000000E+00;0;  0.0000000E+00;  0.0000000E+00;  0.0000000E+00;0;  0.0000000E+00;  1.0000000E+04;  0.0000000E+00;  0.0000000E+00;  1.0000000E+04;  0.0000000E+00;  1.0000000E+04;  0.0000000E+00;  0.0000000E+00;  0.0000000E+00;  0.0000000E+00;
 -1.8000001E-01;  9.9999998E-03;  2.2000000E-01;111;  0.0000000E+00;  0.0000000E+00;  0.0000000E+00;  1.0000000E+03;  4.0000001E-01;  0.0000000E+00;0;  0.0000000E+00;  0.0000000E+00;  0.0000000E+00;0;  0.0000000E+00;  1.0000000E+04;  0.0000000E+00;  0.0000000E+00;  1.0000000E+04;  0.0000000E+00;  1.0000000E+04;  0.0000000E+00;  0.0000000E+00;  0.0000000E+00;  0.0000000E+00;
 -1.8000001E-01;  9.9999998E-03;  2.3999999E-01;112;  0.0000000E+00;  0.0000000E+00;  0.0000000E+00;  1.0000000E+03;  4.0000001E-01;  0.0000000E+00;0;  0.0000000E+00;  0.0000000E+00;  0.0000000E+00;0;  0.0000000E+00;  1.0000000E+04;  0.0000000E+00;  0.0000000E+00;  1.0000000E+04;  0.0000000E+00;  1.0000000E+04;  0.0000000E+00;  0.0000000E+00;  0.0000000E+00;  0.0000000E+00;
 -1.8000001E-01;  9.9999998E-03;  2.5999999E-01;113;  0.0000000E+00;  0.0000000E+00;  0.0000000E+00;  1.0000000E+03;  4.0000001E-01;  0.0000000E+00;0;  0.0000000E+00;  0.0000000E+00;  0.0000000E+00;0;  0.0000000E+00;  1.0000000E+04;  0.0000000E+00;  0.0000000E+00;  1.0000000E+04;  0.0000000E+00;  1.0000000E+04;  0.0000000E+00;  0.0000000E+00;  0.0000000E+00;  0.0000000E+00;
 -1.8000001E-01;  9.9999998E-03;  2.8000000E-01;114;  0.0000000E+00;  0.0000000E+00;  0.0000000E+00;  1.0000000E+03;  4.0000001E-01;  0.0000000E+00;0;  0.0000000E+00;  0.0000000E+00;  0.0000000E+00;0;  0.0000000E+00;  1.0000000E+04;  0.0000000E+00;  0.0000000E+00;  1.0000000E+04;  0.0000000E+00;  1.0000000E+04;  0.0000000E+00;  0.0000000E+00;  0.0000000E+00;  0.0000000E+00;
 -1.8000001E-01;  9.9999998E-03;  3.0000001E-01;115;  0.0000000E+00;  0.0000000E+00;  0.0000000E+00;  1.0000000E+03;  4.0000001E-01;  0.0000000E+00;0;  0.0000000E+00;  0.0000000E+00;  0.0000000E+00;0;  0.0000000E+00;  1.0000000E+04;  0.0000000E+00;  0.0000000E+00;  1.0000000E+04;  0.0000000E+00;  1.0000000E+04;  0.0000000E+00;  0.0000000E+00;  0.0000000E+00;  0.0000000E+00;
 -1.8000001E-01;  9.9999998E-03;  3.1999999E-01;116;  0.0000000E+00;  0.0000000E+00;  0.0000000E+00;  1.0000000E+03;  4.0000001E-01;  0.0000000E+00;0;  0.0000000E+00;  0.0000000E+00;  0.0000000E+00;0;  0.0000000E+00;  1.0000000E+04;  0.0000000E+00;  0.0000000E+00;  1.0000000E+04;  0.0000000E+00;  1.0000000E+04;  0.0000000E+00;  0.0000000E+00;  0.0000000E+00;  0.0000000E+00;
 -1.6000000E-01;  9.9999998E-03;  1.6000000E-01;149;  0.0000000E+00;  0.0000000E+00;  0.0000000E+00;  1.0000000E+03;  4.0000001E-01;  0.0000000E+00;0;  0.0000000E+00;  0.0000000E+00;  0.0000000E+00;0; -8.1233675E-06;  1.0000000E+04;  0.0000000E+00;  0.0000000E+00;  1.0000000E+04;  0.0000000E+00;  1.0000000E+04; -8.1389899E-06;  0.0000000E+00;  1.5622110E-08;  1.2819526E-03;
 -1.6000000E-01;  9.9999998E-03;  1.8000001E-01;150;  0.0000000E+00;  0.0000000E+00;  0.0000000E+00;  1.0000000E+03;  4.0000001E-01;  0.0000000E+00;0;  0.0000000E+00;  0.0000000E+00;  0.0000000E+00;0; -7.8798694E-06;  1.0000000E+04;  0.0000000E+00;  0.0000000E+00;  1.0000000E+04;  0.0000000E+00;  1.0000000E+04; -7.8974426E-06;  0.0000000E+00;  1.7572946E-08;  1.2844810E-03;
 -1.6000000E-01;  9.9999998E-03;  2.0000000E-01;151;  0.0000000E+00;  0.0000000E+00;  0.0000000E+00;  1.0000000E+03;  4.0000001E-01;  0.0000000E+00;0;  0.0000000E+00;  0.0000000E+00;  0.0000000E+00;0; -7.5139055E-06;  1.0000000E+04;  0.0000000E+00;  0.0000000E+00;  1.0000000E+04;  0.0000000E+00;  1.0000000E+04; -7.5325806E-06;  0.0000000E+00;  1.8675070E-08;  1.2572724E-03;
 -1.6000000E-01;  9.9999998E-03;  2.2000000E-01;152;  0.0000000E+00;  0.0000000E+00;  0.0000000E+00;  1.0000000E+03;  4.0000001E-01;  0.0000000E+00;0;  0.0000000E+00;  0.0000000E+00;  0.0000000E+00;0; -7.0003025E-06;  1.0000000E+04;  0.0000000E+00;  0.0000000E+00;  1.0000000E+04;  0.0000000E+00;  1.0000000E+04; -7.0185947E-06;  0.0000000E+00;  1.8292159E-08;  1.1870512E-03;
 -1.6000000E-01;  9.9999998E-03;  2.3999999E-01;153;  0.0000000E+00;  0.0000000E+00;  0.0000000E+00;  1.0000000E+03;  4.0000001E-01;  0.0000000E+00;0;  0.0000000E+00;  0.0000000E+00;  0.0000000E+00;0; -6.3220355E-06;  1.0000000E+04;  0.0000000E+00;  0.0000000E+00;  1.0000000E+04;  0.0000000E+00;  1.0000000E+04; -6.3375160E-06;  0.0000000E+00;  1.5480662E-08;  1.0584603E-03;
 -1.6000000E-01;  9.9999998E-03;  2.5999999E-01;154;  0.0000000E+00;  0.0000000E+00;  0.0000000E+00;  1.0000000E+03;  4.0000001E-01;  0.0000000E+00;0;  0.0000000E+00;  0.0000000E+00;  0.0000000E+00;0; -5.3369890E-06;  1.0000000E+04;  0.0000000E+00;  0.0000000E+00;  1.0000000E+04;  0.0000000E+00;  1.0000000E+04; -5.3304657E-06;  0.0000000E+00; -6.5232619E-09;  5.9810857E-04;
 -1.6000000E-01;  9.9999998E-03;  2.8000000E-01;155;  0.0000000E+00;  0.0000000E+00;  0.0000000E+00;  1.0000000E+03;  4.0000001E-01;  0.0000000E+00;0;  0.0000000E+00;  0.0000000E+00;  0.0000000E+00;0; -3.5720209E-06;  1.0000000E+04;  0.0000000E+00;  0.0000000E+00;  1.0000000E+04;  0.0000000E+00;  1.0000000E+04; -3.5131307E-06;  0.0000000E+00; -5.8890212E-08;  4.6909813E-04;
 -1.6000000E-01;  9.9999998E-03;  3.0000001E-01;156;  0.0000000E+00;  0.0000000E+00;  0.0000000E+00;  1.0000000E+03;  4.0000001E-01;  0.0000000E+00;0;  0.0000000E+00;  0.0000000E+00;  0.0000000E+00;0; -1.5113158E-06;  1.0000000E+04;  0.0000000E+00;  0.0000000E+00;  1.0000000E+04;  0.0000000E+00;  1.0000000E+04; -1.4461314E-06;  0.0000000E+00; -6.5184395E-08;  8.2621595E-04;
 -1.6000000E-01;  9.9999998E-03;  3.1999999E-01;157;  0.0000000E+00;  0.0000000E+00;  0.0000000E+00;  1.0000000E+03;  4.0000001E-01;  0.0000000E+00;0;  0.0000000E+00;  0.0000000E+00;  0.0000000E+00;0; -2.3785530E-07;  1.0000000E+04;  0.0000000E+00;  0.0000000E+00;  1.0000000E+04;  0.0000000E+00;  1.0000000E+04; -2.1855452E-07;  0.0000000E+00; -1.9300789E-08;  2.6536515E-04;
 -1.4000000E-01;  9.9999998E-03;  1.6000000E-01;190;  0.0000000E+00;  0.0000000E+00;  0.0000000E+00;  1.0000004E+03;  4.0000001E-01;  3.9505050E-01;0;  0.0000000E+00;  0.0000000E+00;  0.0000000E+00;0; -2.9527140E-04;  1.0000000E+04;  0.0000000E+00;  0.0000000E+00;  1.0000000E+04;  0.0000000E+00;  1.0000000E+04; -2.9721059E-04;  0.0000000E+00;  1.9391987E-06;  6.7851916E-02;
 -1.4000000E-01;  9.9999998E-03;  1.8000001E-01;191;  0.0000000E+00;  0.0000000E+00;  0.0000000E+00;  1.0000004E+03;  4.0000001E-01;  3.9505050E-01;0;  0.0000000E+00;  0.0000000E+00;  0.0000000E+00;0; -2.8544996E-04;  1.0000000E+04;  0.0000000E+00;  0.0000000E+00;  1.0000000E+04;  0.0000000E+00;  1.0000000E+04; -2.8759413E-04;  0.0000000E+00;  2.1441690E-06;  7.0044436E-02;
 -1.4000000E-01;  9.9999998E-03;  2.0000000E-01;192;  0.0000000E+00;  0.0000000E+00;  0.0000000E+00;  1.0000004E+03;  4.0000001E-01;  2.9628786E-01;0;  0.0000000E+00;  0.0000000E+00;  0.0000000E+00;0; -2.7126761E-04;  1.0000000E+04;  0.0000000E+00;  0.0000000E+00;  1.0000000E+04;  0.0000000E+00;  1.0000000E+04; -2.7349786E-04;  0.0000000E+00;  2.2302538E-06;  6.9760755E-02;
 -1.4000000E-01;  9.9999998E-03;  2.2000000E-01;193;  0.0000000E+00;  0.0000000E+00;  0.0000000E+00;  1.0000004E+03;  4.0000001E-01;  2.9628786E-01;0;  0.0000000E+00;  0.0000000E+00;  0.0000000E+00;0; -2.5153166E-04;  1.0000000E+04;  0.0000000E+00;  0.0000000E+00;  1.0000000E+04;  0.0000000E+00;  1.0000000E+04; -2.5347320E-04;  0.0000000E+00;  1.9415356E-06;  6.2929086E-02;
 -1.4000000E-01;  9.9999998E-03;  2.3999999E-01;194;  0.0000000E+00;  0.0000000E+00;  0.0000000E+00;  1.0000003E+03;  4.0000001E-01;  2.9628786E-01;0;  0.0000000E+00;  0.0000000E+00;  0.0000000E+00;0; -2.2241588E-04;  1.0000000E+04;  0.0000000E+00;  0.0000000E+00;  1.0000000E+04;  0.0000000E+00;  1.0000000E+04; -2.2286134E-04;  0.0000000E+00;  4.4546590E-07;  3.6379181E-02;
 -1.4000000E-01;  9.9999998E-03;  2.5999999E-01;195;  0.0000000E+00;  0.0000000E+00;  0.0000000E+00;  1.0000002E+03;  4.0000001E-01;  1.9752525E-01;0;  0.0000000E+00;  0.0000000E+00;  0.0000000E+00;0; -1.8112257E-04;  1.0000000E+04;  0.0000000E+00;  0.0000000E+00;  1.0000000E+04;  0.0000000E+00;  1.0000000E+04; -1.7901199E-04;  0.0000000E+00; -2.1105784E-06;  7.9960497E-03;
 -1.4000000E-01;  9.9999998E-03;  2.8000000E-01;196;  0.0000000E+00;  0.0000000E+00;  0.0000000E+00;  1.0000001E+03;  4.0000001E-01;  9.8762624E-02;0;  0.0000000E+00;  0.0000000E+00;  0.0000000E+00;0; -1.3042591E-04;  1.0000000E+04;  0.0000000E+00;  0.0000000E+00;  1.0000000E+04;  0.0000000E+00;  1.0000000E+04; -1.2606883E-04;  0.0000000E+00; -4.3570708E-06;  4.9086310E-02;
 -1.4000000E-01;  9.9999998E-03;  3.0000001E-01;197;  0.0000000E+00;  0.0000000E+00;  0.0000000E+00;  1.0000000E+03;  4.0000001E-01;  0.0000000E+00;0;  0.0000000E+00;  0.0000000E+00;  0.0000000E+00;0; -7.8912883E-05;  1.0000000E+04;  0.0000000E+00;  0.0000000E+00;  1.0000000E+04;  0.0000000E+00;  1.0000000E+04; -7.3871823E-05;  0.0000000E+00; -5.0410590E-06;  6.6932335E-02;
 -1.4000000E-01;  9.9999998E-03;  3.1999999E-01;198;  0.0000000E+00;  0.0000000E+00;  0.0000000E+00;  1.0000000E+03;  4.0000001E-01;  0.0000000E+00;0;  0.0000000E+00;  0.0000000E+00;  0.0000000E+00;0; -3.7084017E-05;  1.0000000E+04;  0.0000000E+00;  0.0000000E+00;  1.0000000E+04;  0.0000000E+00;  1.0000000E+04; -3.3189925E-05;  0.0000000E+00; -3.8940921E-06;  5.5121135E-02;
 -1.2000000E-01;  9.9999998E-03;  1.6000000E-01;231;  0.0000000E+00;  0.0000000E+00;  0.0000000E+00;  1.0000026E+03;  4.0000001E-01;  2.1727777E+00;0;  0.0000000E+00;  0.0000000E+00;  0.0000000E+00;0; -1.6245279E-03;  1.0000000E+04;  0.0000000E+00;  0.0000000E+00;  1.0000000E+04;  0.0000000E+00;  1.0000000E+04; -1.6429323E-03;  0.0000000E+00;  1.8404478E-05;  4.9385720E-01;
 -1.2000000E-01;  9.9999998E-03;  1.8000001E-01;232;  0.0000000E+00;  0.0000000E+00;  0.0000000E+00;  1.0000026E+03;  4.0000001E-01;  2.1727777E+00;0;  0.0000000E+00;  0.0000000E+00;  0.0000000E+00;0; -1.5675341E-03;  1.0000000E+04;  0.0000000E+00;  0.0000000E+00;  1.0000000E+04;  0.0000000E+00;  1.0000000E+04; -1.5875697E-03;  0.0000000E+00;  2.0035652E-05;  5.1431847E-01;
 -1.2000000E-01;  9.9999998E-03;  2.0000000E-01;233;  0.0000000E+00;  0.0000000E+00;  0.0000000E+00;  1.0000024E+03;  4.0000001E-01;  1.9752525E+00;0;  0.0000000E+00;  0.0000000E+00;  0.0000000E+00;0; -1.4858727E-03;  1.0000000E+04;  0.0000000E+00;  0.0000000E+00;  1.0000000E+04;  0.0000000E+00;  1.0000000E+04; -1.5054174E-03;  0.0000000E+00;  1.9544777E-05;  4.9835247E-01;
 -1.2000000E-01;  9.9999998E-03;  2.2000000E-01;234;  0.0000000E+00;  0.0000000E+00;  0.0000000E+00;  1.0000022E+03;  4.0000001E-01;  1.7777272E+00;0;  0.0000000E+00;  0.0000000E+00;  0.0000000E+00;0; -1.3697013E-03;  1.0000000E+04;  0.0000000E+00;  0.0000000E+00;  1.0000000E+04;  0.0000000E+00;  1.0000000E+04; -1.3831521E-03;  0.0000000E+00;  1.3450780E-05;  3.9140591E-01;
 -1.2000000E-01;  9.9999998E-03;  2.3999999E-01;235;  0.0000000E+00;  0.0000000E+00;  0.0000000E+00;  1.0000020E+03;  4.0000001E-01;  1.5802020E+00;0;  0.0000000E+00;  0.0000000E+00;  0.0000000E+00;0; -1.2093685E-03;  1.0000000E+04;  0.0000000E+00;  0.0000000E+00;  1.0000000E+04;  0.0000000E+00;  1.0000000E+04; -1.2098900E-03;  0.0000000E+00;  5.2151574E-07;  1.7328134E-01;
 -1.2000000E-01;  9.9999998E-03;  2.5999999E-01;236;  0.0000000E+00;  0.0000000E+00;  0.0000000E+00;  1.0000015E+03;  4.0000001E-01;  1.2839141E+00;0;  0.0000000E+00;  0.0000000E+00;  0.0000000E+00;0; -1.0018003E-03;  1.0000000E+04;  0.0000000E+00;  0.0000000E+00;  1.0000000E+04;  0.0000000E+00;  1.0000000E+04; -9.8516978E-04;  0.0000000E+00; -1.6630496E-05;  1.1662838E-01;
 -1.2000000E-01;  9.9999998E-03;  2.8000000E-01;237;  0.0000000E+00;  0.0000000E+00;  0.0000000E+00;  1.0000012E+03;  4.0000001E-01;  9.8762625E-01;0;  0.0000000E+00;  0.0000000E+00;  0.0000000E+00;0; -7.5913995E-04;  1.0000000E+04;  0.0000000E+00;  0.0000000E+00;  1.0000000E+04;  0.0000000E+00;  1.0000000E+04; -7.2739337E-04;  0.0000000E+00; -3.1746564E-05;  3.8085765E-01;
 -1.2000000E-01;  9.9999998E-03;  3.0000001E-01;238;  0.0000000E+00;  0.0000000E+00;  0.0000000E+00;  1.0000008E+03;  4.0000001E-01;  6.9133836E-01;0;  0.0000000E+00;  0.0000000E+00;  0.0000000E+00;0; -5.1201030E-04;  1.0000000E+04;  0.0000000E+00;  0.0000000E+00;  1.0000000E+04;  0.0000000E+00;  1.0000000E+04; -4.7291626E-04;  0.0000000E+00; -3.9094048E-05;  5.2783149E-01;
 -1.2000000E-01;  9.9999998E-03;  3.1999999E-01;239;  0.0000000E+00;  0.0000000E+00;  0.0000000E+00;  1.0000004E+03;  4.0000001E-01;  3.9505050E-01;0;  0.0000000E+00;  0.0000000E+00;  0.0000000E+00;0; -2.9746367E-04;  1.0000000E+04;  0.0000000E+00;  0.0000000E+00;  1.0000000E+04;  0.0000000E+00;  1.0000000E+04; -2.6095274E-04;  0.0000000E+00; -3.6510944E-05;  5.1937151E-01;
 -1.0000000E-01;  9.9999998E-03;  1.6000000E-01;272;  0.0000000E+00;  0.0000000E+00;  0.0000000E+00;  1.0000085E+03;  4.0000001E-01;  7.1109090E+00;0;  0.0000000E+00;  0.0000000E+00;  0.0000000E+00;0; -5.1534567E-03;  1.0000000E+04;  0.0000000E+00;  0.0000000E+00;  1.0000000E+04;  0.0000000E+00;  1.0000000E+04; -5.2358243E-03;  0.0000000E+00;  8.2367580E-05;  1.9439806E+00;
 -1.0000000E-01;  9.9999998E-03;  1.8000001E-01;273;  0.0000000E+00;  0.0000000E+00;  0.0000000E+00;  1.0000082E+03;  4.0000001E-01;  6.8146210E+00;0;  0.0000000E+00;  0.0000000E+00;  0.0000000E+00;0; -4.9665659E-03;  1.0000000E+04;  0.0000000E+00;  0.0000000E+00;  1.0000000E+04;  0.0000000E+00;  1.0000000E+04; -5.0539351E-03;  0.0000000E+00;  8.7369430E-05;  2.0095396E+00;
 -1.0000000E-01;  9.9999998E-03;  2.0000000E-01;274;  0.0000000E+00;  0.0000000E+00;  0.0000000E+00;  1.0000079E+03;  4.0000001E-01;  6.6170959E+00;0;  0.0000000E+00;  0.0000000E+00;  0.0000000E+00;0; -4.7002197E-03;  1.0000000E+04;  0.0000000E+00;  0.0000000E+00;  1.0000000E+04;  0.0000000E+00;  1.0000000E+04; -4.7799814E-03;  0.0000000E+00;  7.9761536E-05;  1.8684168E+00;
 -1.0000000E-01;  9.9999998E-03;  2.2000000E-01;275;  0.0000000E+00;  0.0000000E+00;  0.0000000E+00;  1.0000072E+03;  4.0000001E-01;  5.9257574E+00;0;  0.0000000E+00;  0.0000000E+00;  0.0000000E+00;0; -4.3324279E-03;  1.0000000E+04;  0.0000000E+00;  0.0000000E+00;  1.0000000E+04;  0.0000000E+00;  1.0000000E+04; -4.3840790E-03;  0.0000000E+00;  5.1651339E-05;  1.3956493E+00;
 -1.0000000E-01;  9.9999998E-03;  2.3999999E-01;276;  0.0000000E+00;  0.0000000E+00;  0.0000000E+00;  1.0000065E+03;  4.0000001E-01;  5.4319444E+00;0;  0.0000000E+00;  0.0000000E+00;  0.0000000E+00;0; -3.8439559E-03;  1.0000000E+04;  0.0000000E+00;  0.0000000E+00;  1.0000000E+04;  0.0000000E+00;  1.0000000E+04; -3.8446288E-03;  0.0000000E+00;  6.7290460E-07;  5.5131352E-01;
 -1.0000000E-01;  9.9999998E-03;  2.5999999E-01;277;  0.0000000E+00;  0.0000000E+00;  0.0000000E+00;  1.0000054E+03;  4.0000001E-01;  4.5430808E+00;0;  0.0000000E+00;  0.0000000E+00;  0.0000000E+00;0; -3.2303201E-03;  1.0000000E+04;  0.0000000E+00;  0.0000000E+00;  1.0000000E+04;  0.0000000E+00;  1.0000000E+04; -3.1664779E-03;  0.0000000E+00; -6.3842170E-05;  5.2255833E-01;
 -1.0000000E-01;  9.9999998E-03;  2.8000000E-01;278;  0.0000000E+00;  0.0000000E+00;  0.0000000E+00;  1.0000042E+03;  4.0000001E-01;  3.4566917E+00;0;  0.0000000E+00;  0.0000000E+00;  0.0000000E+00;0; -2.5215663E-03;  1.0000000E+04;  0.0000000E+00;  0.0000000E+00;  1.0000000E+04;  0.0000000E+00;  1.0000000E+04; -2.3995864E-03;  0.0000000E+00; -1.2197988E-04;  1.5150048E+00;
 -1.0000000E-01;  9.9999998E-03;  3.0000001E-01;279;  0.0000000E+00;  0.0000000E+00;  0.0000000E+00;  1.0000029E+03;  4.0000001E-01;  2.4690657E+00;0;  0.0000000E+00;  0.0000000E+00;  0.0000000E+00;0; -1.7938404E-03;  1.0000000E+04;  0.0000000E+00;  0.0000000E+00;  1.0000000E+04;  0.0000000E+00;  1.0000000E+04; -1.6379660E-03;  0.0000000E+00; -1.5587446E-04;  2.1389701E+00;
 -1.0000000E-01;  9.9999998E-03;  3.1999999E-01;280;  0.0000000E+00;  0.0000000E+00;  0.0000000E+00;  1.0000018E+03;  4.0000001E-01;  1.4814394E+00;0;  0.0000000E+00;  0.0000000E+00;  0.0000000E+00;0; -1.1432881E-03;  1.0000000E+04;  0.0000000E+00;  0.0000000E+00;  1.0000000E+04;  0.0000000E+00;  1.0000000E+04; -9.8530296E-04;  0.0000000E+00; -1.5798515E-04;  2.2642930E+00;
 -7.9999998E-02;  9.9999998E-03;  1.6000000E-01;313;  0.0000000E+00;  0.0000000E+00;  0.0000000E+00;  1.0000206E+03;  4.0000001E-01;  1.7085934E+01;0;  0.0000000E+00;  0.0000000E+00;  0.0000000E+00;0; -1.2211185E-02;  1.0000000E+04;  0.0000000E+00;  0.0000000E+00;  1.0000000E+04;  0.0000000E+00;  1.0000000E+04; -1.2458485E-02;  0.0000000E+00;  2.4729953E-04;  5.4392614E+00;
 -7.9999998E-02;  9.9999998E-03;  1.8000001E-01;314;  0.0000000E+00;  0.0000000E+00;  0.0000000E+00;  1.0000197E+03;  4.0000001E-01;  1.6295834E+01;0;  0.0000000E+00;  0.0000000E+00;  0.0000000E+00;0; -1.1762382E-02;  1.0000000E+04;  0.0000000E+00;  0.0000000E+00;  1.0000000E+04;  0.0000000E+00;  1.0000000E+04; -1.2017956E-02;  0.0000000E+00;  2.5557465E-04;  5.5501513E+00;
 -7.9999998E-02;  9.9999998E-03;  2.0000000E-01;315;  0.0000000E+00;  0.0000000E+00;  0.0000000E+00;  1.0000186E+03;  4.0000001E-01;  1.5406969E+01;0;  0.0000000E+00;  0.0000000E+00;  0.0000000E+00;0; -1.1132891E-02;  1.0000000E+04;  0.0000000E+00;  0.0000000E+00;  1.0000000E+04;  0.0000000E+00;  1.0000000E+04; -1.1360622E-02;  0.0000000E+00;  2.2773109E-04;  5.0723119E+00;
 -7.9999998E-02;  9.9999998E-03;  2.2000000E-01;316;  0.0000000E+00;  0.0000000E+00;  0.0000000E+00;  1.0000172E+03;  4.0000001E-01;  1.4221818E+01;0;  0.0000000E+00;  0.0000000E+00;  0.0000000E+00;0; -1.0281553E-02;  1.0000000E+04;  0.0000000E+00;  0.0000000E+00;  1.0000000E+04;  0.0000000E+00;  1.0000000E+04; -1.0426712E-02;  0.0000000E+00;  1.4515937E-04;  3.7091699E+00;
 -7.9999998E-02;  9.9999998E-03;  2.3999999E-01;317;  0.0000000E+00;  0.0000000E+00;  0.0000000E+00;  1.0000154E+03;  4.0000001E-01;  1.2740378E+01;0;  0.0000000E+00;  0.0000000E+00;  0.0000000E+00;0; -9.1713835E-03;  1.0000000E+04;  0.0000000E+00;  0.0000000E+00;  1.0000000E+04;  0.0000000E+00;  1.0000000E+04; -9.1747986E-03;  0.0000000E+00;  3.4147076E-06;  1.3831183E+00;
 -7.9999998E-02;  9.9999998E-03;  2.5999999E-01;318;  0.0000000E+00;  0.0000000E+00;  0.0000000E+00;  1.0000132E+03;  4.0000001E-01;  1.0962651E+01;0;  0.0000000E+00;  0.0000000E+00;  0.0000000E+00;0; -7.7917068E-03;  1.0000000E+04;  0.0000000E+00;  0.0000000E+00;  1.0000000E+04;  0.0000000E+00;  1.0000000E+04; -7.6187919E-03;  0.0000000E+00; -1.7291494E-04;  1.5295070E+00;
 -7.9999998E-02;  9.9999998E-03;  2.8000000E-01;319;  0.0000000E+00;  0.0000000E+00;  0.0000000E+00;  1.0000104E+03;  4.0000001E-01;  8.6911106E+00;0;  0.0000000E+00;  0.0000000E+00;  0.0000000E+00;0; -6.1992072E-03;  1.0000000E+04;  0.0000000E+00;  0.0000000E+00;  1.0000000E+04;  0.0000000E+00;  1.0000000E+04; -5.8647017E-03;  0.0000000E+00; -3.3450531E-04;  4.2554517E+00;
 -7.9999998E-02;  9.9999998E-03;  3.0000001E-01;320;  0.0000000E+00;  0.0000000E+00;  0.0000000E+00;  1.0000077E+03;  4.0000001E-01;  6.4195704E+00;0;  0.0000000E+00;  0.0000000E+00;  0.0000000E+00;0; -4.5497916E-03;  1.0000000E+04;  0.0000000E+00;  0.0000000E+00;  1.0000000E+04;  0.0000000E+00;  1.0000000E+04; -4.1122460E-03;  0.0000000E+00; -4.3754547E-04;  6.0890169E+00;
 -7.9999998E-02;  9.9999998E-03;  3.1999999E-01;321;  0.0000000E+00;  0.0000000E+00;  0.0000000E+00;  1.0000051E+03;  4.0000001E-01;  4.2467928E+00;0;  0.0000000E+00;  0.0000000E+00;  0.0000000E+00;0; -3.0485711E-03;  1.0000000E+04;  0.0000000E+00;  0.0000000E+00;  1.0000000E+04;  0.0000000E+00;  1.0000000E+04; -2.5857356E-03;  0.0000000E+00; -4.6283533E-04;  6.6993604E+00;
 -5.9999999E-02;  9.9999998E-03;  1.6000000E-01;354;  0.0000000E+00;  0.0000000E+00;  0.0000000E+00;  1.0000397E+03;  4.0000001E-01;  3.2887955E+01;0;  0.0000000E+00;  0.0000000E+00;  0.0000000E+00;0; -2.3596888E-02;  1.0000000E+04;  0.0000000E+00;  0.0000000E+00;  1.0000000E+04;  0.0000000E+00;  1.0000000E+04; -2.4170035E-02;  0.0000000E+00;  5.7314715E-04;  1.2065974E+01;
 -5.9999999E-02;  9.9999998E-03;  1.8000001E-01;355;  0.0000000E+00;  0.0000000E+00;  0.0000000E+00;  1.0000383E+03;  4.0000001E-01;  3.1801565E+01;0;  0.0000000E+00;  0.0000000E+00;  0.0000000E+00;0; -2.2735761E-02;  1.0000000E+04;  0.0000000E+00;  0.0000000E+00;  1.0000000E+04;  0.0000000E+00;  1.0000000E+04; -2.3320496E-02;  0.0000000E+00;  5.8473542E-04;  1.2238244E+01;
 -5.9999999E-02;  9.9999998E-03;  2.0000000E-01;356;  0.0000000E+00;  0.0000000E+00;  0.0000000E+00;  1.0000363E+03;  4.0000001E-01;  3.0122601E+01;0;  0.0000000E+00;  0.0000000E+00;  0.0000000E+00;0; -2.1543475E-02;  1.0000000E+04;  0.0000000E+00;  0.0000000E+00;  1.0000000E+04;  0.0000000E+00;  1.0000000E+04; -2.2059554E-02;  0.0000000E+00;  5.1607913E-04;  1.1102735E+01;
 -5.9999999E-02;  9.9999998E-03;  2.2000000E-01;357;  0.0000000E+00;  0.0000000E+00;  0.0000000E+00;  1.0000339E+03;  4.0000001E-01;  2.8048586E+01;0;  0.0000000E+00;  0.0000000E+00;  0.0000000E+00;0; -1.9951176E-02;  1.0000000E+04;  0.0000000E+00;  0.0000000E+00;  1.0000000E+04;  0.0000000E+00;  1.0000000E+04; -2.0279981E-02;  0.0000000E+00;  3.2880480E-04;  8.0427427E+00;
 -5.9999999E-02;  9.9999998E-03;  2.3999999E-01;358;  0.0000000E+00;  0.0000000E+00;  0.0000000E+00;  1.0000303E+03;  4.0000001E-01;  2.5085707E+01;0;  0.0000000E+00;  0.0000000E+00;  0.0000000E+00;0; -1.7892489E-02;  1.0000000E+04;  0.0000000E+00;  0.0000000E+00;  1.0000000E+04;  0.0000000E+00;  1.0000000E+04; -1.7907858E-02;  0.0000000E+00;  1.5368074E-05;  2.9212911E+00;
 -5.9999999E-02;  9.9999998E-03;  2.5999999E-01;359;  0.0000000E+00;  0.0000000E+00;  0.0000000E+00;  1.0000260E+03;  4.0000001E-01;  2.1530252E+01;0;  0.0000000E+00;  0.0000000E+00;  0.0000000E+00;0; -1.5338813E-02;  1.0000000E+04;  0.0000000E+00;  0.0000000E+00;  1.0000000E+04;  0.0000000E+00;  1.0000000E+04; -1.4965423E-02;  0.0000000E+00; -3.7338972E-04;  3.4790108E+00;
 -5.9999999E-02;  9.9999998E-03;  2.8000000E-01;360;  0.0000000E+00;  0.0000000E+00;  0.0000000E+00;  1.0000210E+03;  4.0000001E-01;  1.7382221E+01;0;  0.0000000E+00;  0.0000000E+00;  0.0000000E+00;0; -1.2373364E-02;  1.0000000E+04;  0.0000000E+00;  0.0000000E+00;  1.0000000E+04;  0.0000000E+00;  1.0000000E+04; -1.1637606E-02;  0.0000000E+00; -7.3575799E-04;  9.5555162E+00;
 -5.9999999E-02;  9.9999998E-03;  3.0000001E-01;361;  0.0000000E+00;  0.0000000E+00;  0.0000000E+00;  1.0000158E+03;  4.0000001E-01;  1.3135429E+01;0;  0.0000000E+00;  0.0000000E+00;  0.0000000E+00;0; -9.2679299E-03;  1.0000000E+04;  0.0000000E+00;  0.0000000E+00;  1.0000000E+04;  0.0000000E+00;  1.0000000E+04; -8.2889600E-03;  0.0000000E+00; -9.7896985E-04;  1.3809735E+01;
 -5.9999999E-02;  9.9999998E-03;  3.1999999E-01;362;  0.0000000E+00;  0.0000000E+00;  0.0000000E+00;  1.0000109E+03;  4.0000001E-01;  8.9873991E+00;0;  0.0000000E+00;  0.0000000E+00;  0.0000000E+00;0; -6.4042164E-03;  1.0000000E+04;  0.0000000E+00;  0.0000000E+00;  1.0000000E+04;  0.0000000E+00;  1.0000000E+04; -5.3428742E-03;  0.0000000E+00; -1.0613424E-03;  1.5525205E+01;
 -3.9999999E-02;  9.9999998E-03;  1.6000000E-01;395;  0.0000000E+00;  0.0000000E+00;  0.0000000E+00;  1.0000657E+03;  4.0000001E-01;  5.4418205E+01;0;  0.0000000E+00;  0.0000000E+00;  0.0000000E+00;0; -3.8821746E-02;  1.0000000E+04;  0.0000000E+00;  0.0000000E+00;  1.0000000E+04;  0.0000000E+00;  1.0000000E+04; -3.9925549E-02;  0.0000000E+00;  1.1038033E-03;  2.2542637E+01;
 -3.9999999E-02;  9.9999998E-03;  1.8000001E-01;396;  0.0000000E+00;  0.0000000E+00;  0.0000000E+00;  1.0000633E+03;  4.0000001E-01;  5.2442955E+01;0;  0.0000000E+00;  0.0000000E+00;  0.0000000E+00;0; -3.7438519E-02;  1.0000000E+04;  0.0000000E+00;  0.0000000E+00;  1.0000000E+04;  0.0000000E+00;  1.0000000E+04; -3.8558062E-02;  0.0000000E+00;  1.1195436E-03;  2.2829462E+01;
 -3.9999999E-02;  9.9999998E-03;  2.0000000E-01;397;  0.0000000E+00;  0.0000000E+00;  0.0000000E+00;  1.0000603E+03;  4.0000001E-01;  4.9973888E+01;0;  0.0000000E+00;  0.0000000E+00;  0.0000000E+00;0; -3.5540022E-02;  1.0000000E+04;  0.0000000E+00;  0.0000000E+00;  1.0000000E+04;  0.0000000E+00;  1.0000000E+04; -3.6525548E-02;  0.0000000E+00;  9.8552543E-04;  2.0667538E+01;
 -3.9999999E-02;  9.9999998E-03;  2.2000000E-01;398;  0.0000000E+00;  0.0000000E+00;  0.0000000E+00;  1.0000560E+03;  4.0000001E-01;  4.6418434E+01;0;  0.0000000E+00;  0.0000000E+00;  0.0000000E+00;0; -3.3022698E-02;  1.0000000E+04;  0.0000000E+00;  0.0000000E+00;  1.0000000E+04;  0.0000000E+00;  1.0000000E+04; -3.3656597E-02;  0.0000000E+00;  6.3389976E-04;  1.4953476E+01;
 -3.9999999E-02;  9.9999998E-03;  2.3999999E-01;399;  0.0000000E+00;  0.0000000E+00;  0.0000000E+00;  1.0000505E+03;  4.0000001E-01;  4.1875351E+01;0;  0.0000000E+00;  0.0000000E+00;  0.0000000E+00;0; -2.9779481E-02;  1.0000000E+04;  0.0000000E+00;  0.0000000E+00;  1.0000000E+04;  0.0000000E+00;  1.0000000E+04; -2.9830227E-02;  0.0000000E+00;  5.0745821E-05;  5.4320555E+00;
 -3.9999999E-02;  9.9999998E-03;  2.5999999E-01;400;  0.0000000E+00;  0.0000000E+00;  0.0000000E+00;  1.0000438E+03;  4.0000001E-01;  3.6344646E+01;0;  0.0000000E+00;  0.0000000E+00;  0.0000000E+00;0; -2.5746362E-02;  1.0000000E+04;  0.0000000E+00;  0.0000000E+00;  1.0000000E+04;  0.0000000E+00;  1.0000000E+04; -2.5067829E-02;  0.0000000E+00; -6.7853450E-04;  6.5719786E+00;
 -3.9999999E-02;  9.9999998E-03;  2.8000000E-01;401;  0.0000000E+00;  0.0000000E+00;  0.0000000E+00;  1.0000357E+03;  4.0000001E-01;  2.9628788E+01;0;  0.0000000E+00;  0.0000000E+00;  0.0000000E+00;0; -2.1012904E-02;  1.0000000E+04;  0.0000000E+00;  0.0000000E+00;  1.0000000E+04;  0.0000000E+00;  1.0000000E+04; -1.9639106E-02;  0.0000000E+00; -1.3737980E-03;  1.8201042E+01;
 -3.9999999E-02;  9.9999998E-03;  3.0000001E-01;402;  0.0000000E+00;  0.0000000E+00;  0.0000000E+00;  1.0000272E+03;  4.0000001E-01;  2.2517878E+01;0;  0.0000000E+00;  0.0000000E+00;  0.0000000E+00;0; -1.5978470E-02;  1.0000000E+04;  0.0000000E+00;  0.0000000E+00;  1.0000000E+04;  0.0000000E+00;  1.0000000E+04; -1.4121835E-02;  0.0000000E+00; -1.8566352E-03;  2.6568172E+01;
 -3.9999999E-02;  9.9999998E-03;  3.1999999E-01;403;  0.0000000E+00;  0.0000000E+00;  0.0000000E+00;  1.0000192E+03;  4.0000001E-01;  1.5900783E+01;0;  0.0000000E+00;  0.0000000E+00;  0.0000000E+00;0; -1.1272060E-02;  1.0000000E+04;  0.0000000E+00;  0.0000000E+00;  1.0000000E+04;  0.0000000E+00;  1.0000000E+04; -9.2292605E-03;  0.0000000E+00; -2.0427988E-03;  3.0233646E+01;
 -2.0000000E-02;  9.9999998E-03;  1.6000000E-01;436;  0.0000000E+00;  0.0000000E+00;  0.0000000E+00;  1.0000950E+03;  4.0000001E-01;  7.8713814E+01;0;  0.0000000E+00;  0.0000000E+00;  0.0000000E+00;0; -5.5772182E-02;  1.0000000E+04;  0.0000000E+00;  0.0000000E+00;  1.0000000E+04;  0.0000000E+00;  1.0000000E+04; -5.7605810E-02;  0.0000000E+00;  1.8336292E-03;  3.6662186E+01;
 -2.0000000E-02;  9.9999998E-03;  1.8000001E-01;437;  0.0000000E+00;  0.0000000E+00;  0.0000000E+00;  1.0000920E+03;  4.0000001E-01;  7.6244743E+01;0;  0.0000000E+00;  0.0000000E+00;  0.0000000E+00;0; -5.3863250E-02;  1.0000000E+04;  0.0000000E+00;  0.0000000E+00;  1.0000000E+04;  0.0000000E+00;  1.0000000E+04; -5.5718537E-02;  0.0000000E+00;  1.8552883E-03;  3.7164032E+01;
 -2.0000000E-02;  9.9999998E-03;  2.0000000E-01;438;  0.0000000E+00;  0.0000000E+00;  0.0000000E+00;  1.0000876E+03;  4.0000001E-01;  7.2590530E+01;0;  0.0000000E+00;  0.0000000E+00;  0.0000000E+00;0; -5.1255256E-02;  1.0000000E+04;  0.0000000E+00;  0.0000000E+00;  1.0000000E+04;  0.0000000E+00;  1.0000000E+04; -5.2891146E-02;  0.0000000E+00;  1.6358903E-03;  3.3695469E+01;
 -2.0000000E-02;  9.9999998E-03;  2.2000000E-01;439;  0.0000000E+00;  0.0000000E+00;  0.0000000E+00;  1.0000818E+03;  4.0000001E-01;  6.7849922E+01;0;  0.0000000E+00;  0.0000000E+00;  0.0000000E+00;0; -4.7806844E-02;  1.0000000E+04;  0.0000000E+00;  0.0000000E+00;  1.0000000E+04;  0.0000000E+00;  1.0000000E+04; -4.8876457E-02;  0.0000000E+00;  1.0696137E-03;  2.4508539E+01;
 -2.0000000E-02;  9.9999998E-03;  2.3999999E-01;440;  0.0000000E+00;  0.0000000E+00;  0.0000000E+00;  1.0000742E+03;  4.0000001E-01;  6.1529114E+01;0;  0.0000000E+00;  0.0000000E+00;  0.0000000E+00;0; -4.3364417E-02;  1.0000000E+04;  0.0000000E+00;  0.0000000E+00;  1.0000000E+04;  0.0000000E+00;  1.0000000E+04; -4.3494772E-02;  0.0000000E+00;  1.3035543E-04;  9.1287336E+00;
 -2.0000000E-02;  9.9999998E-03;  2.5999999E-01;441;  0.0000000E+00;  0.0000000E+00;  0.0000000E+00;  1.0000649E+03;  4.0000001E-01;  5.3726868E+01;0;  0.0000000E+00;  0.0000000E+00;  0.0000000E+00;0; -3.7818395E-02;  1.0000000E+04;  0.0000000E+00;  0.0000000E+00;  1.0000000E+04;  0.0000000E+00;  1.0000000E+04; -3.6755830E-02;  0.0000000E+00; -1.0625628E-03;  1.0570807E+01;
 -2.0000000E-02;  9.9999998E-03;  2.8000000E-01;442;  0.0000000E+00;  0.0000000E+00;  0.0000000E+00;  1.0000536E+03;  4.0000001E-01;  4.4443180E+01;0;  0.0000000E+00;  0.0000000E+00;  0.0000000E+00;0; -3.1234186E-02;  1.0000000E+04;  0.0000000E+00;  0.0000000E+00;  1.0000000E+04;  0.0000000E+00;  1.0000000E+04; -2.8997473E-02;  0.0000000E+00; -2.2367137E-03;  3.0220936E+01;
 -2.0000000E-02;  9.9999998E-03;  3.0000001E-01;443;  0.0000000E+00;  0.0000000E+00;  0.0000000E+00;  1.0000415E+03;  4.0000001E-01;  3.4369392E+01;0;  0.0000000E+00;  0.0000000E+00;  0.0000000E+00;0; -2.4081443E-02;  1.0000000E+04;  0.0000000E+00;  0.0000000E+00;  1.0000000E+04;  0.0000000E+00;  1.0000000E+04; -2.1003315E-02;  0.0000000E+00; -3.0781280E-03;  4.4734200E+01;
 -2.0000000E-02;  9.9999998E-03;  3.1999999E-01;444;  0.0000000E+00;  0.0000000E+00;  0.0000000E+00;  1.0000298E+03;  4.0000001E-01;  2.4690657E+01;0;  0.0000000E+00;  0.0000000E+00;  0.0000000E+00;0; -1.7269097E-02;  1.0000000E+04;  0.0000000E+00;  0.0000000E+00;  1.0000000E+04;  0.0000000E+00;  1.0000000E+04; -1.3847263E-02;  0.0000000E+00; -3.4218344E-03;  5.1321262E+01;
  0.0000000E+00;  9.9999998E-03;  3.0000001E-01;455;  0.0000000E+00;  0.0000000E+00;  0.0000000E+00;  1.0000562E+03;  4.0000001E-01;  4.6615959E+01;0;  0.0000000E+00;  0.0000000E+00;  0.0000000E+00;0; -3.2378949E-02;  1.0000000E+04;  0.0000000E+00;  0.0000000E+00;  1.0000000E+04;  0.0000000E+00;  1.0000000E+04; -2.7871091E-02;  0.0000000E+00; -4.5078569E-03;  6.6639786E+01;
  0.0000000E+00;  9.9999998E-03;  3.1999999E-01;456;  0.0000000E+00;  0.0000000E+00;  0.0000000E+00;  1.0000411E+03;  4.0000001E-01;  3.4073105E+01;0;  0.0000000E+00;  0.0000000E+00;  0.0000000E+00;0; -2.3611553E-02;  1.0000000E+04;  0.0000000E+00;  0.0000000E+00;  1.0000000E+04;  0.0000000E+00;  1.0000000E+04; -1.8530538E-02;  0.0000000E+00; -5.0810156E-03;  7.7397377E+01;
  2.0000000E-02;  9.9999998E-03;  3.1999999E-01;466;  0.0000000E+00;  0.0000000E+00;  0.0000000E+00;  1.0000520E+03;  4.0000001E-01;  4.3060505E+01;0;  0.0000000E+00;  0.0000000E+00;  0.0000000E+00;0; -2.9461715E-02;  1.0000000E+04;  0.0000000E+00;  0.0000000E+00;  1.0000000E+04;  0.0000000E+00;  1.0000000E+04; -2.2704374E-02;  0.0000000E+00; -6.7573404E-03;  1.0487620E+02;
  3.9999999E-02;  9.9999998E-03;  3.1999999E-01;476;  0.0000000E+00;  0.0000000E+00;  0.0000000E+00;  1.0000621E+03;  4.0000001E-01;  5.1455326E+01;0;  0.0000000E+00;  0.0000000E+00;  0.0000000E+00;0; -3.4515373E-02;  1.0000000E+04;  0.0000000E+00;  0.0000000E+00;  1.0000000E+04;  0.0000000E+00;  1.0000000E+04; -2.6373774E-02;  0.0000000E+00; -8.1415977E-03;  1.2932338E+02;
  5.9999999E-02;  9.9999998E-03;  3.1999999E-01;486;  0.0000000E+00;  0.0000000E+00;  0.0000000E+00;  1.0000721E+03;  4.0000001E-01;  5.9751389E+01;0;  0.0000000E+00;  0.0000000E+00;  0.0000000E+00;0; -3.9161537E-02;  1.0000000E+04;  0.0000000E+00;  0.0000000E+00;  1.0000000E+04;  0.0000000E+00;  1.0000000E+04; -3.0055264E-02;  0.0000000E+00; -9.1062738E-03;  1.4886278E+02;
  7.9999998E-02;  9.9999998E-03;  3.1999999E-01;496;  0.0000000E+00;  0.0000000E+00;  0.0000000E+00;  1.0000836E+03;  4.0000001E-01;  6.9232597E+01;0;  0.0000000E+00;  0.0000000E+00;  0.0000000E+00;0; -4.4252560E-02;  1.0000000E+04;  0.0000000E+00;  0.0000000E+00;  1.0000000E+04;  0.0000000E+00;  1.0000000E+04; -3.4546278E-02;  0.0000000E+00; -9.7062802E-03;  1.6473660E+02;
  1.0000000E-01;  9.9999998E-03;  3.1999999E-01;506;  0.0000000E+00;  0.0000000E+00;  0.0000000E+00;  1.0000995E+03;  4.0000001E-01;  8.2466789E+01;0;  0.0000000E+00;  0.0000000E+00;  0.0000000E+00;0; -5.1096208E-02;  1.0000000E+04;  0.0000000E+00;  0.0000000E+00;  1.0000000E+04;  0.0000000E+00;  1.0000000E+04; -4.0953677E-02;  0.0000000E+00; -1.0142530E-02;  1.9817024E+02;
  1.2000000E-01;  9.9999998E-03;  3.1999999E-01;516;  0.0000000E+00;  0.0000000E+00;  0.0000000E+00;  1.0001226E+03;  4.0000001E-01;  1.0152798E+02;0;  0.0000000E+00;  0.0000000E+00;  0.0000000E+00;0; -6.1289892E-02;  1.0000000E+04;  0.0000000E+00;  0.0000000E+00;  1.0000000E+04;  0.0000000E+00;  1.0000000E+04; -5.0527573E-02;  0.0000000E+00; -1.0762321E-02;  3.8621375E+02;
  1.4000000E-01;  9.9999998E-03;  3.1999999E-01;526;  0.0000000E+00;  0.0000000E+00;  0.0000000E+00;  1.0001574E+03;  4.0000001E-01;  1.3036667E+02;0;  0.0000000E+00;  0.0000000E+00;  0.0000000E+00;0; -7.6604798E-02;  1.0000000E+04;  0.0000000E+00;  0.0000000E+00;  1.0000000E+04;  0.0000000E+00;  1.0000000E+04; -6.4510368E-02;  0.0000000E+00; -1.2094427E-02;  9.8136731E+02;
  1.6000000E-01;  9.9999998E-03;  3.1999999E-01;536;  0.0000000E+00;  0.0000000E+00;  0.0000000E+00;  1.0002076E+03;  4.0000001E-01;  1.7194572E+02;0;  0.0000000E+00;  0.0000000E+00;  0.0000000E+00;0; -9.8493375E-02;  1.0000000E+04;  0.0000000E+00;  0.0000000E+00;  1.0000000E+04;  0.0000000E+00;  1.0000000E+04; -8.3547674E-02;  0.0000000E+00; -1.4945704E-02;  2.2658645E+03;
  1.8000001E-01;  9.9999998E-03;  3.1999999E-01;546;  0.0000000E+00;  0.0000000E+00;  0.0000000E+00;  1.0002742E+03;  4.0000001E-01;  2.2715404E+02;0;  0.0000000E+00;  0.0000000E+00;  0.0000000E+00;0; -1.2688938E-01;  1.0000000E+04;  0.0000000E+00;  0.0000000E+00;  1.0000000E+04;  0.0000000E+00;  1.0000000E+04; -1.0631058E-01;  0.0000000E+00; -2.0578802E-02;  4.4357417E+03;
  2.0000000E-01;  9.9999998E-03;  3.1999999E-01;555;  0.0000000E+00;  0.0000000E+00;  0.0000000E+00;  1.0003542E+03;  4.0000001E-01;  2.9342377E+02;0;  0.0000000E+00;  0.0000000E+00;  0.0000000E+00;0; -1.5982716E-01;  1.0000000E+04;  0.0000000E+00;  0.0000000E+00;  1.0000000E+04;  0.0000000E+00;  1.0000000E+04; -1.2902921E-01;  0.0000000E+00; -3.0797940E-02;  7.1404355E+03;
 -2.2000000E-01;  9.9999998E-03;  3.4000000E-01;36;  0.0000000E+00;  0.0000000E+00;  0.0000000E+00;  1.0000000E+03;  4.0000001E-01;  0.0000000E+00;0;  0.0000000E+00;  0.0000000E+00;  0.0000000E+00;0;  0.0000000E+00;  1.0000000E+04;  0.0000000E+00;  0.0000000E+00;  1.0000000E+04;  0.0000000E+00;  1.0000000E+04;  0.0000000E+00;  0.0000000E+00;  0.0000000E+00;  0.0000000E+00;
 -2.2000000E-01;  9.9999998E-03;  3.6000001E-01;37;  0.0000000E+00;  0.0000000E+00;  0.0000000E+00;  1.0000000E+03;  4.0000001E-01;  0.0000000E+00;0;  0.0000000E+00;  0.0000000E+00;  0.0000000E+00;0;  0.0000000E+00;  1.0000000E+04;  0.0000000E+00;  0.0000000E+00;  1.0000000E+04;  0.0000000E+00;  1.0000000E+04;  0.0000000E+00;  0.0000000E+00;  0.0000000E+00;  0.0000000E+00;
 -2.2000000E-01;  9.9999998E-03;  3.8000000E-01;38;  0.0000000E+00;  0.0000000E+00;  0.0000000E+00;  1.0000000E+03;  4.0000001E-01;  0.0000000E+00;0;  0.0000000E+00;  0.0000000E+00;  0.0000000E+00;0;  0.0000000E+00;  1.0000000E+04;  0.0000000E+00;  0.0000000E+00;  1.0000000E+04;  0.0000000E+00;  1.0000000E+04;  0.0000000E+00;  0.0000000E+00;  0.0000000E+00;  0.0000000E+00;
 -2.0000000E-01;  9.9999998E-03;  3.4000000E-01;76;  0.0000000E+00;  0.0000000E+00;  0.0000000E+00;  1.0000000E+03;  4.0000001E-01;  0.0000000E+00;0;  0.0000000E+00;  0.0000000E+00;  0.0000000E+00;0;  0.0000000E+00;  1.0000000E+04;  0.0000000E+00;  0.0000000E+00;  1.0000000E+04;  0.0000000E+00;  1.0000000E+04;  0.0000000E+00;  0.0000000E+00;  0.0000000E+00;  0.0000000E+00;
 -2.0000000E-01;  9.9999998E-03;  3.6000001E-01;77;  0.0000000E+00;  0.0000000E+00;  0.0000000E+00;  1.0000000E+03;  4.0000001E-01;  0.0000000E+00;0;  0.0000000E+00;  0.0000000E+00;  0.0000000E+00;0;  0.0000000E+00;  1.0000000E+04;  0.0000000E+00;  0.0000000E+00;  1.0000000E+04;  0.0000000E+00;  1.0000000E+04;  0.0000000E+00;  0.0000000E+00;  0.0000000E+00;  0.0000000E+00;
 -2.0000000E-01;  9.9999998E-03;  3.8000000E-01;78;  0.0000000E+00;  0.0000000E+00;  0.0000000E+00;  1.0000000E+03;  4.0000001E-01;  0.0000000E+00;0;  0.0000000E+00;  0.0000000E+00;  0.0000000E+00;0;  0.0000000E+00;  1.0000000E+04;  0.0000000E+00;  0.0000000E+00;  1.0000000E+04;  0.0000000E+00;  1.0000000E+04;  0.0000000E+00;  0.0000000E+00;  0.0000000E+00;  0.0000000E+00;
 -2.0000000E-01;  9.9999998E-03;  4.0000001E-01;79;  0.0000000E+00;  0.0000000E+00;  0.0000000E+00;  1.0000000E+03;  4.0000001E-01;  0.0000000E+00;0;  0.0000000E+00;  0.0000000E+00;  0.0000000E+00;0;  0.0000000E+00;  1.0000000E+04;  0.0000000E+00;  0.0000000E+00;  1.0000000E+04;  0.0000000E+00;  1.0000000E+04;  0.0000000E+00;  0.0000000E+00;  0.0000000E+00;  0.0000000E+00;
 -1.8000001E-01;  9.9999998E-03;  3.4000000E-01;117;  0.0000000E+00;  0.0000000E+00;  0.0000000E+00;  1.0000000E+03;  4.0000001E-01;  0.0000000E+00;0;  0.0000000E+00;  0.0000000E+00;  0.0000000E+00;0;  0.0000000E+00;  1.0000000E+04;  0.0000000E+00;  0.0000000E+00;  1.0000000E+04;  0.0000000E+00;  1.0000000E+04;  0.0000000E+00;  0.0000000E+00;  0.0000000E+00;  0.0000000E+00;
 -1.8000001E-01;  9.9999998E-03;  3.6000001E-01;118;  0.0000000E+00;  0.0000000E+00;  0.0000000E+00;  1.0000000E+03;  4.0000001E-01;  0.0000000E+00;0;  0.0000000E+00;  0.0000000E+00;  0.0000000E+00;0;  0.0000000E+00;  1.0000000E+04;  0.0000000E+00;  0.0000000E+00;  1.0000000E+04;  0.0000000E+00;  1.0000000E+04;  0.0000000E+00;  0.0000000E+00;  0.0000000E+00;  0.0000000E+00;
 -1.8000001E-01;  9.9999998E-03;  3.8000000E-01;119;  0.0000000E+00;  0.0000000E+00;  0.0000000E+00;  1.0000000E+03;  4.0000001E-01;  0.0000000E+00;0;  0.0000000E+00;  0.0000000E+00;  0.0000000E+00;0;  0.0000000E+00;  1.0000000E+04;  0.0000000E+00;  0.0000000E+00;  1.0000000E+04;  0.0000000E+00;  1.0000000E+04;  0.0000000E+00;  0.0000000E+00;  0.0000000E+00;  0.0000000E+00;
 -1.8000001E-01;  9.9999998E-03;  4.0000001E-01;120;  0.0000000E+00;  0.0000000E+00;  0.0000000E+00;  1.0000000E+03;  4.0000001E-01;  0.0000000E+00;0;  0.0000000E+00;  0.0000000E+00;  0.0000000E+00;0;  0.0000000E+00;  1.0000000E+04;  0.0000000E+00;  0.0000000E+00;  1.0000000E+04;  0.0000000E+00;  1.0000000E+04;  0.0000000E+00;  0.0000000E+00;  0.0000000E+00;  0.0000000E+00;
 -1.6000000E-01;  9.9999998E-03;  3.4000000E-01;158;  0.0000000E+00;  0.0000000E+00;  0.0000000E+00;  1.0000000E+03;  4.0000001E-01;  0.0000000E+00;0;  0.0000000E+00;  0.0000000E+00;  0.0000000E+00;0;  0.0000000E+00;  1.0000000E+04;  0.0000000E+00;  0.0000000E+00;  1.0000000E+04;  0.0000000E+00;  1.0000000E+04;  0.0000000E+00;  0.0000000E+00;  0.0000000E+00;  0.0000000E+00;
 -1.6000000E-01;  9.9999998E-03;  3.6000001E-01;159;  0.0000000E+00;  0.0000000E+00;  0.0000000E+00;  1.0000000E+03;  4.0000001E-01;  0.0000000E+00;0;  0.0000000E+00;  0.0000000E+00;  0.0000000E+00;0;  0.0000000E+00;  1.0000000E+04;  0.0000000E+00;  0.0000000E+00;  1.0000000E+04;  0.0000000E+00;  1.0000000E+04;  0.0000000E+00;  0.0000000E+00;  0.0000000E+00;  0.0000000E+00;
 -1.6000000E-01;  9.9999998E-03;  3.8000000E-01;160;  0.0000000E+00;  0.0000000E+00;  0.0000000E+00;  1.0000000E+03;  4.0000001E-01;  0.0000000E+00;0;  0.0000000E+00;  0.0000000E+00;  0.0000000E+00;0;  0.0000000E+00;  1.0000000E+04;  0.0000000E+00;  0.0000000E+00;  1.0000000E+04;  0.0000000E+00;  1.0000000E+04;  0.0000000E+00;  0.0000000E+00;  0.0000000E+00;  0.0000000E+00;
 -1.6000000E-01;  9.9999998E-03;  4.0000001E-01;161;  0.0000000E+00;  0.0000000E+00;  0.0000000E+00;  1.0000000E+03;  4.0000001E-01;  0.0000000E+00;0;  0.0000000E+00;  0.0000000E+00;  0.0000000E+00;0;  0.0000000E+00;  1.0000000E+04;  0.0000000E+00;  0.0000000E+00;  1.0000000E+04;  0.0000000E+00;  1.0000000E+04;  0.0000000E+00;  0.0000000E+00;  0.0000000E+00;  0.0000000E+00;
 -1.4000000E-01;  9.9999998E-03;  3.4000000E-01;199;  0.0000000E+00;  0.0000000E+00;  0.0000000E+00;  1.0000000E+03;  4.0000001E-01;  0.0000000E+00;0;  0.0000000E+00;  0.0000000E+00;  0.0000000E+00;0; -1.1431497E-05;  1.0000000E+04;  0.0000000E+00;  0.0000000E+00;  1.0000000E+04;  0.0000000E+00;  1.0000000E+04; -9.6313797E-06;  0.0000000E+00; -1.8001177E-06;  2.6003085E-02;
 -1.4000000E-01;  9.9999998E-03;  3.6000001E-01;200;  0.0000000E+00;  0.0000000E+00;  0.0000000E+00;  1.0000000E+03;  4.0000001E-01;  0.0000000E+00;0;  0.0000000E+00;  0.0000000E+00;  0.0000000E+00;0; -1.3300645E-06;  1.0000000E+04;  0.0000000E+00;  0.0000000E+00;  1.0000000E+04;  0.0000000E+00;  1.0000000E+04; -1.0455643E-06;  0.0000000E+00; -2.8450015E-07;  4.1717282E-03;
 -1.4000000E-01;  9.9999998E-03;  3.8000000E-01;201;  0.0000000E+00;  0.0000000E+00;  0.0000000E+00;  1.0000000E+03;  4.0000001E-01;  0.0000000E+00;0;  0.0000000E+00;  0.0000000E+00;  0.0000000E+00;0;  0.0000000E+00;  1.0000000E+04;  0.0000000E+00;  0.0000000E+00;  1.0000000E+04;  0.0000000E+00;  1.0000000E+04;  0.0000000E+00;  0.0000000E+00;  0.0000000E+00;  0.0000000E+00;
 -1.4000000E-01;  9.9999998E-03;  4.0000001E-01;202;  0.0000000E+00;  0.0000000E+00;  0.0000000E+00;  1.0000000E+03;  4.0000001E-01;  0.0000000E+00;0;  0.0000000E+00;  0.0000000E+00;  0.0000000E+00;0;  0.0000000E+00;  1.0000000E+04;  0.0000000E+00;  0.0000000E+00;  1.0000000E+04;  0.0000000E+00;  1.0000000E+04;  0.0000000E+00;  0.0000000E+00;  0.0000000E+00;  0.0000000E+00;
 -1.2000000E-01;  9.9999998E-03;  3.4000000E-01;240;  0.0000000E+00;  0.0000000E+00;  0.0000000E+00;  1.0000001E+03;  4.0000001E-01;  9.8762624E-02;0;  0.0000000E+00;  0.0000000E+00;  0.0000000E+00;0; -1.4064077E-04;  1.0000000E+04;  0.0000000E+00;  0.0000000E+00;  1.0000000E+04;  0.0000000E+00;  1.0000000E+04; -1.1499190E-04;  0.0000000E+00; -2.5648878E-05;  3.7449631E-01;
 -1.2000000E-01;  9.9999998E-03;  3.6000001E-01;241;  0.0000000E+00;  0.0000000E+00;  0.0000000E+00;  1.0000000E+03;  4.0000001E-01;  0.0000000E+00;0;  0.0000000E+00;  0.0000000E+00;  0.0000000E+00;0; -4.7039226E-05;  1.0000000E+04;  0.0000000E+00;  0.0000000E+00;  1.0000000E+04;  0.0000000E+00;  1.0000000E+04; -3.5360663E-05;  0.0000000E+00; -1.1678565E-05;  1.7217284E-01;
 -1.2000000E-01;  9.9999998E-03;  3.8000000E-01;242;  0.0000000E+00;  0.0000000E+00;  0.0000000E+00;  1.0000000E+03;  4.0000001E-01;  0.0000000E+00;0;  0.0000000E+00;  0.0000000E+00;  0.0000000E+00;0; -6.9801117E-06;  1.0000000E+04;  0.0000000E+00;  0.0000000E+00;  1.0000000E+04;  0.0000000E+00;  1.0000000E+04; -4.9093710E-06;  0.0000000E+00; -2.0707407E-06;  3.0701419E-02;
 -1.2000000E-01;  9.9999998E-03;  4.0000001E-01;243;  0.0000000E+00;  0.0000000E+00;  0.0000000E+00;  1.0000000E+03;  4.0000001E-01;  0.0000000E+00;0;  0.0000000E+00;  0.0000000E+00;  0.0000000E+00;0; -7.4052524E-17;  1.0000000E+04;  0.0000000E+00;  0.0000000E+00;  1.0000000E+04;  0.0000000E+00;  1.0000000E+04; -5.1875368E-17;  0.0000000E+00; -2.2177156E-17;  7.9495255E-14;
 -1.0000000E-01;  9.9999998E-03;  3.4000000E-01;281;  0.0000000E+00;  0.0000000E+00;  0.0000000E+00;  1.0000010E+03;  4.0000001E-01;  8.8886362E-01;0;  0.0000000E+00;  0.0000000E+00;  0.0000000E+00;0; -6.3673174E-04;  1.0000000E+04;  0.0000000E+00;  0.0000000E+00;  1.0000000E+04;  0.0000000E+00;  1.0000000E+04; -5.0690543E-04;  0.0000000E+00; -1.2982631E-04;  1.9042672E+00;
 -1.0000000E-01;  9.9999998E-03;  3.6000001E-01;282;  0.0000000E+00;  0.0000000E+00;  0.0000000E+00;  1.0000004E+03;  4.0000001E-01;  3.9505050E-01;0;  0.0000000E+00;  0.0000000E+00;  0.0000000E+00;0; -2.9134861E-04;  1.0000000E+04;  0.0000000E+00;  0.0000000E+00;  1.0000000E+04;  0.0000000E+00;  1.0000000E+04; -2.1067374E-04;  0.0000000E+00; -8.0674879E-05;  1.1975287E+00;
 -1.0000000E-01;  9.9999998E-03;  3.8000000E-01;283;  0.0000000E+00;  0.0000000E+00;  0.0000000E+00;  1.0000000E+03;  4.0000001E-01;  0.0000000E+00;0;  0.0000000E+00;  0.0000000E+00;  0.0000000E+00;0; -9.2574483E-05;  1.0000000E+04;  0.0000000E+00;  0.0000000E+00;  1.0000000E+04;  0.0000000E+00;  1.0000000E+04; -6.1693077E-05;  0.0000000E+00; -3.0881405E-05;  4.6045610E-01;
 -1.0000000E-01;  9.9999998E-03;  4.0000001E-01;284;  0.0000000E+00;  0.0000000E+00;  0.0000000E+00;  1.0000000E+03;  4.0000001E-01;  0.0000000E+00;0;  0.0000000E+00;  0.0000000E+00;  0.0000000E+00;0; -1.2718640E-05;  1.0000000E+04;  0.0000000E+00;  0.0000000E+00;  1.0000000E+04;  0.0000000E+00;  1.0000000E+04; -8.3644645E-06;  0.0000000E+00; -4.3541759E-06;  6.4991154E-02;
 -7.9999998E-02;  9.9999998E-03;  3.4000000E-01;322;  0.0000000E+00;  0.0000000E+00;  0.0000000E+00;  1.0000031E+03;  4.0000001E-01;  2.5678282E+00;0;  0.0000000E+00;  0.0000000E+00;  0.0000000E+00;0; -1.8435963E-03;  1.0000000E+04;  0.0000000E+00;  0.0000000E+00;  1.0000000E+04;  0.0000000E+00;  1.0000000E+04; -1.4331751E-03;  0.0000000E+00; -4.1042129E-04;  6.0647006E+00;
 -7.9999998E-02;  9.9999998E-03;  3.6000001E-01;323;  0.0000000E+00;  0.0000000E+00;  0.0000000E+00;  1.0000015E+03;  4.0000001E-01;  1.2839141E+00;0;  0.0000000E+00;  0.0000000E+00;  0.0000000E+00;0; -9.7235304E-04;  1.0000000E+04;  0.0000000E+00;  0.0000000E+00;  1.0000000E+04;  0.0000000E+00;  1.0000000E+04; -6.7965215E-04;  0.0000000E+00; -2.9270086E-04;  4.3725591E+00;
 -7.9999998E-02;  9.9999998E-03;  3.8000000E-01;324;  0.0000000E+00;  0.0000000E+00;  0.0000000E+00;  1.0000007E+03;  4.0000001E-01;  5.9257573E-01;0;  0.0000000E+00;  0.0000000E+00;  0.0000000E+00;0; -4.0490349E-04;  1.0000000E+04;  0.0000000E+00;  0.0000000E+00;  1.0000000E+04;  0.0000000E+00;  1.0000000E+04; -2.5802618E-04;  0.0000000E+00; -1.4687730E-04;  2.2041383E+00;
 -7.9999998E-02;  9.9999998E-03;  4.0000001E-01;325;  0.0000000E+00;  0.0000000E+00;  0.0000000E+00;  1.0000000E+03;  4.0000001E-01;  0.0000000E+00;0;  0.0000000E+00;  0.0000000E+00;  0.0000000E+00;0; -1.0668344E-04;  1.0000000E+04;  0.0000000E+00;  0.0000000E+00;  1.0000000E+04;  0.0000000E+00;  1.0000000E+04; -6.6291585E-05;  0.0000000E+00; -4.0391849E-05;  6.0621995E-01;
 -5.9999999E-02;  9.9999998E-03;  3.4000000E-01;363;  0.0000000E+00;  0.0000000E+00;  0.0000000E+00;  1.0000070E+03;  4.0000001E-01;  5.7282324E+00;0;  0.0000000E+00;  0.0000000E+00;  0.0000000E+00;0; -4.0642554E-03;  1.0000000E+04;  0.0000000E+00;  0.0000000E+00;  1.0000000E+04;  0.0000000E+00;  1.0000000E+04; -3.0836628E-03;  0.0000000E+00; -9.8059245E-04;  1.4620016E+01;
 -5.9999999E-02;  9.9999998E-03;  3.6000001E-01;364;  0.0000000E+00;  0.0000000E+00;  0.0000000E+00;  1.0000040E+03;  4.0000001E-01;  3.2591665E+00;0;  0.0000000E+00;  0.0000000E+00;  0.0000000E+00;0; -2.3178363E-03;  1.0000000E+04;  0.0000000E+00;  0.0000000E+00;  1.0000000E+04;  0.0000000E+00;  1.0000000E+04; -1.5662992E-03;  0.0000000E+00; -7.5153710E-04;  1.1316796E+01;
 -5.9999999E-02;  9.9999998E-03;  3.8000000E-01;365;  0.0000000E+00;  0.0000000E+00;  0.0000000E+00;  1.0000018E+03;  4.0000001E-01;  1.4814394E+00;0;  0.0000000E+00;  0.0000000E+00;  0.0000000E+00;0; -1.1037885E-03;  1.0000000E+04;  0.0000000E+00;  0.0000000E+00;  1.0000000E+04;  0.0000000E+00;  1.0000000E+04; -6.7346235E-04;  0.0000000E+00; -4.3032615E-04;  6.5054593E+00;
 -5.9999999E-02;  9.9999998E-03;  4.0000001E-01;366;  0.0000000E+00;  0.0000000E+00;  0.0000000E+00;  1.0000005E+03;  4.0000001E-01;  4.9381313E-01;0;  0.0000000E+00;  0.0000000E+00;  0.0000000E+00;0; -3.7817279E-04;  1.0000000E+04;  0.0000000E+00;  0.0000000E+00;  1.0000000E+04;  0.0000000E+00;  1.0000000E+04; -2.2321827E-04;  0.0000000E+00; -1.5495453E-04;  2.3415294E+00;
 -3.9999999E-02;  9.9999998E-03;  3.4000000E-01;404;  0.0000000E+00;  0.0000000E+00;  0.0000000E+00;  1.0000126E+03;  4.0000001E-01;  1.0468838E+01;0;  0.0000000E+00;  0.0000000E+00;  0.0000000E+00;0; -7.3774927E-03;  1.0000000E+04;  0.0000000E+00;  0.0000000E+00;  1.0000000E+04;  0.0000000E+00;  1.0000000E+04; -5.4473332E-03;  0.0000000E+00; -1.9301596E-03;  2.9075605E+01;
 -3.9999999E-02;  9.9999998E-03;  3.6000001E-01;405;  0.0000000E+00;  0.0000000E+00;  0.0000000E+00;  1.0000076E+03;  4.0000001E-01;  6.2220454E+00;0;  0.0000000E+00;  0.0000000E+00;  0.0000000E+00;0; -4.4127489E-03;  1.0000000E+04;  0.0000000E+00;  0.0000000E+00;  1.0000000E+04;  0.0000000E+00;  1.0000000E+04; -2.8735497E-03;  0.0000000E+00; -1.5391994E-03;  2.3398252E+01;
 -3.9999999E-02;  9.9999998E-03;  3.8000000E-01;406;  0.0000000E+00;  0.0000000E+00;  0.0000000E+00;  1.0000038E+03;  4.0000001E-01;  3.1604040E+00;0;  0.0000000E+00;  0.0000000E+00;  0.0000000E+00;0; -2.2676960E-03;  1.0000000E+04;  0.0000000E+00;  0.0000000E+00;  1.0000000E+04;  0.0000000E+00;  1.0000000E+04; -1.3203454E-03;  0.0000000E+00; -9.4735064E-04;  1.4449551E+01;
 -3.9999999E-02;  9.9999998E-03;  4.0000001E-01;407;  0.0000000E+00;  0.0000000E+00;  0.0000000E+00;  1.0000015E+03;  4.0000001E-01;  1.1851515E+00;0;  0.0000000E+00;  0.0000000E+00;  0.0000000E+00;0; -8.8786078E-04;  1.0000000E+04;  0.0000000E+00;  0.0000000E+00;  1.0000000E+04;  0.0000000E+00;  1.0000000E+04; -4.9624447E-04;  0.0000000E+00; -3.9161634E-04;  5.9674702E+00;
 -2.0000000E-02;  9.9999998E-03;  3.4000000E-01;445;  0.0000000E+00;  0.0000000E+00;  0.0000000E+00;  1.0000199E+03;  4.0000001E-01;  1.6493359E+01;0;  0.0000000E+00;  0.0000000E+00;  0.0000000E+00;0; -1.1548989E-02;  1.0000000E+04;  0.0000000E+00;  0.0000000E+00;  1.0000000E+04;  0.0000000E+00;  1.0000000E+04; -8.2763024E-03;  0.0000000E+00; -3.2726859E-03;  4.9900616E+01;
 -2.0000000E-02;  9.9999998E-03;  3.6000001E-01;446;  0.0000000E+00;  0.0000000E+00;  0.0000000E+00;  1.0000122E+03;  4.0000001E-01;  1.0073788E+01;0;  0.0000000E+00;  0.0000000E+00;  0.0000000E+00;0; -7.1239220E-03;  1.0000000E+04;  0.0000000E+00;  0.0000000E+00;  1.0000000E+04;  0.0000000E+00;  1.0000000E+04; -4.4564740E-03;  0.0000000E+00; -2.6674483E-03;  4.1016048E+01;
 -2.0000000E-02;  9.9999998E-03;  3.8000000E-01;447;  0.0000000E+00;  0.0000000E+00;  0.0000000E+00;  1.0000067E+03;  4.0000001E-01;  5.5307069E+00;0;  0.0000000E+00;  0.0000000E+00;  0.0000000E+00;0; -3.8326150E-03;  1.0000000E+04;  0.0000000E+00;  0.0000000E+00;  1.0000000E+04;  0.0000000E+00;  1.0000000E+04; -2.1215801E-03;  0.0000000E+00; -1.7110349E-03;  2.6384937E+01;
 -2.0000000E-02;  9.9999998E-03;  4.0000001E-01;448;  0.0000000E+00;  0.0000000E+00;  0.0000000E+00;  1.0000026E+03;  4.0000001E-01;  2.1727777E+00;0;  0.0000000E+00;  0.0000000E+00;  0.0000000E+00;0; -1.6152972E-03;  1.0000000E+04;  0.0000000E+00;  0.0000000E+00;  1.0000000E+04;  0.0000000E+00;  1.0000000E+04; -8.5070689E-04;  0.0000000E+00; -7.6459028E-04;  1.1773269E+01;
  0.0000000E+00;  9.9999998E-03;  3.4000000E-01;457;  0.0000000E+00;  0.0000000E+00;  0.0000000E+00;  1.0000280E+03;  4.0000001E-01;  2.3209217E+01;0;  0.0000000E+00;  0.0000000E+00;  0.0000000E+00;0; -1.6061354E-02;  1.0000000E+04;  0.0000000E+00;  0.0000000E+00;  1.0000000E+04;  0.0000000E+00;  1.0000000E+04; -1.1164150E-02;  0.0000000E+00; -4.8972033E-03;  7.5770050E+01;
  0.0000000E+00;  9.9999998E-03;  3.6000001E-01;458;  0.0000000E+00;  0.0000000E+00;  0.0000000E+00;  1.0000176E+03;  4.0000001E-01;  1.4616868E+01;0;  0.0000000E+00;  0.0000000E+00;  0.0000000E+00;0; -1.0120123E-02;  1.0000000E+04;  0.0000000E+00;  0.0000000E+00;  1.0000000E+04;  0.0000000E+00;  1.0000000E+04; -6.0789813E-03;  0.0000000E+00; -4.0411414E-03;  6.3020798E+01;
  0.0000000E+00;  9.9999998E-03;  3.8000000E-01;459;  0.0000000E+00;  0.0000000E+00;  0.0000000E+00;  1.0000096E+03;  4.0000001E-01;  7.9010100E+00;0;  0.0000000E+00;  0.0000000E+00;  0.0000000E+00;0; -5.6018066E-03;  1.0000000E+04;  0.0000000E+00;  0.0000000E+00;  1.0000000E+04;  0.0000000E+00;  1.0000000E+04; -2.9457011E-03;  0.0000000E+00; -2.6561057E-03;  4.1522980E+01;
  0.0000000E+00;  9.9999998E-03;  4.0000001E-01;460;  0.0000000E+00;  0.0000000E+00;  0.0000000E+00;  1.0000042E+03;  4.0000001E-01;  3.4566917E+00;0;  0.0000000E+00;  0.0000000E+00;  0.0000000E+00;0; -2.4600425E-03;  1.0000000E+04;  0.0000000E+00;  0.0000000E+00;  1.0000000E+04;  0.0000000E+00;  1.0000000E+04; -1.2177164E-03;  0.0000000E+00; -1.2423260E-03;  1.9384329E+01;
  2.0000000E-02;  9.9999998E-03;  3.4000000E-01;467;  0.0000000E+00;  0.0000000E+00;  0.0000000E+00;  1.0000358E+03;  4.0000001E-01;  2.9727551E+01;0;  0.0000000E+00;  0.0000000E+00;  0.0000000E+00;0; -2.0336114E-02;  1.0000000E+04;  0.0000000E+00;  0.0000000E+00;  1.0000000E+04;  0.0000000E+00;  1.0000000E+04; -1.3771828E-02;  0.0000000E+00; -6.5642865E-03;  1.0341821E+02;
  2.0000000E-02;  9.9999998E-03;  3.6000001E-01;468;  0.0000000E+00;  0.0000000E+00;  0.0000000E+00;  1.0000229E+03;  4.0000001E-01;  1.9061186E+01;0;  0.0000000E+00;  0.0000000E+00;  0.0000000E+00;0; -1.3014616E-02;  1.0000000E+04;  0.0000000E+00;  0.0000000E+00;  1.0000000E+04;  0.0000000E+00;  1.0000000E+04; -7.5473175E-03;  0.0000000E+00; -5.4672984E-03;  8.6784355E+01;
  2.0000000E-02;  9.9999998E-03;  3.8000000E-01;469;  0.0000000E+00;  0.0000000E+00;  0.0000000E+00;  1.0000129E+03;  4.0000001E-01;  1.0765126E+01;0;  0.0000000E+00;  0.0000000E+00;  0.0000000E+00;0; -7.3337727E-03;  1.0000000E+04;  0.0000000E+00;  0.0000000E+00;  1.0000000E+04;  0.0000000E+00;  1.0000000E+04; -3.6834746E-03;  0.0000000E+00; -3.6502981E-03;  5.8063728E+01;
  2.0000000E-02;  9.9999998E-03;  4.0000001E-01;470;  0.0000000E+00;  0.0000000E+00;  0.0000000E+00;  1.0000057E+03;  4.0000001E-01;  4.7406058E+00;0;  0.0000000E+00;  0.0000000E+00;  0.0000000E+00;0; -3.2914691E-03;  1.0000000E+04;  0.0000000E+00;  0.0000000E+00;  1.0000000E+04;  0.0000000E+00;  1.0000000E+04; -1.5372694E-03;  0.0000000E+00; -1.7541996E-03;  2.7838287E+01;
  3.9999999E-02;  9.9999998E-03;  3.4000000E-01;477;  0.0000000E+00;  0.0000000E+00;  0.0000000E+00;  1.0000434E+03;  4.0000001E-01;  3.5949596E+01;0;  0.0000000E+00;  0.0000000E+00;  0.0000000E+00;0; -2.4081297E-02;  1.0000000E+04;  0.0000000E+00;  0.0000000E+00;  1.0000000E+04;  0.0000000E+00;  1.0000000E+04; -1.6077328E-02;  0.0000000E+00; -8.0039687E-03;  1.2900949E+02;
  3.9999999E-02;  9.9999998E-03;  3.6000001E-01;478;  0.0000000E+00;  0.0000000E+00;  0.0000000E+00;  1.0000281E+03;  4.0000001E-01;  2.3307980E+01;0;  0.0000000E+00;  0.0000000E+00;  0.0000000E+00;0; -1.5573338E-02;  1.0000000E+04;  0.0000000E+00;  0.0000000E+00;  1.0000000E+04;  0.0000000E+00;  1.0000000E+04; -8.8390093E-03;  0.0000000E+00; -6.7343288E-03;  1.0931995E+02;
  3.9999999E-02;  9.9999998E-03;  3.8000000E-01;479;  0.0000000E+00;  0.0000000E+00;  0.0000000E+00;  1.0000159E+03;  4.0000001E-01;  1.3135429E+01;0;  0.0000000E+00;  0.0000000E+00;  0.0000000E+00;0; -8.8670105E-03;  1.0000000E+04;  0.0000000E+00;  0.0000000E+00;  1.0000000E+04;  0.0000000E+00;  1.0000000E+04; -4.3174266E-03;  0.0000000E+00; -4.5495839E-03;  7.3978737E+01;
  3.9999999E-02;  9.9999998E-03;  4.0000001E-01;480;  0.0000000E+00;  0.0000000E+00;  0.0000000E+00;  1.0000071E+03;  4.0000001E-01;  5.9257574E+00;0;  0.0000000E+00;  0.0000000E+00;  0.0000000E+00;0; -4.0186844E-03;  1.0000000E+04;  0.0000000E+00;  0.0000000E+00;  1.0000000E+04;  0.0000000E+00;  1.0000000E+04; -1.7968699E-03;  0.0000000E+00; -2.2218144E-03;  3.6028385E+01;
  5.9999999E-02;  9.9999998E-03;  3.4000000E-01;487;  0.0000000E+00;  0.0000000E+00;  0.0000000E+00;  1.0000505E+03;  4.0000001E-01;  4.1875351E+01;0;  0.0000000E+00;  0.0000000E+00;  0.0000000E+00;0; -2.7455552E-02;  1.0000000E+04;  0.0000000E+00;  0.0000000E+00;  1.0000000E+04;  0.0000000E+00;  1.0000000E+04; -1.8382970E-02;  0.0000000E+00; -9.0725813E-03;  1.5047427E+02;
  5.9999999E-02;  9.9999998E-03;  3.6000001E-01;488;  0.0000000E+00;  0.0000000E+00;  0.0000000E+00;  1.0000328E+03;  4.0000001E-01;  2.7159721E+01;0;  0.0000000E+00;  0.0000000E+00;  0.0000000E+00;0; -1.7844044E-02;  1.0000000E+04;  0.0000000E+00;  0.0000000E+00;  1.0000000E+04;  0.0000000E+00;  1.0000000E+04; -1.0126999E-02;  0.0000000E+00; -7.7170460E-03;  1.2884892E+02;
  5.9999999E-02;  9.9999998E-03;  3.8000000E-01;489;  0.0000000E+00;  0.0000000E+00;  0.0000000E+00;  1.0000187E+03;  4.0000001E-01;  1.5505732E+01;0;  0.0000000E+00;  0.0000000E+00;  0.0000000E+00;0; -1.0206926E-02;  1.0000000E+04;  0.0000000E+00;  0.0000000E+00;  1.0000000E+04;  0.0000000E+00;  1.0000000E+04; -4.9419957E-03;  0.0000000E+00; -5.2649300E-03;  8.8002426E+01;
  5.9999999E-02;  9.9999998E-03;  4.0000001E-01;490;  0.0000000E+00;  0.0000000E+00;  0.0000000E+00;  1.0000085E+03;  4.0000001E-01;  7.1109090E+00;0;  0.0000000E+00;  0.0000000E+00;  0.0000000E+00;0; -4.6398444E-03;  1.0000000E+04;  0.0000000E+00;  0.0000000E+00;  1.0000000E+04;  0.0000000E+00;  1.0000000E+04; -2.0434046E-03;  0.0000000E+00; -2.5964396E-03;  4.3254036E+01;
  7.9999998E-02;  9.9999998E-03;  3.4000000E-01;497;  0.0000000E+00;  0.0000000E+00;  0.0000000E+00;  1.0000588E+03;  4.0000001E-01;  4.8788734E+01;0;  0.0000000E+00;  0.0000000E+00;  0.0000000E+00;0; -3.1078301E-02;  1.0000000E+04;  0.0000000E+00;  0.0000000E+00;  1.0000000E+04;  0.0000000E+00;  1.0000000E+04; -2.1277636E-02;  0.0000000E+00; -9.8006660E-03;  1.6886394E+02;
  7.9999998E-02;  9.9999998E-03;  3.6000001E-01;498;  0.0000000E+00;  0.0000000E+00;  0.0000000E+00;  1.0000383E+03;  4.0000001E-01;  3.1801565E+01;0;  0.0000000E+00;  0.0000000E+00;  0.0000000E+00;0; -2.0206276E-02;  1.0000000E+04;  0.0000000E+00;  0.0000000E+00;  1.0000000E+04;  0.0000000E+00;  1.0000000E+04; -1.1783470E-02;  0.0000000E+00; -8.4228059E-03;  1.4584898E+02;
  7.9999998E-02;  9.9999998E-03;  3.8000000E-01;499;  0.0000000E+00;  0.0000000E+00;  0.0000000E+00;  1.0000218E+03;  4.0000001E-01;  1.8073561E+01;0;  0.0000000E+00;  0.0000000E+00;  0.0000000E+00;0; -1.1555180E-02;  1.0000000E+04;  0.0000000E+00;  0.0000000E+00;  1.0000000E+04;  0.0000000E+00;  1.0000000E+04; -5.7616979E-03;  0.0000000E+00; -5.7934821E-03;  1.0014761E+02;
  7.9999998E-02;  9.9999998E-03;  4.0000001E-01;500;  0.0000000E+00;  0.0000000E+00;  0.0000000E+00;  1.0000098E+03;  4.0000001E-01;  8.0985355E+00;0;  0.0000000E+00;  0.0000000E+00;  0.0000000E+00;0; -5.2509550E-03;  1.0000000E+04;  0.0000000E+00;  0.0000000E+00;  1.0000000E+04;  0.0000000E+00;  1.0000000E+04; -2.3742625E-03;  0.0000000E+00; -2.8766922E-03;  4.9547802E+01;
  1.0000000E-01;  9.9999998E-03;  3.4000000E-01;507;  0.0000000E+00;  0.0000000E+00;  0.0000000E+00;  1.0000701E+03;  4.0000001E-01;  5.8072422E+01;0;  0.0000000E+00;  0.0000000E+00;  0.0000000E+00;0; -3.5963222E-02;  1.0000000E+04;  0.0000000E+00;  0.0000000E+00;  1.0000000E+04;  0.0000000E+00;  1.0000000E+04; -2.5594579E-02;  0.0000000E+00; -1.0368644E-02;  1.9859096E+02;
  1.0000000E-01;  9.9999998E-03;  3.6000001E-01;508;  0.0000000E+00;  0.0000000E+00;  0.0000000E+00;  1.0000455E+03;  4.0000001E-01;  3.7628559E+01;0;  0.0000000E+00;  0.0000000E+00;  0.0000000E+00;0; -2.3331441E-02;  1.0000000E+04;  0.0000000E+00;  0.0000000E+00;  1.0000000E+04;  0.0000000E+00;  1.0000000E+04; -1.4348078E-02;  0.0000000E+00; -8.9833634E-03;  1.6480923E+02;
  1.0000000E-01;  9.9999998E-03;  3.8000000E-01;509;  0.0000000E+00;  0.0000000E+00;  0.0000000E+00;  1.0000259E+03;  4.0000001E-01;  2.1431490E+01;0;  0.0000000E+00;  0.0000000E+00;  0.0000000E+00;0; -1.3293448E-02;  1.0000000E+04;  0.0000000E+00;  0.0000000E+00;  1.0000000E+04;  0.0000000E+00;  1.0000000E+04; -7.0781196E-03;  0.0000000E+00; -6.2153284E-03;  1.1178472E+02;
  1.0000000E-01;  9.9999998E-03;  4.0000001E-01;510;  0.0000000E+00;  0.0000000E+00;  0.0000000E+00;  1.0000119E+03;  4.0000001E-01;  9.8762627E+00;0;  0.0000000E+00;  0.0000000E+00;  0.0000000E+00;0; -6.0352422E-03;  1.0000000E+04;  0.0000000E+00;  0.0000000E+00;  1.0000000E+04;  0.0000000E+00;  1.0000000E+04; -2.9314104E-03;  0.0000000E+00; -3.1038320E-03;  5.8617180E+01;
  1.2000000E-01;  9.9999998E-03;  3.4000000E-01;517;  0.0000000E+00;  0.0000000E+00;  0.0000000E+00;  1.0000872E+03;  4.0000001E-01;  7.2195480E+01;0;  0.0000000E+00;  0.0000000E+00;  0.0000000E+00;0; -4.3428365E-02;  1.0000000E+04;  0.0000000E+00;  0.0000000E+00;  1.0000000E+04;  0.0000000E+00;  1.0000000E+04; -3.2318980E-02;  0.0000000E+00; -1.1109385E-02;  3.1865424E+02;
  1.2000000E-01;  9.9999998E-03;  3.6000001E-01;518;  0.0000000E+00;  0.0000000E+00;  0.0000000E+00;  1.0000564E+03;  4.0000001E-01;  4.6714722E+01;0;  0.0000000E+00;  0.0000000E+00;  0.0000000E+00;0; -2.8150197E-02;  1.0000000E+04;  0.0000000E+00;  0.0000000E+00;  1.0000000E+04;  0.0000000E+00;  1.0000000E+04; -1.8484090E-02;  0.0000000E+00; -9.6661085E-03;  1.9809314E+02;
  1.2000000E-01;  9.9999998E-03;  3.8000000E-01;519;  0.0000000E+00;  0.0000000E+00;  0.0000000E+00;  1.0000321E+03;  4.0000001E-01;  2.6567146E+01;0;  0.0000000E+00;  0.0000000E+00;  0.0000000E+00;0; -1.5979899E-02;  1.0000000E+04;  0.0000000E+00;  0.0000000E+00;  1.0000000E+04;  0.0000000E+00;  1.0000000E+04; -9.2765540E-03;  0.0000000E+00; -6.7033456E-03;  1.3813147E+02;
  1.2000000E-01;  9.9999998E-03;  4.0000001E-01;520;  0.0000000E+00;  0.0000000E+00;  0.0000000E+00;  1.0000146E+03;  4.0000001E-01;  1.2147802E+01;0;  0.0000000E+00;  0.0000000E+00;  0.0000000E+00;0; -7.2648441E-03;  1.0000000E+04;  0.0000000E+00;  0.0000000E+00;  1.0000000E+04;  0.0000000E+00;  1.0000000E+04; -3.9048234E-03;  0.0000000E+00; -3.3600209E-03;  1.0899883E+02;
  1.4000000E-01;  9.9999998E-03;  3.4000000E-01;527;  0.0000000E+00;  0.0000000E+00;  0.0000000E+00;  1.0001135E+03;  4.0000001E-01;  9.4022018E+01;0;  0.0000000E+00;  0.0000000E+00;  0.0000000E+00;0; -5.5070132E-02;  1.0000000E+04;  0.0000000E+00;  0.0000000E+00;  1.0000000E+04;  0.0000000E+00;  1.0000000E+04; -4.2519812E-02;  0.0000000E+00; -1.2550319E-02;  6.9521686E+02;
  1.4000000E-01;  9.9999998E-03;  3.6000001E-01;528;  0.0000000E+00;  0.0000000E+00;  0.0000000E+00;  1.0000742E+03;  4.0000001E-01;  6.1529114E+01;0;  0.0000000E+00;  0.0000000E+00;  0.0000000E+00;0; -3.5879742E-02;  1.0000000E+04;  0.0000000E+00;  0.0000000E+00;  1.0000000E+04;  0.0000000E+00;  1.0000000E+04; -2.4956532E-02;  0.0000000E+00; -1.0923210E-02;  2.6461298E+02;
  1.4000000E-01;  9.9999998E-03;  3.8000000E-01;529;  0.0000000E+00;  0.0000000E+00;  0.0000000E+00;  1.0000423E+03;  4.0000001E-01;  3.5060730E+01;0;  0.0000000E+00;  0.0000000E+00;  0.0000000E+00;0; -2.0424847E-02;  1.0000000E+04;  0.0000000E+00;  0.0000000E+00;  1.0000000E+04;  0.0000000E+00;  1.0000000E+04; -1.2840075E-02;  0.0000000E+00; -7.5847711E-03;  2.7922934E+02;
  1.4000000E-01;  9.9999998E-03;  4.0000001E-01;530;  0.0000000E+00;  0.0000000E+00;  0.0000000E+00;  1.0000193E+03;  4.0000001E-01;  1.5999545E+01;0;  0.0000000E+00;  0.0000000E+00;  0.0000000E+00;0; -9.3827378E-03;  1.0000000E+04;  0.0000000E+00;  0.0000000E+00;  1.0000000E+04;  0.0000000E+00;  1.0000000E+04; -5.5593229E-03;  0.0000000E+00; -3.8234149E-03;  3.1666382E+02;
  1.6000000E-01;  9.9999998E-03;  3.4000000E-01;537;  0.0000000E+00;  0.0000000E+00;  0.0000000E+00;  1.0001528E+03;  4.0000001E-01;  1.2661369E+02;0;  0.0000000E+00;  0.0000000E+00;  0.0000000E+00;0; -7.2303616E-02;  1.0000000E+04;  0.0000000E+00;  0.0000000E+00;  1.0000000E+04;  0.0000000E+00;  1.0000000E+04; -5.6800015E-02;  0.0000000E+00; -1.5503597E-02;  1.5015591E+03;
  1.6000000E-01;  9.9999998E-03;  3.6000001E-01;538;  0.0000000E+00;  0.0000000E+00;  0.0000000E+00;  1.0001012E+03;  4.0000001E-01;  8.3849464E+01;0;  0.0000000E+00;  0.0000000E+00;  0.0000000E+00;0; -4.7700614E-02;  1.0000000E+04;  0.0000000E+00;  0.0000000E+00;  1.0000000E+04;  0.0000000E+00;  1.0000000E+04; -3.4226801E-02;  0.0000000E+00; -1.3473812E-02;  3.6488058E+02;
  1.6000000E-01;  9.9999998E-03;  3.8000000E-01;539;  0.0000000E+00;  0.0000000E+00;  0.0000000E+00;  1.0000587E+03;  4.0000001E-01;  4.8591209E+01;0;  0.0000000E+00;  0.0000000E+00;  0.0000000E+00;0; -2.7601136E-02;  1.0000000E+04;  0.0000000E+00;  0.0000000E+00;  1.0000000E+04;  0.0000000E+00;  1.0000000E+04; -1.8152950E-02;  0.0000000E+00; -9.4481856E-03;  7.3902441E+02;
  1.6000000E-01;  9.9999998E-03;  4.0000001E-01;540;  0.0000000E+00;  0.0000000E+00;  0.0000000E+00;  1.0000277E+03;  4.0000001E-01;  2.2912930E+01;0;  0.0000000E+00;  0.0000000E+00;  0.0000000E+00;0; -1.3100090E-02;  1.0000000E+04;  0.0000000E+00;  0.0000000E+00;  1.0000000E+04;  0.0000000E+00;  1.0000000E+04; -8.2066599E-03;  0.0000000E+00; -4.8934300E-03;  8.8856628E+02;
  1.8000001E-01;  9.9999998E-03;  3.4000000E-01;547;  0.0000000E+00;  0.0000000E+00;  0.0000000E+00;  1.0002062E+03;  4.0000001E-01;  1.7085934E+02;0;  0.0000000E+00;  0.0000000E+00;  0.0000000E+00;0; -9.5058292E-02;  1.0000000E+04;  0.0000000E+00;  0.0000000E+00;  1.0000000E+04;  0.0000000E+00;  1.0000000E+04; -7.3860988E-02;  0.0000000E+00; -2.1197302E-02;  2.7920127E+03;
  1.8000001E-01;  9.9999998E-03;  3.6000001E-01;548;  0.0000000E+00;  0.0000000E+00;  0.0000000E+00;  1.0001385E+03;  4.0000001E-01;  1.1476217E+02;0;  0.0000000E+00;  0.0000000E+00;  0.0000000E+00;0; -6.3737035E-02;  1.0000000E+04;  0.0000000E+00;  0.0000000E+00;  1.0000000E+04;  0.0000000E+00;  1.0000000E+04; -4.5321941E-02;  0.0000000E+00; -1.8415092E-02;  4.5226431E+02;
  1.8000001E-01;  9.9999998E-03;  3.8000000E-01;549;  0.0000000E+00;  0.0000000E+00;  0.0000000E+00;  1.0000831E+03;  4.0000001E-01;  6.8837547E+01;0;  0.0000000E+00;  0.0000000E+00;  0.0000000E+00;0; -3.8110171E-02;  1.0000000E+04;  0.0000000E+00;  0.0000000E+00;  1.0000000E+04;  0.0000000E+00;  1.0000000E+04; -2.4806855E-02;  0.0000000E+00; -1.3303316E-02;  1.7371245E+03;
  1.8000001E-01;  9.9999998E-03;  4.0000001E-01;550;  0.0000000E+00;  0.0000000E+00;  0.0000000E+00;  1.0000420E+03;  4.0000001E-01;  3.4764442E+01;0;  0.0000000E+00;  0.0000000E+00;  0.0000000E+00;0; -1.9363917E-02;  1.0000000E+04;  0.0000000E+00;  0.0000000E+00;  1.0000000E+04;  0.0000000E+00;  1.0000000E+04; -1.1940052E-02;  0.0000000E+00; -7.4238665E-03;  2.1523345E+03;
  2.0000000E-01;  9.9999998E-03;  3.4000000E-01;556;  0.0000000E+00;  0.0000000E+00;  0.0000000E+00;  1.0002701E+03;  4.0000001E-01;  2.2379611E+02;0;  0.0000000E+00;  0.0000000E+00;  0.0000000E+00;0; -1.2154973E-01;  1.0000000E+04;  0.0000000E+00;  0.0000000E+00;  1.0000000E+04;  0.0000000E+00;  1.0000000E+04; -9.0263791E-02;  0.0000000E+00; -3.1285934E-02;  4.2322197E+03;
  2.0000000E-01;  9.9999998E-03;  3.6000001E-01;557;  0.0000000E+00;  0.0000000E+00;  0.0000000E+00;  1.0001852E+03;  4.0000001E-01;  1.5337836E+02;0;  0.0000000E+00;  0.0000000E+00;  0.0000000E+00;0; -8.3109066E-02;  1.0000000E+04;  0.0000000E+00;  0.0000000E+00;  1.0000000E+04;  0.0000000E+00;  1.0000000E+04; -5.5848133E-02;  0.0000000E+00; -2.7260933E-02;  5.7612457E+02;
  2.0000000E-01;  9.9999998E-03;  3.8000000E-01;558;  0.0000000E+00;  0.0000000E+00;  0.0000000E+00;  1.0001166E+03;  4.0000001E-01;  9.6589844E+01;0;  0.0000000E+00;  0.0000000E+00;  0.0000000E+00;0; -5.2141037E-02;  1.0000000E+04;  0.0000000E+00;  0.0000000E+00;  1.0000000E+04;  0.0000000E+00;  1.0000000E+04; -3.1442154E-02;  0.0000000E+00; -2.0698883E-02;  3.3142288E+03;
  1.9200000E+00;  9.9999998E-03; -3.6000001E-01;559;  0.0000000E+00;  0.0000000E+00;  0.0000000E+00;  1.0000000E+03;  4.0000001E-01;  0.0000000E+00;0;  0.0000000E+00;  0.0000000E+00;  0.0000000E+00;0;  0.0000000E+00;  1.0000000E+04;  0.0000000E+00;  0.0000000E+00;  1.0000000E+04;  0.0000000E+00;  1.0000000E+04;  0.0000000E+00;  0.0000000E+00;  0.0000000E+00;  0.0000000E+00;
  1.9200000E+00;  9.9999998E-03; -3.4000000E-01;560;  0.0000000E+00;  0.0000000E+00;  0.0000000E+00;  1.0000000E+03;  4.0000001E-01;  0.0000000E+00;0;  0.0000000E+00;  0.0000000E+00;  0.0000000E+00;0;  0.0000000E+00;  1.0000000E+04;  0.0000000E+00;  0.0000000E+00;  1.0000000E+04;  0.0000000E+00;  1.0000000E+04;  0.0000000E+00;  0.0000000E+00;  0.0000000E+00;  0.0000000E+00;
  1.9200000E+00;  9.9999998E-03; -3.1999999E-01;561;  0.0000000E+00;  0.0000000E+00;  0.0000000E+00;  1.0000000E+03;  4.0000001E-01;  0.0000000E+00;0;  0.0000000E+00;  0.0000000E+00;  0.0000000E+00;0;  0.0000000E+00;  1.0000000E+04;  0.0000000E+00;  0.0000000E+00;  1.0000000E+04;  0.0000000E+00;  1.0000000E+04;  0.0000000E+00;  0.0000000E+00;  0.0000000E+00;  0.0000000E+00;
  1.9400001E+00;  9.9999998E-03; -3.8000000E-01;562;  0.0000000E+00;  0.0000000E+00;  0.0000000E+00;  1.0000000E+03;  4.0000001E-01;  0.0000000E+00;0;  0.0000000E+00;  0.0000000E+00;  0.0000000E+00;0;  0.0000000E+00;  1.0000000E+04;  0.0000000E+00;  0.0000000E+00;  1.0000000E+04;  0.0000000E+00;  1.0000000E+04;  0.0000000E+00;  0.0000000E+00;  0.0000000E+00;  0.0000000E+00;
  1.9400001E+00;  9.9999998E-03; -3.6000001E-01;563;  0.0000000E+00;  0.0000000E+00;  0.0000000E+00;  1.0000000E+03;  4.0000001E-01;  0.0000000E+00;0;  0.0000000E+00;  0.0000000E+00;  0.0000000E+00;0;  0.0000000E+00;  1.0000000E+04;  0.0000000E+00;  0.0000000E+00;  1.0000000E+04;  0.0000000E+00;  1.0000000E+04;  0.0000000E+00;  0.0000000E+00;  0.0000000E+00;  0.0000000E+00;
  1.9400001E+00;  9.9999998E-03; -3.4000000E-01;564;  0.0000000E+00;  0.0000000E+00;  0.0000000E+00;  1.0000000E+03;  4.0000001E-01;  0.0000000E+00;0;  0.0000000E+00;  0.0000000E+00;  0.0000000E+00;0;  0.0000000E+00;  1.0000000E+04;  0.0000000E+00;  0.0000000E+00;  1.0000000E+04;  0.0000000E+00;  1.0000000E+04;  0.0000000E+00;  0.0000000E+00;  0.0000000E+00;  0.0000000E+00;
  1.9400001E+00;  9.9999998E-03; -3.1999999E-01;565;  0.0000000E+00;  0.0000000E+00;  0.0000000E+00;  1.0000000E+03;  4.0000001E-01;  0.0000000E+00;0;  0.0000000E+00;  0.0000000E+00;  0.0000000E+00;0;  0.0000000E+00;  1.0000000E+04;  0.0000000E+00;  0.0000000E+00;  1.0000000E+04;  0.0000000E+00;  1.0000000E+04;  0.0000000E+00;  0.0000000E+00;  0.0000000E+00;  0.0000000E+00;
  1.9400001E+00;  9.9999998E-03; -3.0000001E-01;566;  0.0000000E+00;  0.0000000E+00;  0.0000000E+00;  1.0000000E+03;  4.0000001E-01;  0.0000000E+00;0;  0.0000000E+00;  0.0000000E+00;  0.0000000E+00;0;  0.0000000E+00;  1.0000000E+04;  0.0000000E+00;  0.0000000E+00;  1.0000000E+04;  0.0000000E+00;  1.0000000E+04;  0.0000000E+00;  0.0000000E+00;  0.0000000E+00;  0.0000000E+00;
  1.9400001E+00;  9.9999998E-03; -2.8000000E-01;567;  0.0000000E+00;  0.0000000E+00;  0.0000000E+00;  1.0000000E+03;  4.0000001E-01;  0.0000000E+00;0;  0.0000000E+00;  0.0000000E+00;  0.0000000E+00;0;  0.0000000E+00;  1.0000000E+04;  0.0000000E+00;  0.0000000E+00;  1.0000000E+04;  0.0000000E+00;  1.0000000E+04;  0.0000000E+00;  0.0000000E+00;  0.0000000E+00;  0.0000000E+00;
  1.9400001E+00;  9.9999998E-03; -2.5999999E-01;568;  0.0000000E+00;  0.0000000E+00;  0.0000000E+00;  1.0000000E+03;  4.0000001E-01;  0.0000000E+00;0;  0.0000000E+00;  0.0000000E+00;  0.0000000E+00;0;  0.0000000E+00;  1.0000000E+04;  0.0000000E+00;  0.0000000E+00;  1.0000000E+04;  0.0000000E+00;  1.0000000E+04;  0.0000000E+00;  0.0000000E+00;  0.0000000E+00;  0.0000000E+00;
  1.9400001E+00;  9.9999998E-03; -2.3999999E-01;569;  0.0000000E+00;  0.0000000E+00;  0.0000000E+00;  1.0000000E+03;  4.0000001E-01;  0.0000000E+00;0;  0.0000000E+00;  0.0000000E+00;  0.0000000E+00;0;  0.0000000E+00;  1.0000000E+04;  0.0000000E+00;  0.0000000E+00;  1.0000000E+04;  0.0000000E+00;  1.0000000E+04;  0.0000000E+00;  0.0000000E+00;  0.0000000E+00;  0.0000000E+00;
  1.9400001E+00;  9.9999998E-03; -2.2000000E-01;570;  0.0000000E+00;  0.0000000E+00;  0.0000000E+00;  1.0000000E+03;  4.0000001E-01;  0.0000000E+00;0;  0.0000000E+00;  0.0000000E+00;  0.0000000E+00;0;  0.0000000E+00;  1.0000000E+04;  0.0000000E+00;  0.0000000E+00;  1.0000000E+04;  0.0000000E+00;  1.0000000E+04;  0.0000000E+00;  0.0000000E+00;  0.0000000E+00;  0.0000000E+00;
  1.9600000E+00;  9.9999998E-03; -3.8000000E-01;571;  0.0000000E+00;  0.0000000E+00;  0.0000000E+00;  1.0000000E+03;  4.0000001E-01;  0.0000000E+00;0;  0.0000000E+00;  0.0000000E+00;  0.0000000E+00;0;  0.0000000E+00;  1.0000000E+04;  0.0000000E+00;  0.0000000E+00;  1.0000000E+04;  0.0000000E+00;  1.0000000E+04;  0.0000000E+00;  0.0000000E+00;  0.0000000E+00;  0.0000000E+00;
  1.9600000E+00;  9.9999998E-03; -3.6000001E-01;572;  0.0000000E+00;  0.0000000E+00;  0.0000000E+00;  1.0000000E+03;  4.0000001E-01;  0.0000000E+00;0;  0.0000000E+00;  0.0000000E+00;  0.0000000E+00;0;  0.0000000E+00;  1.0000000E+04;  0.0000000E+00;  0.0000000E+00;  1.0000000E+04;  0.0000000E+00;  1.0000000E+04;  0.0000000E+00;  0.0000000E+00;  0.0000000E+00;  0.0000000E+00;
  1.9600000E+00;  9.9999998E-03; -3.4000000E-01;573;  0.0000000E+00;  0.0000000E+00;  0.0000000E+00;  1.0000000E+03;  4.0000001E-01;  0.0000000E+00;0;  0.0000000E+00;  0.0000000E+00;  0.0000000E+00;0;  0.0000000E+00;  1.0000000E+04;  0.0000000E+00;  0.0000000E+00;  1.0000000E+04;  0.0000000E+00;  1.0000000E+04;  0.0000000E+00;  0.0000000E+00;  0.0000000E+00;  0.0000000E+00;
  1.9600000E+00;  9.9999998E-03; -3.1999999E-01;574;  0.0000000E+00;  0.0000000E+00;  0.0000000E+00;  1.0000000E+03;  4.0000001E-01;  0.0000000E+00;0;  0.0000000E+00;  0.0000000E+00;  0.0000000E+00;0;  0.0000000E+00;  1.0000000E+04;  0.0000000E+00;  0.0000000E+00;  1.0000000E+04;  0.0000000E+00;  1.0000000E+04;  0.0000000E+00;  0.0000000E+00;  0.0000000E+00;  0.0000000E+00;
  1.9600000E+00;  9.9999998E-03; -3.0000001E-01;575;  0.0000000E+00;  0.0000000E+00;  0.0000000E+00;  1.0000000E+03;  4.0000001E-01;  0.0000000E+00;0;  0.0000000E+00;  0.0000000E+00;  0.0000000E+00;0;  0.0000000E+00;  1.0000000E+04;  0.0000000E+00;  0.0000000E+00;  1.0000000E+04;  0.0000000E+00;  1.0000000E+04;  0.0000000E+00;  0.0000000E+00;  0.0000000E+00;  0.0000000E+00;
  1.9600000E+00;  9.9999998E-03; -2.8000000E-01;576;  0.0000000E+00;  0.0000000E+00;  0.0000000E+00;  1.0000000E+03;  4.0000001E-01;  0.0000000E+00;0;  0.0000000E+00;  0.0000000E+00;  0.0000000E+00;0;  0.0000000E+00;  1.0000000E+04;  0.0000000E+00;  0.0000000E+00;  1.0000000E+04;  0.0000000E+00;  1.0000000E+04;  0.0000000E+00;  0.0000000E+00;  0.0000000E+00;  0.0000000E+00;
  1.9600000E+00;  9.9999998E-03; -2.5999999E-01;577;  0.0000000E+00;  0.0000000E+00;  0.0000000E+00;  1.0000000E+03;  4.0000001E-01;  0.0000000E+00;0;  0.0000000E+00;  0.0000000E+00;  0.0000000E+00;0;  0.0000000E+00;  1.0000000E+04;  0.0000000E+00;  0.0000000E+00;  1.0000000E+04;  0.0000000E+00;  1.0000000E+04;  0.0000000E+00;  0.0000000E+00;  0.0000000E+00;  0.0000000E+00;
  1.9600000E+00;  9.9999998E-03; -2.3999999E-01;578;  0.0000000E+00;  0.0000000E+00;  0.0000000E+00;  1.0000000E+03;  4.0000001E-01;  0.0000000E+00;0;  0.0000000E+00;  0.0000000E+00;  0.0000000E+00;0;  0.0000000E+00;  1.0000000E+04;  0.0000000E+00;  0.0000000E+00;  1.0000000E+04;  0.0000000E+00;  1.0000000E+04;  0.0000000E+00;  0.0000000E+00;  0.0000000E+00;  0.0000000E+00;
  1.9600000E+00;  9.9999998E-03; -2.2000000E-01;579;  0.0000000E+00;  0.0000000E+00;  0.0000000E+00;  1.0000000E+03;  4.0000001E-01;  0.0000000E+00;0;  0.0000000E+00;  0.0000000E+00;  0.0000000E+00;0;  0.0000000E+00;  1.0000000E+04;  0.0000000E+00;  0.0000000E+00;  1.0000000E+04;  0.0000000E+00;  1.0000000E+04;  0.0000000E+00;  0.0000000E+00;  0.0000000E+00;  0.0000000E+00;
  1.9600000E+00;  9.9999998E-03; -2.0000000E-01;580;  0.0000000E+00;  0.0000000E+00;  0.0000000E+00;  1.0000000E+03;  4.0000001E-01;  0.0000000E+00;0;  0.0000000E+00;  0.0000000E+00;  0.0000000E+00;0;  0.0000000E+00;  1.0000000E+04;  0.0000000E+00;  0.0000000E+00;  1.0000000E+04;  0.0000000E+00;  1.0000000E+04;  0.0000000E+00;  0.0000000E+00;  0.0000000E+00;  0.0000000E+00;
  1.9600000E+00;  9.9999998E-03; -1.8000001E-01;581;  0.0000000E+00;  0.0000000E+00;  0.0000000E+00;  1.0000000E+03;  4.0000001E-01;  0.0000000E+00;0;  0.0000000E+00;  0.0000000E+00;  0.0000000E+00;0;  0.0000000E+00;  1.0000000E+04;  0.0000000E+00;  0.0000000E+00;  1.0000000E+04;  0.0000000E+00;  1.0000000E+04;  0.0000000E+00;  0.0000000E+00;  0.0000000E+00;  0.0000000E+00;
  1.9600000E+00;  9.9999998E-03; -1.6000000E-01;582;  0.0000000E+00;  0.0000000E+00;  0.0000000E+00;  1.0000000E+03;  4.0000001E-01;  0.0000000E+00;0;  0.0000000E+00;  0.0000000E+00;  0.0000000E+00;0;  0.0000000E+00;  1.0000000E+04;  0.0000000E+00;  0.0000000E+00;  1.0000000E+04;  0.0000000E+00;  1.0000000E+04;  0.0000000E+00;  0.0000000E+00;  0.0000000E+00;  0.0000000E+00;
  1.9600000E+00;  9.9999998E-03; -1.4000000E-01;583;  0.0000000E+00;  0.0000000E+00;  0.0000000E+00;  1.0000000E+03;  4.0000001E-01;  0.0000000E+00;0;  0.0000000E+00;  0.0000000E+00;  0.0000000E+00;0;  0.0000000E+00;  1.0000000E+04;  0.0000000E+00;  0.0000000E+00;  1.0000000E+04;  0.0000000E+00;  1.0000000E+04;  0.0000000E+00;  0.0000000E+00;  0.0000000E+00;  0.0000000E+00;
  1.9600000E+00;  9.9999998E-03; -1.2000000E-01;584;  0.0000000E+00;  0.0000000E+00;  0.0000000E+00;  1.0000000E+03;  4.0000001E-01;  0.0000000E+00;0;  0.0000000E+00;  0.0000000E+00;  0.0000000E+00;0;  0.0000000E+00;  1.0000000E+04;  0.0000000E+00;  0.0000000E+00;  1.0000000E+04;  0.0000000E+00;  1.0000000E+04;  0.0000000E+00;  0.0000000E+00;  0.0000000E+00;  0.0000000E+00;
  1.9800000E+00;  9.9999998E-03; -3.8000000E-01;585;  0.0000000E+00;  0.0000000E+00;  0.0000000E+00;  1.0000000E+03;  4.0000001E-01;  0.0000000E+00;0;  0.0000000E+00;  0.0000000E+00;  0.0000000E+00;0;  0.0000000E+00;  1.0000000E+04;  0.0000000E+00;  0.0000000E+00;  1.0000000E+04;  0.0000000E+00;  1.0000000E+04;  0.0000000E+00;  0.0000000E+00;  0.0000000E+00;  0.0000000E+00;
  1.9800000E+00;  9.9999998E-03; -3.6000001E-01;586;  0.0000000E+00;  0.0000000E+00;  0.0000000E+00;  1.0000000E+03;  4.0000001E-01;  0.0000000E+00;0;  0.0000000E+00;  0.0000000E+00;  0.0000000E+00;0;  0.0000000E+00;  1.0000000E+04;  0.0000000E+00;  0.0000000E+00;  1.0000000E+04;  0.0000000E+00;  1.0000000E+04;  0.0000000E+00;  0.0000000E+00;  0.0000000E+00;  0.0000000E+00;
  1.9800000E+00;  9.9999998E-03; -3.4000000E-01;587;  0.0000000E+00;  0.0000000E+00;  0.0000000E+00;  1.0000000E+03;  4.0000001E-01;  0.0000000E+00;0;  0.0000000E+00;  0.0000000E+00;  0.0000000E+00;0;  0.0000000E+00;  1.0000000E+04;  0.0000000E+00;  0.0000000E+00;  1.0000000E+04;  0.0000000E+00;  1.0000000E+04;  0.0000000E+00;  0.0000000E+00;  0.0000000E+00;  0.0000000E+00;
  1.9800000E+00;  9.9999998E-03; -3.1999999E-01;588;  0.0000000E+00;  0.0000000E+00;  0.0000000E+00;  1.0000000E+03;  4.0000001E-01;  0.0000000E+00;0;  0.0000000E+00;  0.0000000E+00;  0.0000000E+00;0;  0.0000000E+00;  1.0000000E+04;  0.0000000E+00;  0.0000000E+00;  1.0000000E+04;  0.0000000E+00;  1.0000000E+04;  0.0000000E+00;  0.0000000E+00;  0.0000000E+00;  0.0000000E+00;
  1.9800000E+00;  9.9999998E-03; -3.0000001E-01;589;  0.0000000E+00;  0.0000000E+00;  0.0000000E+00;  1.0000000E+03;  4.0000001E-01;  0.0000000E+00;0;  0.0000000E+00;  0.0000000E+00;  0.0000000E+00;0;  0.0000000E+00;  1.0000000E+04;  0.0000000E+00;  0.0000000E+00;  1.0000000E+04;  0.0000000E+00;  1.0000000E+04;  0.0000000E+00;  0.0000000E+00;  0.0000000E+00;  0.0000000E+00;
  1.9800000E+00;  9.9999998E-03; -2.8000000E-01;590;  0.0000000E+00;  0.0000000E+00;  0.0000000E+00;  1.0000000E+03;  4.0000001E-01;  0.0000000E+00;0;  0.0000000E+00;  0.0000000E+00;  0.0000000E+00;0;  0.0000000E+00;  1.0000000E+04;  0.0000000E+00;  0.0000000E+00;  1.0000000E+04;  0.0000000E+00;  1.0000000E+04;  0.0000000E+00;  0.0000000E+00;  0.0000000E+00;  0.0000000E+00;
  1.9800000E+00;  9.9999998E-03; -2.5999999E-01;591;  0.0000000E+00;  0.0000000E+00;  0.0000000E+00;  1.0000000E+03;  4.0000001E-01;  0.0000000E+00;0;  0.0000000E+00;  0.0000000E+00;  0.0000000E+00;0;  0.0000000E+00;  1.0000000E+04;  0.0000000E+00;  0.0000000E+00;  1.0000000E+04;  0.0000000E+00;  1.0000000E+04;  0.0000000E+00;  0.0000000E+00;  0.0000000E+00;  0.0000000E+00;
  1.9800000E+00;  9.9999998E-03; -2.3999999E-01;592;  0.0000000E+00;  0.0000000E+00;  0.0000000E+00;  1.0000000E+03;  4.0000001E-01;  0.0000000E+00;0;  0.0000000E+00;  0.0000000E+00;  0.0000000E+00;0;  0.0000000E+00;  1.0000000E+04;  0.0000000E+00;  0.0000000E+00;  1.0000000E+04;  0.0000000E+00;  1.0000000E+04;  0.0000000E+00;  0.0000000E+00;  0.0000000E+00;  0.0000000E+00;
  1.9800000E+00;  9.9999998E-03; -2.2000000E-01;593;  0.0000000E+00;  0.0000000E+00;  0.0000000E+00;  1.0000000E+03;  4.0000001E-01;  0.0000000E+00;0;  0.0000000E+00;  0.0000000E+00;  0.0000000E+00;0;  0.0000000E+00;  1.0000000E+04;  0.0000000E+00;  0.0000000E+00;  1.0000000E+04;  0.0000000E+00;  1.0000000E+04;  0.0000000E+00;  0.0000000E+00;  0.0000000E+00;  0.0000000E+00;
  1.9800000E+00;  9.9999998E-03; -2.0000000E-01;594;  0.0000000E+00;  0.0000000E+00;  0.0000000E+00;  1.0000000E+03;  4.0000001E-01;  0.0000000E+00;0;  0.0000000E+00;  0.0000000E+00;  0.0000000E+00;0;  0.0000000E+00;  1.0000000E+04;  0.0000000E+00;  0.0000000E+00;  1.0000000E+04;  0.0000000E+00;  1.0000000E+04;  0.0000000E+00;  0.0000000E+00;  0.0000000E+00;  0.0000000E+00;
  1.9800000E+00;  9.9999998E-03; -1.8000001E-01;595;  0.0000000E+00;  0.0000000E+00;  0.0000000E+00;  1.0000000E+03;  4.0000001E-01;  0.0000000E+00;0;  0.0000000E+00;  0.0000000E+00;  0.0000000E+00;0;  0.0000000E+00;  1.0000000E+04;  0.0000000E+00;  0.0000000E+00;  1.0000000E+04;  0.0000000E+00;  1.0000000E+04;  0.0000000E+00;  0.0000000E+00;  0.0000000E+00;  0.0000000E+00;
  1.9800000E+00;  9.9999998E-03; -1.6000000E-01;596;  0.0000000E+00;  0.0000000E+00;  0.0000000E+00;  1.0000000E+03;  4.0000001E-01;  0.0000000E+00;0;  0.0000000E+00;  0.0000000E+00;  0.0000000E+00;0;  0.0000000E+00;  1.0000000E+04;  0.0000000E+00;  0.0000000E+00;  1.0000000E+04;  0.0000000E+00;  1.0000000E+04;  0.0000000E+00;  0.0000000E+00;  0.0000000E+00;  0.0000000E+00;
  1.9800000E+00;  9.9999998E-03; -1.4000000E-01;597;  0.0000000E+00;  0.0000000E+00;  0.0000000E+00;  1.0000000E+03;  4.0000001E-01;  0.0000000E+00;0;  0.0000000E+00;  0.0000000E+00;  0.0000000E+00;0;  0.0000000E+00;  1.0000000E+04;  0.0000000E+00;  0.0000000E+00;  1.0000000E+04;  0.0000000E+00;  1.0000000E+04;  0.0000000E+00;  0.0000000E+00;  0.0000000E+00;  0.0000000E+00;
  1.9800000E+00;  9.9999998E-03; -1.2000000E-01;598;  0.0000000E+00;  0.0000000E+00;  0.0000000E+00;  1.0000000E+03;  4.0000001E-01;  0.0000000E+00;0;  0.0000000E+00;  0.0000000E+00;  0.0000000E+00;0;  0.0000000E+00;  1.0000000E+04;  0.0000000E+00;  0.0000000E+00;  1.0000000E+04;  0.0000000E+00;  1.0000000E+04;  0.0000000E+00;  0.0000000E+00;  0.0000000E+00;  0.0000000E+00;
  1.9800000E+00;  9.9999998E-03; -1.0000000E-01;599;  0.0000000E+00;  0.0000000E+00;  0.0000000E+00;  1.0000000E+03;  4.0000001E-01;  0.0000000E+00;0;  0.0000000E+00;  0.0000000E+00;  0.0000000E+00;0;  0.0000000E+00;  1.0000000E+04;  0.0000000E+00;  0.0000000E+00;  1.0000000E+04;  0.0000000E+00;  1.0000000E+04;  0.0000000E+00;  0.0000000E+00;  0.0000000E+00;  0.0000000E+00;
  1.9800000E+00;  9.9999998E-03; -7.9999998E-02;600;  0.0000000E+00;  0.0000000E+00;  0.0000000E+00;  1.0000000E+03;  4.0000001E-01;  0.0000000E+00;0;  0.0000000E+00;  0.0000000E+00;  0.0000000E+00;0;  0.0000000E+00;  1.0000000E+04;  0.0000000E+00;  0.0000000E+00;  1.0000000E+04;  0.0000000E+00;  1.0000000E+04;  0.0000000E+00;  0.0000000E+00;  0.0000000E+00;  0.0000000E+00;
  1.9800000E+00;  9.9999998E-03; -5.9999999E-02;601;  0.0000000E+00;  0.0000000E+00;  0.0000000E+00;  1.0000000E+03;  4.0000001E-01;  0.0000000E+00;0;  0.0000000E+00;  0.0000000E+00;  0.0000000E+00;0;  0.0000000E+00;  1.0000000E+04;  0.0000000E+00;  0.0000000E+00;  1.0000000E+04;  0.0000000E+00;  1.0000000E+04;  0.0000000E+00;  0.0000000E+00;  0.0000000E+00;  0.0000000E+00;
  1.9800000E+00;  9.9999998E-03; -3.9999999E-02;602;  0.0000000E+00;  0.0000000E+00;  0.0000000E+00;  1.0000000E+03;  4.0000001E-01;  0.0000000E+00;0;  0.0000000E+00;  0.0000000E+00;  0.0000000E+00;0;  0.0000000E+00;  1.0000000E+04;  0.0000000E+00;  0.0000000E+00;  1.0000000E+04;  0.0000000E+00;  1.0000000E+04;  0.0000000E+00;  0.0000000E+00;  0.0000000E+00;  0.0000000E+00;
  1.9800000E+00;  9.9999998E-03; -2.0000000E-02;603;  0.0000000E+00;  0.0000000E+00;  0.0000000E+00;  1.0000000E+03;  4.0000001E-01;  0.0000000E+00;0;  0.0000000E+00;  0.0000000E+00;  0.0000000E+00;0;  0.0000000E+00;  1.0000000E+04;  0.0000000E+00;  0.0000000E+00;  1.0000000E+04;  0.0000000E+00;  1.0000000E+04;  0.0000000E+00;  0.0000000E+00;  0.0000000E+00;  0.0000000E+00;
  2.0000000E+00;  9.9999998E-03; -3.8000000E-01;604;  0.0000000E+00;  0.0000000E+00;  0.0000000E+00;  1.0000000E+03;  4.0000001E-01;  0.0000000E+00;0;  0.0000000E+00;  0.0000000E+00;  0.0000000E+00;0;  0.0000000E+00;  1.0000000E+04;  0.0000000E+00;  0.0000000E+00;  1.0000000E+04;  0.0000000E+00;  1.0000000E+04;  0.0000000E+00;  0.0000000E+00;  0.0000000E+00;  0.0000000E+00;
  2.0000000E+00;  9.9999998E-03; -3.6000001E-01;605;  0.0000000E+00;  0.0000000E+00;  0.0000000E+00;  1.0000000E+03;  4.0000001E-01;  0.0000000E+00;0;  0.0000000E+00;  0.0000000E+00;  0.0000000E+00;0;  0.0000000E+00;  1.0000000E+04;  0.0000000E+00;  0.0000000E+00;  1.0000000E+04;  0.0000000E+00;  1.0000000E+04;  0.0000000E+00;  0.0000000E+00;  0.0000000E+00;  0.0000000E+00;
  2.0000000E+00;  9.9999998E-03; -3.4000000E-01;606;  0.0000000E+00;  0.0000000E+00;  0.0000000E+00;  1.0000000E+03;  4.0000001E-01;  0.0000000E+00;0;  0.0000000E+00;  0.0000000E+00;  0.0000000E+00;0;  0.0000000E+00;  1.0000000E+04;  0.0000000E+00;  0.0000000E+00;  1.0000000E+04;  0.0000000E+00;  1.0000000E+04;  0.0000000E+00;  0.0000000E+00;  0.0000000E+00;  0.0000000E+00;
  2.0000000E+00;  9.9999998E-03; -3.1999999E-01;607;  0.0000000E+00;  0.0000000E+00;  0.0000000E+00;  1.0000000E+03;  4.0000001E-01;  0.0000000E+00;0;  0.0000000E+00;  0.0000000E+00;  0.0000000E+00;0;  0.0000000E+00;  1.0000000E+04;  0.0000000E+00;  0.0000000E+00;  1.0000000E+04;  0.0000000E+00;  1.0000000E+04;  0.0000000E+00;  0.0000000E+00;  0.0000000E+00;  0.0000000E+00;
  2.0000000E+00;  9.9999998E-03; -3.0000001E-01;608;  0.0000000E+00;  0.0000000E+00;  0.0000000E+00;  1.0000000E+03;  4.0000001E-01;  0.0000000E+00;0;  0.0000000E+00;  0.0000000E+00;  0.0000000E+00;0;  0.0000000E+00;  1.0000000E+04;  0.0000000E+00;  0.0000000E+00;  1.0000000E+04;  0.0000000E+00;  1.0000000E+04;  0.0000000E+00;  0.0000000E+00;  0.0000000E+00;  0.0000000E+00;
  2.0000000E+00;  9.9999998E-03; -2.8000000E-01;609;  0.0000000E+00;  0.0000000E+00;  0.0000000E+00;  1.0000000E+03;  4.0000001E-01;  0.0000000E+00;0;  0.0000000E+00;  0.0000000E+00;  0.0000000E+00;0;  0.0000000E+00;  1.0000000E+04;  0.0000000E+00;  0.0000000E+00;  1.0000000E+04;  0.0000000E+00;  1.0000000E+04;  0.0000000E+00;  0.0000000E+00;  0.0000000E+00;  0.0000000E+00;
  2.0000000E+00;  9.9999998E-03; -2.5999999E-01;610;  0.0000000E+00;  0.0000000E+00;  0.0000000E+00;  1.0000000E+03;  4.0000001E-01;  0.0000000E+00;0;  0.0000000E+00;  0.0000000E+00;  0.0000000E+00;0;  0.0000000E+00;  1.0000000E+04;  0.0000000E+00;  0.0000000E+00;  1.0000000E+04;  0.0000000E+00;  1.0000000E+04;  0.0000000E+00;  0.0000000E+00;  0.0000000E+00;  0.0000000E+00;
  2.0000000E+00;  9.9999998E-03; -2.3999999E-01;611;  0.0000000E+00;  0.0000000E+00;  0.0000000E+00;  1.0000000E+03;  4.0000001E-01;  0.0000000E+00;0;  0.0000000E+00;  0.0000000E+00;  0.0000000E+00;0;  0.0000000E+00;  1.0000000E+04;  0.0000000E+00;  0.0000000E+00;  1.0000000E+04;  0.0000000E+00;  1.0000000E+04;  0.0000000E+00;  0.0000000E+00;  0.0000000E+00;  0.0000000E+00;
  2.0000000E+00;  9.9999998E-03; -2.2000000E-01;612;  0.0000000E+00;  0.0000000E+00;  0.0000000E+00;  1.0000000E+03;  4.0000001E-01;  0.0000000E+00;0;  0.0000000E+00;  0.0000000E+00;  0.0000000E+00;0;  0.0000000E+00;  1.0000000E+04;  0.0000000E+00;  0.0000000E+00;  1.0000000E+04;  0.0000000E+00;  1.0000000E+04;  0.0000000E+00;  0.0000000E+00;  0.0000000E+00;  0.0000000E+00;
  2.0000000E+00;  9.9999998E-03; -2.0000000E-01;613;  0.0000000E+00;  0.0000000E+00;  0.0000000E+00;  1.0000000E+03;  4.0000001E-01;  0.0000000E+00;0;  0.0000000E+00;  0.0000000E+00;  0.0000000E+00;0;  0.0000000E+00;  1.0000000E+04;  0.0000000E+00;  0.0000000E+00;  1.0000000E+04;  0.0000000E+00;  1.0000000E+04;  0.0000000E+00;  0.0000000E+00;  0.0000000E+00;  0.0000000E+00;
  2.0000000E+00;  9.9999998E-03; -1.8000001E-01;614;  0.0000000E+00;  0.0000000E+00;  0.0000000E+00;  1.0000000E+03;  4.0000001E-01;  0.0000000E+00;0;  0.0000000E+00;  0.0000000E+00;  0.0000000E+00;0;  0.0000000E+00;  1.0000000E+04;  0.0000000E+00;  0.0000000E+00;  1.0000000E+04;  0.0000000E+00;  1.0000000E+04;  0.0000000E+00;  0.0000000E+00;  0.0000000E+00;  0.0000000E+00;
  2.0000000E+00;  9.9999998E-03; -1.6000000E-01;615;  0.0000000E+00;  0.0000000E+00;  0.0000000E+00;  1.0000000E+03;  4.0000001E-01;  0.0000000E+00;0;  0.0000000E+00;  0.0000000E+00;  0.0000000E+00;0;  0.0000000E+00;  1.0000000E+04;  0.0000000E+00;  0.0000000E+00;  1.0000000E+04;  0.0000000E+00;  1.0000000E+04;  0.0000000E+00;  0.0000000E+00;  0.0000000E+00;  0.0000000E+00;
  2.0000000E+00;  9.9999998E-03; -1.4000000E-01;616;  0.0000000E+00;  0.0000000E+00;  0.0000000E+00;  1.0000000E+03;  4.0000001E-01;  0.0000000E+00;0;  0.0000000E+00;  0.0000000E+00;  0.0000000E+00;0;  0.0000000E+00;  1.0000000E+04;  0.0000000E+00;  0.0000000E+00;  1.0000000E+04;  0.0000000E+00;  1.0000000E+04;  0.0000000E+00;  0.0000000E+00;  0.0000000E+00;  0.0000000E+00;
  2.0000000E+00;  9.9999998E-03; -1.2000000E-01;617;  0.0000000E+00;  0.0000000E+00;  0.0000000E+00;  1.0000000E+03;  4.0000001E-01;  0.0000000E+00;0;  0.0000000E+00;  0.0000000E+00;  0.0000000E+00;0;  0.0000000E+00;  1.0000000E+04;  0.0000000E+00;  0.0000000E+00;  1.0000000E+04;  0.0000000E+00;  1.0000000E+04;  0.0000000E+00;  0.0000000E+00;  0.0000000E+00;  0.0000000E+00;
  2.0000000E+00;  9.9999998E-03; -1.0000000E-01;618;  0.0000000E+00;  0.0000000E+00;  0.0000000E+00;  1.0000000E+03;  4.0000001E-01;  0.0000000E+00;0;  0.0000000E+00;  0.0000000E+00;  0.0000000E+00;0;  0.0000000E+00;  1.0000000E+04;  0.0000000E+00;  0.0000000E+00;  1.0000000E+04;  0.0000000E+00;  1.0000000E+04;  0.0000000E+00;  0.0000000E+00;  0.0000000E+00;  0.0000000E+00;
  2.0000000E+00;  9.9999998E-03; -7.9999998E-02;619;  0.0000000E+00;  0.0000000E+00;  0.0000000E+00;  1.0000000E+03;  4.0000001E-01;  0.0000000E+00;0;  0.0000000E+00;  0.0000000E+00;  0.0000000E+00;0;  0.0000000E+00;  1.0000000E+04;  0.0000000E+00;  0.0000000E+00;  1.0000000E+04;  0.0000000E+00;  1.0000000E+04;  0.0000000E+00;  0.0000000E+00;  0.0000000E+00;  0.0000000E+00;
  2.0000000E+00;  9.9999998E-03; -5.9999999E-02;620;  0.0000000E+00;  0.0000000E+00;  0.0000000E+00;  1.0000000E+03;  4.0000001E-01;  0.0000000E+00;0;  0.0000000E+00;  0.0000000E+00;  0.0000000E+00;0;  0.0000000E+00;  1.0000000E+04;  0.0000000E+00;  0.0000000E+00;  1.0000000E+04;  0.0000000E+00;  1.0000000E+04;  0.0000000E+00;  0.0000000E+00;  0.0000000E+00;  0.0000000E+00;
  2.0000000E+00;  9.9999998E-03; -3.9999999E-02;621;  0.0000000E+00;  0.0000000E+00;  0.0000000E+00;  1.0000000E+03;  4.0000001E-01;  0.0000000E+00;0;  0.0000000E+00;  0.0000000E+00;  0.0000000E+00;0;  0.0000000E+00;  1.0000000E+04;  0.0000000E+00;  0.0000000E+00;  1.0000000E+04;  0.0000000E+00;  1.0000000E+04;  0.0000000E+00;  0.0000000E+00;  0.0000000E+00;  0.0000000E+00;
  2.0000000E+00;  9.9999998E-03; -2.0000000E-02;622;  0.0000000E+00;  0.0000000E+00;  0.0000000E+00;  1.0000000E+03;  4.0000001E-01;  0.0000000E+00;0;  0.0000000E+00;  0.0000000E+00;  0.0000000E+00;0;  0.0000000E+00;  1.0000000E+04;  0.0000000E+00;  0.0000000E+00;  1.0000000E+04;  0.0000000E+00;  1.0000000E+04;  0.0000000E+00;  0.0000000E+00;  0.0000000E+00;  0.0000000E+00;
  2.0000000E+00;  9.9999998E-03;  0.0000000E+00;623;  0.0000000E+00;  0.0000000E+00;  0.0000000E+00;  1.0000000E+03;  4.0000001E-01;  0.0000000E+00;0;  0.0000000E+00;  0.0000000E+00;  0.0000000E+00;0;  0.0000000E+00;  1.0000000E+04;  0.0000000E+00;  0.0000000E+00;  1.0000000E+04;  0.0000000E+00;  1.0000000E+04;  0.0000000E+00;  0.0000000E+00;  0.0000000E+00;  0.0000000E+00;
  2.0000000E+00;  9.9999998E-03;  2.0000000E-02;624;  0.0000000E+00;  0.0000000E+00;  0.0000000E+00;  1.0000000E+03;  4.0000001E-01;  0.0000000E+00;0;  0.0000000E+00;  0.0000000E+00;  0.0000000E+00;0;  0.0000000E+00;  1.0000000E+04;  0.0000000E+00;  0.0000000E+00;  1.0000000E+04;  0.0000000E+00;  1.0000000E+04;  0.0000000E+00;  0.0000000E+00;  0.0000000E+00;  0.0000000E+00;
  2.0000000E+00;  9.9999998E-03;  3.9999999E-02;625;  0.0000000E+00;  0.0000000E+00;  0.0000000E+00;  1.0000000E+03;  4.0000001E-01;  0.0000000E+00;0;  0.0000000E+00;  0.0000000E+00;  0.0000000E+00;0;  0.0000000E+00;  1.0000000E+04;  0.0000000E+00;  0.0000000E+00;  1.0000000E+04;  0.0000000E+00;  1.0000000E+04;  0.0000000E+00;  0.0000000E+00;  0.0000000E+00;  0.0000000E+00;
  2.0000000E+00;  9.9999998E-03;  5.9999999E-02;626;  0.0000000E+00;  0.0000000E+00;  0.0000000E+00;  1.0000000E+03;  4.0000001E-01;  0.0000000E+00;0;  0.0000000E+00;  0.0000000E+00;  0.0000000E+00;0;  0.0000000E+00;  1.0000000E+04;  0.0000000E+00;  0.0000000E+00;  1.0000000E+04;  0.0000000E+00;  1.0000000E+04;  0.0000000E+00;  0.0000000E+00;  0.0000000E+00;  0.0000000E+00;
  2.0000000E+00;  9.9999998E-03;  7.9999998E-02;627;  0.0000000E+00;  0.0000000E+00;  0.0000000E+00;  1.0000000E+03;  4.0000001E-01;  0.0000000E+00;0;  0.0000000E+00;  0.0000000E+00;  0.0000000E+00;0;  0.0000000E+00;  1.0000000E+04;  0.0000000E+00;  0.0000000E+00;  1.0000000E+04;  0.0000000E+00;  1.0000000E+04;  0.0000000E+00;  0.0000000E+00;  0.0000000E+00;  0.0000000E+00;
  2.0200000E+00;  9.9999998E-03; -4.0000001E-01;628;  0.0000000E+00;  0.0000000E+00;  0.0000000E+00;  1.0000000E+03;  4.0000001E-01;  0.0000000E+00;0;  0.0000000E+00;  0.0000000E+00;  0.0000000E+00;0;  0.0000000E+00;  1.0000000E+04;  0.0000000E+00;  0.0000000E+00;  1.0000000E+04;  0.0000000E+00;  1.0000000E+04;  0.0000000E+00;  0.0000000E+00;  0.0000000E+00;  0.0000000E+00;
  2.0200000E+00;  9.9999998E-03; -3.8000000E-01;629;  0.0000000E+00;  0.0000000E+00;  0.0000000E+00;  1.0000000E+03;  4.0000001E-01;  0.0000000E+00;0;  0.0000000E+00;  0.0000000E+00;  0.0000000E+00;0;  0.0000000E+00;  1.0000000E+04;  0.0000000E+00;  0.0000000E+00;  1.0000000E+04;  0.0000000E+00;  1.0000000E+04;  0.0000000E+00;  0.0000000E+00;  0.0000000E+00;  0.0000000E+00;
  2.0200000E+00;  9.9999998E-03; -3.6000001E-01;630;  0.0000000E+00;  0.0000000E+00;  0.0000000E+00;  1.0000000E+03;  4.0000001E-01;  0.0000000E+00;0;  0.0000000E+00;  0.0000000E+00;  0.0000000E+00;0;  0.0000000E+00;  1.0000000E+04;  0.0000000E+00;  0.0000000E+00;  1.0000000E+04;  0.0000000E+00;  1.0000000E+04;  0.0000000E+00;  0.0000000E+00;  0.0000000E+00;  0.0000000E+00;
  2.0200000E+00;  9.9999998E-03; -3.4000000E-01;631;  0.0000000E+00;  0.0000000E+00;  0.0000000E+00;  1.0000000E+03;  4.0000001E-01;  0.0000000E+00;0;  0.0000000E+00;  0.0000000E+00;  0.0000000E+00;0;  0.0000000E+00;  1.0000000E+04;  0.0000000E+00;  0.0000000E+00;  1.0000000E+04;  0.0000000E+00;  1.0000000E+04;  0.0000000E+00;  0.0000000E+00;  0.0000000E+00;  0.0000000E+00;
  2.0200000E+00;  9.9999998E-03; -3.1999999E-01;632;  0.0000000E+00;  0.0000000E+00;  0.0000000E+00;  1.0000000E+03;  4.0000001E-01;  0.0000000E+00;0;  0.0000000E+00;  0.0000000E+00;  0.0000000E+00;0;  0.0000000E+00;  1.0000000E+04;  0.0000000E+00;  0.0000000E+00;  1.0000000E+04;  0.0000000E+00;  1.0000000E+04;  0.0000000E+00;  0.0000000E+00;  0.0000000E+00;  0.0000000E+00;
  2.0200000E+00;  9.9999998E-03; -3.0000001E-01;633;  0.0000000E+00;  0.0000000E+00;  0.0000000E+00;  1.0000000E+03;  4.0000001E-01;  0.0000000E+00;0;  0.0000000E+00;  0.0000000E+00;  0.0000000E+00;0;  0.0000000E+00;  1.0000000E+04;  0.0000000E+00;  0.0000000E+00;  1.0000000E+04;  0.0000000E+00;  1.0000000E+04;  0.0000000E+00;  0.0000000E+00;  0.0000000E+00;  0.0000000E+00;
  2.0200000E+00;  9.9999998E-03; -2.8000000E-01;634;  0.0000000E+00;  0.0000000E+00;  0.0000000E+00;  1.0000000E+03;  4.0000001E-01;  0.0000000E+00;0;  0.0000000E+00;  0.0000000E+00;  0.0000000E+00;0;  0.0000000E+00;  1.0000000E+04;  0.0000000E+00;  0.0000000E+00;  1.0000000E+04;  0.0000000E+00;  1.0000000E+04;  0.0000000E+00;  0.0000000E+00;  0.0000000E+00;  0.0000000E+00;
  2.0200000E+00;  9.9999998E-03; -2.5999999E-01;635;  0.0000000E+00;  0.0000000E+00;  0.0000000E+00;  1.0000000E+03;  4.0000001E-01;  0.0000000E+00;0;  0.0000000E+00;  0.0000000E+00;  0.0000000E+00;0;  0.0000000E+00;  1.0000000E+04;  0.0000000E+00;  0.0000000E+00;  1.0000000E+04;  0.0000000E+00;  1.0000000E+04;  0.0000000E+00;  0.0000000E+00;  0.0000000E+00;  0.0000000E+00;
  2.0200000E+00;  9.9999998E-03; -2.3999999E-01;636;  0.0000000E+00;  0.0000000E+00;  0.0000000E+00;  1.0000000E+03;  4.0000001E-01;  0.0000000E+00;0;  0.0000000E+00;  0.0000000E+00;  0.0000000E+00;0;  0.0000000E+00;  1.0000000E+04;  0.0000000E+00;  0.0000000E+00;  1.0000000E+04;  0.0000000E+00;  1.0000000E+04;  0.0000000E+00;  0.0000000E+00;  0.0000000E+00;  0.0000000E+00;
  2.0200000E+00;  9.9999998E-03; -2.2000000E-01;637;  0.0000000E+00;  0.0000000E+00;  0.0000000E+00;  1.0000000E+03;  4.0000001E-01;  0.0000000E+00;0;  0.0000000E+00;  0.0000000E+00;  0.0000000E+00;0;  0.0000000E+00;  1.0000000E+04;  0.0000000E+00;  0.0000000E+00;  1.0000000E+04;  0.0000000E+00;  1.0000000E+04;  0.0000000E+00;  0.0000000E+00;  0.0000000E+00;  0.0000000E+00;
  2.0200000E+00;  9.9999998E-03; -2.0000000E-01;638;  0.0000000E+00;  0.0000000E+00;  0.0000000E+00;  1.0000000E+03;  4.0000001E-01;  0.0000000E+00;0;  0.0000000E+00;  0.0000000E+00;  0.0000000E+00;0;  0.0000000E+00;  1.0000000E+04;  0.0000000E+00;  0.0000000E+00;  1.0000000E+04;  0.0000000E+00;  1.0000000E+04;  0.0000000E+00;  0.0000000E+00;  0.0000000E+00;  0.0000000E+00;
  2.0200000E+00;  9.9999998E-03; -1.8000001E-01;639;  0.0000000E+00;  0.0000000E+00;  0.0000000E+00;  1.0000000E+03;  4.0000001E-01;  0.0000000E+00;0;  0.0000000E+00;  0.0000000E+00;  0.0000000E+00;0;  0.0000000E+00;  1.0000000E+04;  0.0000000E+00;  0.0000000E+00;  1.0000000E+04;  0.0000000E+00;  1.0000000E+04;  0.0000000E+00;  0.0000000E+00;  0.0000000E+00;  0.0000000E+00;
  2.0200000E+00;  9.9999998E-03; -1.6000000E-01;640;  0.0000000E+00;  0.0000000E+00;  0.0000000E+00;  1.0000000E+03;  4.0000001E-01;  0.0000000E+00;0;  0.0000000E+00;  0.0000000E+00;  0.0000000E+00;0;  0.0000000E+00;  1.0000000E+04;  0.0000000E+00;  0.0000000E+00;  1.0000000E+04;  0.0000000E+00;  1.0000000E+04;  0.0000000E+00;  0.0000000E+00;  0.0000000E+00;  0.0000000E+00;
  2.0200000E+00;  9.9999998E-03; -1.4000000E-01;641;  0.0000000E+00;  0.0000000E+00;  0.0000000E+00;  1.0000000E+03;  4.0000001E-01;  0.0000000E+00;0;  0.0000000E+00;  0.0000000E+00;  0.0000000E+00;0;  0.0000000E+00;  1.0000000E+04;  0.0000000E+00;  0.0000000E+00;  1.0000000E+04;  0.0000000E+00;  1.0000000E+04;  0.0000000E+00;  0.0000000E+00;  0.0000000E+00;  0.0000000E+00;
  2.0200000E+00;  9.9999998E-03; -1.2000000E-01;642;  0.0000000E+00;  0.0000000E+00;  0.0000000E+00;  1.0000000E+03;  4.0000001E-01;  0.0000000E+00;0;  0.0000000E+00;  0.0000000E+00;  0.0000000E+00;0;  0.0000000E+00;  1.0000000E+04;  0.0000000E+00;  0.0000000E+00;  1.0000000E+04;  0.0000000E+00;  1.0000000E+04;  0.0000000E+00;  0.0000000E+00;  0.0000000E+00;  0.0000000E+00;
  2.0200000E+00;  9.9999998E-03; -1.0000000E-01;643;  0.0000000E+00;  0.0000000E+00;  0.0000000E+00;  1.0000000E+03;  4.0000001E-01;  0.0000000E+00;0;  0.0000000E+00;  0.0000000E+00;  0.0000000E+00;0;  0.0000000E+00;  1.0000000E+04;  0.0000000E+00;  0.0000000E+00;  1.0000000E+04;  0.0000000E+00;  1.0000000E+04;  0.0000000E+00;  0.0000000E+00;  0.0000000E+00;  0.0000000E+00;
  2.0200000E+00;  9.9999998E-03; -7.9999998E-02;644;  0.0000000E+00;  0.0000000E+00;  0.0000000E+00;  1.0000000E+03;  4.0000001E-01;  0.0000000E+00;0;  0.0000000E+00;  0.0000000E+00;  0.0000000E+00;0;  0.0000000E+00;  1.0000000E+04;  0.0000000E+00;  0.0000000E+00;  1.0000000E+04;  0.0000000E+00;  1.0000000E+04;  0.0000000E+00;  0.0000000E+00;  0.0000000E+00;  0.0000000E+00;
  2.0200000E+00;  9.9999998E-03; -5.9999999E-02;645;  0.0000000E+00;  0.0000000E+00;  0.0000000E+00;  1.0000000E+03;  4.0000001E-01;  0.0000000E+00;0;  0.0000000E+00;  0.0000000E+00;  0.0000000E+00;0;  0.0000000E+00;  1.0000000E+04;  0.0000000E+00;  0.0000000E+00;  1.0000000E+04;  0.0000000E+00;  1.0000000E+04;  0.0000000E+00;  0.0000000E+00;  0.0000000E+00;  0.0000000E+00;
  2.0200000E+00;  9.9999998E-03; -3.9999999E-02;646;  0.0000000E+00;  0.0000000E+00;  0.0000000E+00;  1.0000000E+03;  4.0000001E-01;  0.0000000E+00;0;  0.0000000E+00;  0.0000000E+00;  0.0000000E+00;0;  0.0000000E+00;  1.0000000E+04;  0.0000000E+00;  0.0000000E+00;  1.0000000E+04;  0.0000000E+00;  1.0000000E+04;  0.0000000E+00;  0.0000000E+00;  0.0000000E+00;  0.0000000E+00;
  2.0200000E+00;  9.9999998E-03; -2.0000000E-02;647;  0.0000000E+00;  0.0000000E+00;  0.0000000E+00;  1.0000000E+03;  4.0000001E-01;  0.0000000E+00;0;  0.0000000E+00;  0.0000000E+00;  0.0000000E+00;0;  0.0000000E+00;  1.0000000E+04;  0.0000000E+00;  0.0000000E+00;  1.0000000E+04;  0.0000000E+00;  1.0000000E+04;  0.0000000E+00;  0.0000000E+00;  0.0000000E+00;  0.0000000E+00;
  2.0200000E+00;  9.9999998E-03;  0.0000000E+00;648;  0.0000000E+00;  0.0000000E+00;  0.0000000E+00;  1.0000000E+03;  4.0000001E-01;  0.0000000E+00;0;  0.0000000E+00;  0.0000000E+00;  0.0000000E+00;0;  0.0000000E+00;  1.0000000E+04;  0.0000000E+00;  0.0000000E+00;  1.0000000E+04;  0.0000000E+00;  1.0000000E+04;  0.0000000E+00;  0.0000000E+00;  0.0000000E+00;  0.0000000E+00;
  2.0200000E+00;  9.9999998E-03;  2.0000000E-02;649;  0.0000000E+00;  0.0000000E+00;  0.0000000E+00;  1.0000000E+03;  4.0000001E-01;  0.0000000E+00;0;  0.0000000E+00;  0.0000000E+00;  0.0000000E+00;0;  0.0000000E+00;  1.0000000E+04;  0.0000000E+00;  0.0000000E+00;  1.0000000E+04;  0.0000000E+00;  1.0000000E+04;  0.0000000E+00;  0.0000000E+00;  0.0000000E+00;  0.0000000E+00;
  2.0200000E+00;  9.9999998E-03;  3.9999999E-02;650;  0.0000000E+00;  0.0000000E+00;  0.0000000E+00;  1.0000000E+03;  4.0000001E-01;  0.0000000E+00;0;  0.0000000E+00;  0.0000000E+00;  0.0000000E+00;0;  0.0000000E+00;  1.0000000E+04;  0.0000000E+00;  0.0000000E+00;  1.0000000E+04;  0.0000000E+00;  1.0000000E+04;  0.0000000E+00;  0.0000000E+00;  0.0000000E+00;  0.0000000E+00;
  2.0200000E+00;  9.9999998E-03;  5.9999999E-02;651;  0.0000000E+00;  0.0000000E+00;  0.0000000E+00;  1.0000000E+03;  4.0000001E-01;  0.0000000E+00;0;  0.0000000E+00;  0.0000000E+00;  0.0000000E+00;0;  0.0000000E+00;  1.0000000E+04;  0.0000000E+00;  0.0000000E+00;  1.0000000E+04;  0.0000000E+00;  1.0000000E+04;  0.0000000E+00;  0.0000000E+00;  0.0000000E+00;  0.0000000E+00;
  2.0200000E+00;  9.9999998E-03;  7.9999998E-02;652;  0.0000000E+00;  0.0000000E+00;  0.0000000E+00;  1.0000000E+03;  4.0000001E-01;  0.0000000E+00;0;  0.0000000E+00;  0.0000000E+00;  0.0000000E+00;0;  0.0000000E+00;  1.0000000E+04;  0.0000000E+00;  0.0000000E+00;  1.0000000E+04;  0.0000000E+00;  1.0000000E+04;  0.0000000E+00;  0.0000000E+00;  0.0000000E+00;  0.0000000E+00;
  2.0200000E+00;  9.9999998E-03;  1.0000000E-01;653;  0.0000000E+00;  0.0000000E+00;  0.0000000E+00;  1.0000000E+03;  4.0000001E-01;  0.0000000E+00;0;  0.0000000E+00;  0.0000000E+00;  0.0000000E+00;0;  0.0000000E+00;  1.0000000E+04;  0.0000000E+00;  0.0000000E+00;  1.0000000E+04;  0.0000000E+00;  1.0000000E+04;  0.0000000E+00;  0.0000000E+00;  0.0000000E+00;  0.0000000E+00;
  2.0200000E+00;  9.9999998E-03;  1.2000000E-01;654;  0.0000000E+00;  0.0000000E+00;  0.0000000E+00;  1.0000000E+03;  4.0000001E-01;  0.0000000E+00;0;  0.0000000E+00;  0.0000000E+00;  0.0000000E+00;0;  0.0000000E+00;  1.0000000E+04;  0.0000000E+00;  0.0000000E+00;  1.0000000E+04;  0.0000000E+00;  1.0000000E+04;  0.0000000E+00;  0.0000000E+00;  0.0000000E+00;  0.0000000E+00;
  2.0200000E+00;  9.9999998E-03;  1.4000000E-01;655;  0.0000000E+00;  0.0000000E+00;  0.0000000E+00;  1.0000000E+03;  4.0000001E-01;  0.0000000E+00;0;  0.0000000E+00;  0.0000000E+00;  0.0000000E+00;0;  0.0000000E+00;  1.0000000E+04;  0.0000000E+00;  0.0000000E+00;  1.0000000E+04;  0.0000000E+00;  1.0000000E+04;  0.0000000E+00;  0.0000000E+00;  0.0000000E+00;  0.0000000E+00;
  2.0200000E+00;  9.9999998E-03;  1.6000000E-01;656;  0.0000000E+00;  0.0000000E+00;  0.0000000E+00;  1.0000000E+03;  4.0000001E-01;  0.0000000E+00;0;  0.0000000E+00;  0.0000000E+00;  0.0000000E+00;0;  0.0000000E+00;  1.0000000E+04;  0.0000000E+00;  0.0000000E+00;  1.0000000E+04;  0.0000000E+00;  1.0000000E+04;  0.0000000E+00;  0.0000000E+00;  0.0000000E+00;  0.0000000E+00;
  2.0200000E+00;  9.9999998E-03;  1.8000001E-01;657;  0.0000000E+00;  0.0000000E+00;  0.0000000E+00;  1.0000000E+03;  4.0000001E-01;  0.0000000E+00;0;  0.0000000E+00;  0.0000000E+00;  0.0000000E+00;0;  0.0000000E+00;  1.0000000E+04;  0.0000000E+00;  0.0000000E+00;  1.0000000E+04;  0.0000000E+00;  1.0000000E+04;  0.0000000E+00;  0.0000000E+00;  0.0000000E+00;  0.0000000E+00;
  2.0400000E+00;  9.9999998E-03; -4.0000001E-01;658;  0.0000000E+00;  0.0000000E+00;  0.0000000E+00;  1.0000000E+03;  4.0000001E-01;  0.0000000E+00;0;  0.0000000E+00;  0.0000000E+00;  0.0000000E+00;0;  0.0000000E+00;  1.0000000E+04;  0.0000000E+00;  0.0000000E+00;  1.0000000E+04;  0.0000000E+00;  1.0000000E+04;  0.0000000E+00;  0.0000000E+00;  0.0000000E+00;  0.0000000E+00;
  2.0400000E+00;  9.9999998E-03; -3.8000000E-01;659;  0.0000000E+00;  0.0000000E+00;  0.0000000E+00;  1.0000000E+03;  4.0000001E-01;  0.0000000E+00;0;  0.0000000E+00;  0.0000000E+00;  0.0000000E+00;0;  0.0000000E+00;  1.0000000E+04;  0.0000000E+00;  0.0000000E+00;  1.0000000E+04;  0.0000000E+00;  1.0000000E+04;  0.0000000E+00;  0.0000000E+00;  0.0000000E+00;  0.0000000E+00;
  2.0400000E+00;  9.9999998E-03; -3.6000001E-01;660;  0.0000000E+00;  0.0000000E+00;  0.0000000E+00;  1.0000000E+03;  4.0000001E-01;  0.0000000E+00;0;  0.0000000E+00;  0.0000000E+00;  0.0000000E+00;0;  0.0000000E+00;  1.0000000E+04;  0.0000000E+00;  0.0000000E+00;  1.0000000E+04;  0.0000000E+00;  1.0000000E+04;  0.0000000E+00;  0.0000000E+00;  0.0000000E+00;  0.0000000E+00;
  2.0400000E+00;  9.9999998E-03; -3.4000000E-01;661;  0.0000000E+00;  0.0000000E+00;  0.0000000E+00;  1.0000000E+03;  4.0000001E-01;  0.0000000E+00;0;  0.0000000E+00;  0.0000000E+00;  0.0000000E+00;0;  0.0000000E+00;  1.0000000E+04;  0.0000000E+00;  0.0000000E+00;  1.0000000E+04;  0.0000000E+00;  1.0000000E+04;  0.0000000E+00;  0.0000000E+00;  0.0000000E+00;  0.0000000E+00;
  2.0400000E+00;  9.9999998E-03; -3.1999999E-01;662;  0.0000000E+00;  0.0000000E+00;  0.0000000E+00;  1.0000000E+03;  4.0000001E-01;  0.0000000E+00;0;  0.0000000E+00;  0.0000000E+00;  0.0000000E+00;0;  0.0000000E+00;  1.0000000E+04;  0.0000000E+00;  0.0000000E+00;  1.0000000E+04;  0.0000000E+00;  1.0000000E+04;  0.0000000E+00;  0.0000000E+00;  0.0000000E+00;  0.0000000E+00;
  2.0400000E+00;  9.9999998E-03; -3.0000001E-01;663;  0.0000000E+00;  0.0000000E+00;  0.0000000E+00;  1.0000000E+03;  4.0000001E-01;  0.0000000E+00;0;  0.0000000E+00;  0.0000000E+00;  0.0000000E+00;0;  0.0000000E+00;  1.0000000E+04;  0.0000000E+00;  0.0000000E+00;  1.0000000E+04;  0.0000000E+00;  1.0000000E+04;  0.0000000E+00;  0.0000000E+00;  0.0000000E+00;  0.0000000E+00;
  2.0400000E+00;  9.9999998E-03; -2.8000000E-01;664;  0.0000000E+00;  0.0000000E+00;  0.0000000E+00;  1.0000000E+03;  4.0000001E-01;  0.0000000E+00;0;  0.0000000E+00;  0.0000000E+00;  0.0000000E+00;0;  0.0000000E+00;  1.0000000E+04;  0.0000000E+00;  0.0000000E+00;  1.0000000E+04;  0.0000000E+00;  1.0000000E+04;  0.0000000E+00;  0.0000000E+00;  0.0000000E+00;  0.0000000E+00;
  2.0400000E+00;  9.9999998E-03; -2.5999999E-01;665;  0.0000000E+00;  0.0000000E+00;  0.0000000E+00;  1.0000000E+03;  4.0000001E-01;  0.0000000E+00;0;  0.0000000E+00;  0.0000000E+00;  0.0000000E+00;0;  0.0000000E+00;  1.0000000E+04;  0.0000000E+00;  0.0000000E+00;  1.0000000E+04;  0.0000000E+00;  1.0000000E+04;  0.0000000E+00;  0.0000000E+00;  0.0000000E+00;  0.0000000E+00;
  2.0400000E+00;  9.9999998E-03; -2.3999999E-01;666;  0.0000000E+00;  0.0000000E+00;  0.0000000E+00;  1.0000000E+03;  4.0000001E-01;  0.0000000E+00;0;  0.0000000E+00;  0.0000000E+00;  0.0000000E+00;0;  0.0000000E+00;  1.0000000E+04;  0.0000000E+00;  0.0000000E+00;  1.0000000E+04;  0.0000000E+00;  1.0000000E+04;  0.0000000E+00;  0.0000000E+00;  0.0000000E+00;  0.0000000E+00;
  2.0400000E+00;  9.9999998E-03; -2.2000000E-01;667;  0.0000000E+00;  0.0000000E+00;  0.0000000E+00;  1.0000000E+03;  4.0000001E-01;  0.0000000E+00;0;  0.0000000E+00;  0.0000000E+00;  0.0000000E+00;0;  0.0000000E+00;  1.0000000E+04;  0.0000000E+00;  0.0000000E+00;  1.0000000E+04;  0.0000000E+00;  1.0000000E+04;  0.0000000E+00;  0.0000000E+00;  0.0000000E+00;  0.0000000E+00;
  2.0400000E+00;  9.9999998E-03; -2.0000000E-01;668;  0.0000000E+00;  0.0000000E+00;  0.0000000E+00;  1.0000000E+03;  4.0000001E-01;  0.0000000E+00;0;  0.0000000E+00;  0.0000000E+00;  0.0000000E+00;0;  0.0000000E+00;  1.0000000E+04;  0.0000000E+00;  0.0000000E+00;  1.0000000E+04;  0.0000000E+00;  1.0000000E+04;  0.0000000E+00;  0.0000000E+00;  0.0000000E+00;  0.0000000E+00;
  2.0400000E+00;  9.9999998E-03; -1.8000001E-01;669;  0.0000000E+00;  0.0000000E+00;  0.0000000E+00;  1.0000000E+03;  4.0000001E-01;  0.0000000E+00;0;  0.0000000E+00;  0.0000000E+00;  0.0000000E+00;0;  0.0000000E+00;  1.0000000E+04;  0.0000000E+00;  0.0000000E+00;  1.0000000E+04;  0.0000000E+00;  1.0000000E+04;  0.0000000E+00;  0.0000000E+00;  0.0000000E+00;  0.0000000E+00;
  2.0400000E+00;  9.9999998E-03; -1.6000000E-01;670;  0.0000000E+00;  0.0000000E+00;  0.0000000E+00;  1.0000000E+03;  4.0000001E-01;  0.0000000E+00;0;  0.0000000E+00;  0.0000000E+00;  0.0000000E+00;0;  0.0000000E+00;  1.0000000E+04;  0.0000000E+00;  0.0000000E+00;  1.0000000E+04;  0.0000000E+00;  1.0000000E+04;  0.0000000E+00;  0.0000000E+00;  0.0000000E+00;  0.0000000E+00;
  2.0400000E+00;  9.9999998E-03; -1.4000000E-01;671;  0.0000000E+00;  0.0000000E+00;  0.0000000E+00;  1.0000000E+03;  4.0000001E-01;  0.0000000E+00;0;  0.0000000E+00;  0.0000000E+00;  0.0000000E+00;0;  0.0000000E+00;  1.0000000E+04;  0.0000000E+00;  0.0000000E+00;  1.0000000E+04;  0.0000000E+00;  1.0000000E+04;  0.0000000E+00;  0.0000000E+00;  0.0000000E+00;  0.0000000E+00;
  2.0400000E+00;  9.9999998E-03; -1.2000000E-01;672;  0.0000000E+00;  0.0000000E+00;  0.0000000E+00;  1.0000000E+03;  4.0000001E-01;  0.0000000E+00;0;  0.0000000E+00;  0.0000000E+00;  0.0000000E+00;0;  0.0000000E+00;  1.0000000E+04;  0.0000000E+00;  0.0000000E+00;  1.0000000E+04;  0.0000000E+00;  1.0000000E+04;  0.0000000E+00;  0.0000000E+00;  0.0000000E+00;  0.0000000E+00;
  2.0400000E+00;  9.9999998E-03; -1.0000000E-01;673;  0.0000000E+00;  0.0000000E+00;  0.0000000E+00;  1.0000000E+03;  4.0000001E-01;  0.0000000E+00;0;  0.0000000E+00;  0.0000000E+00;  0.0000000E+00;0;  0.0000000E+00;  1.0000000E+04;  0.0000000E+00;  0.0000000E+00;  1.0000000E+04;  0.0000000E+00;  1.0000000E+04;  0.0000000E+00;  0.0000000E+00;  0.0000000E+00;  0.0000000E+00;
  2.0400000E+00;  9.9999998E-03; -7.9999998E-02;674;  0.0000000E+00;  0.0000000E+00;  0.0000000E+00;  1.0000000E+03;  4.0000001E-01;  0.0000000E+00;0;  0.0000000E+00;  0.0000000E+00;  0.0000000E+00;0;  0.0000000E+00;  1.0000000E+04;  0.0000000E+00;  0.0000000E+00;  1.0000000E+04;  0.0000000E+00;  1.0000000E+04;  0.0000000E+00;  0.0000000E+00;  0.0000000E+00;  0.0000000E+00;
  2.0400000E+00;  9.9999998E-03; -5.9999999E-02;675;  0.0000000E+00;  0.0000000E+00;  0.0000000E+00;  1.0000000E+03;  4.0000001E-01;  0.0000000E+00;0;  0.0000000E+00;  0.0000000E+00;  0.0000000E+00;0;  0.0000000E+00;  1.0000000E+04;  0.0000000E+00;  0.0000000E+00;  1.0000000E+04;  0.0000000E+00;  1.0000000E+04;  0.0000000E+00;  0.0000000E+00;  0.0000000E+00;  0.0000000E+00;
  2.0400000E+00;  9.9999998E-03; -3.9999999E-02;676;  0.0000000E+00;  0.0000000E+00;  0.0000000E+00;  1.0000000E+03;  4.0000001E-01;  0.0000000E+00;0;  0.0000000E+00;  0.0000000E+00;  0.0000000E+00;0;  0.0000000E+00;  1.0000000E+04;  0.0000000E+00;  0.0000000E+00;  1.0000000E+04;  0.0000000E+00;  1.0000000E+04;  0.0000000E+00;  0.0000000E+00;  0.0000000E+00;  0.0000000E+00;
  2.0400000E+00;  9.9999998E-03; -2.0000000E-02;677;  0.0000000E+00;  0.0000000E+00;  0.0000000E+00;  1.0000000E+03;  4.0000001E-01;  0.0000000E+00;0;  0.0000000E+00;  0.0000000E+00;  0.0000000E+00;0;  0.0000000E+00;  1.0000000E+04;  0.0000000E+00;  0.0000000E+00;  1.0000000E+04;  0.0000000E+00;  1.0000000E+04;  0.0000000E+00;  0.0000000E+00;  0.0000000E+00;  0.0000000E+00;
  2.0400000E+00;  9.9999998E-03;  0.0000000E+00;678;  0.0000000E+00;  0.0000000E+00;  0.0000000E+00;  1.0000000E+03;  4.0000001E-01;  0.0000000E+00;0;  0.0000000E+00;  0.0000000E+00;  0.0000000E+00;0;  0.0000000E+00;  1.0000000E+04;  0.0000000E+00;  0.0000000E+00;  1.0000000E+04;  0.0000000E+00;  1.0000000E+04;  0.0000000E+00;  0.0000000E+00;  0.0000000E+00;  0.0000000E+00;
  2.0400000E+00;  9.9999998E-03;  2.0000000E-02;679;  0.0000000E+00;  0.0000000E+00;  0.0000000E+00;  1.0000000E+03;  4.0000001E-01;  0.0000000E+00;0;  0.0000000E+00;  0.0000000E+00;  0.0000000E+00;0;  0.0000000E+00;  1.0000000E+04;  0.0000000E+00;  0.0000000E+00;  1.0000000E+04;  0.0000000E+00;  1.0000000E+04;  0.0000000E+00;  0.0000000E+00;  0.0000000E+00;  0.0000000E+00;
  2.0400000E+00;  9.9999998E-03;  3.9999999E-02;680;  0.0000000E+00;  0.0000000E+00;  0.0000000E+00;  1.0000000E+03;  4.0000001E-01;  0.0000000E+00;0;  0.0000000E+00;  0.0000000E+00;  0.0000000E+00;0;  0.0000000E+00;  1.0000000E+04;  0.0000000E+00;  0.0000000E+00;  1.0000000E+04;  0.0000000E+00;  1.0000000E+04;  0.0000000E+00;  0.0000000E+00;  0.0000000E+00;  0.0000000E+00;
  2.0400000E+00;  9.9999998E-03;  5.9999999E-02;681;  0.0000000E+00;  0.0000000E+00;  0.0000000E+00;  1.0000000E+03;  4.0000001E-01;  0.0000000E+00;0;  0.0000000E+00;  0.0000000E+00;  0.0000000E+00;0;  0.0000000E+00;  1.0000000E+04;  0.0000000E+00;  0.0000000E+00;  1.0000000E+04;  0.0000000E+00;  1.0000000E+04;  0.0000000E+00;  0.0000000E+00;  0.0000000E+00;  0.0000000E+00;
  2.0400000E+00;  9.9999998E-03;  7.9999998E-02;682;  0.0000000E+00;  0.0000000E+00;  0.0000000E+00;  1.0000000E+03;  4.0000001E-01;  0.0000000E+00;0;  0.0000000E+00;  0.0000000E+00;  0.0000000E+00;0;  0.0000000E+00;  1.0000000E+04;  0.0000000E+00;  0.0000000E+00;  1.0000000E+04;  0.0000000E+00;  1.0000000E+04;  0.0000000E+00;  0.0000000E+00;  0.0000000E+00;  0.0000000E+00;
  2.0400000E+00;  9.9999998E-03;  1.0000000E-01;683;  0.0000000E+00;  0.0000000E+00;  0.0000000E+00;  1.0000000E+03;  4.0000001E-01;  0.0000000E+00;0;  0.0000000E+00;  0.0000000E+00;  0.0000000E+00;0;  0.0000000E+00;  1.0000000E+04;  0.0000000E+00;  0.0000000E+00;  1.0000000E+04;  0.0000000E+00;  1.0000000E+04;  0.0000000E+00;  0.0000000E+00;  0.0000000E+00;  0.0000000E+00;
  2.0400000E+00;  9.9999998E-03;  1.2000000E-01;684;  0.0000000E+00;  0.0000000E+00;  0.0000000E+00;  1.0000000E+03;  4.0000001E-01;  0.0000000E+00;0;  0.0000000E+00;  0.0000000E+00;  0.0000000E+00;0;  0.0000000E+00;  1.0000000E+04;  0.0000000E+00;  0.0000000E+00;  1.0000000E+04;  0.0000000E+00;  1.0000000E+04;  0.0000000E+00;  0.0000000E+00;  0.0000000E+00;  0.0000000E+00;
  2.0400000E+00;  9.9999998E-03;  1.4000000E-01;685;  0.0000000E+00;  0.0000000E+00;  0.0000000E+00;  1.0000000E+03;  4.0000001E-01;  0.0000000E+00;0;  0.0000000E+00;  0.0000000E+00;  0.0000000E+00;0;  0.0000000E+00;  1.0000000E+04;  0.0000000E+00;  0.0000000E+00;  1.0000000E+04;  0.0000000E+00;  1.0000000E+04;  0.0000000E+00;  0.0000000E+00;  0.0000000E+00;  0.0000000E+00;
  2.0400000E+00;  9.9999998E-03;  1.6000000E-01;686;  0.0000000E+00;  0.0000000E+00;  0.0000000E+00;  1.0000000E+03;  4.0000001E-01;  0.0000000E+00;0;  0.0000000E+00;  0.0000000E+00;  0.0000000E+00;0;  0.0000000E+00;  1.0000000E+04;  0.0000000E+00;  0.0000000E+00;  1.0000000E+04;  0.0000000E+00;  1.0000000E+04;  0.0000000E+00;  0.0000000E+00;  0.0000000E+00;  0.0000000E+00;
  2.0400000E+00;  9.9999998E-03;  1.8000001E-01;687;  0.0000000E+00;  0.0000000E+00;  0.0000000E+00;  1.0000000E+03;  4.0000001E-01;  0.0000000E+00;0;  0.0000000E+00;  0.0000000E+00;  0.0000000E+00;0;  0.0000000E+00;  1.0000000E+04;  0.0000000E+00;  0.0000000E+00;  1.0000000E+04;  0.0000000E+00;  1.0000000E+04;  0.0000000E+00;  0.0000000E+00;  0.0000000E+00;  0.0000000E+00;
  2.0400000E+00;  9.9999998E-03;  2.0000000E-01;688;  0.0000000E+00;  0.0000000E+00;  0.0000000E+00;  1.0000000E+03;  4.0000001E-01;  0.0000000E+00;0;  0.0000000E+00;  0.0000000E+00;  0.0000000E+00;0;  0.0000000E+00;  1.0000000E+04;  0.0000000E+00;  0.0000000E+00;  1.0000000E+04;  0.0000000E+00;  1.0000000E+04;  0.0000000E+00;  0.0000000E+00;  0.0000000E+00;  0.0000000E+00;
  2.0400000E+00;  9.9999998E-03;  2.2000000E-01;689;  0.0000000E+00;  0.0000000E+00;  0.0000000E+00;  1.0000000E+03;  4.0000001E-01;  0.0000000E+00;0;  0.0000000E+00;  0.0000000E+00;  0.0000000E+00;0;  0.0000000E+00;  1.0000000E+04;  0.0000000E+00;  0.0000000E+00;  1.0000000E+04;  0.0000000E+00;  1.0000000E+04;  0.0000000E+00;  0.0000000E+00;  0.0000000E+00;  0.0000000E+00;
  2.0400000E+00;  9.9999998E-03;  2.3999999E-01;690;  0.0000000E+00;  0.0000000E+00;  0.0000000E+00;  1.0000000E+03;  4.0000001E-01;  0.0000000E+00;0;  0.0000000E+00;  0.0000000E+00;  0.0000000E+00;0;  0.0000000E+00;  1.0000000E+04;  0.0000000E+00;  0.0000000E+00;  1.0000000E+04;  0.0000000E+00;  1.0000000E+04;  0.0000000E+00;  0.0000000E+00;  0.0000000E+00;  0.0000000E+00;
  2.0400000E+00;  9.9999998E-03;  2.5999999E-01;691;  0.0000000E+00;  0.0000000E+00;  0.0000000E+00;  1.0000000E+03;  4.0000001E-01;  0.0000000E+00;0;  0.0000000E+00;  0.0000000E+00;  0.0000000E+00;0;  0.0000000E+00;  1.0000000E+04;  0.0000000E+00;  0.0000000E+00;  1.0000000E+04;  0.0000000E+00;  1.0000000E+04;  0.0000000E+00;  0.0000000E+00;  0.0000000E+00;  0.0000000E+00;
  2.0400000E+00;  9.9999998E-03;  2.8000000E-01;692;  0.0000000E+00;  0.0000000E+00;  0.0000000E+00;  1.0000000E+03;  4.0000001E-01;  0.0000000E+00;0;  0.0000000E+00;  0.0000000E+00;  0.0000000E+00;0;  0.0000000E+00;  1.0000000E+04;  0.0000000E+00;  0.0000000E+00;  1.0000000E+04;  0.0000000E+00;  1.0000000E+04;  0.0000000E+00;  0.0000000E+00;  0.0000000E+00;  0.0000000E+00;
  2.0599999E+00;  9.9999998E-03; -4.0000001E-01;693;  0.0000000E+00;  0.0000000E+00;  0.0000000E+00;  1.0000000E+03;  4.0000001E-01;  0.0000000E+00;0;  0.0000000E+00;  0.0000000E+00;  0.0000000E+00;0;  0.0000000E+00;  1.0000000E+04;  0.0000000E+00;  0.0000000E+00;  1.0000000E+04;  0.0000000E+00;  1.0000000E+04;  0.0000000E+00;  0.0000000E+00;  0.0000000E+00;  0.0000000E+00;
  2.0599999E+00;  9.9999998E-03; -3.8000000E-01;694;  0.0000000E+00;  0.0000000E+00;  0.0000000E+00;  1.0000000E+03;  4.0000001E-01;  0.0000000E+00;0;  0.0000000E+00;  0.0000000E+00;  0.0000000E+00;0;  0.0000000E+00;  1.0000000E+04;  0.0000000E+00;  0.0000000E+00;  1.0000000E+04;  0.0000000E+00;  1.0000000E+04;  0.0000000E+00;  0.0000000E+00;  0.0000000E+00;  0.0000000E+00;
  2.0599999E+00;  9.9999998E-03; -3.6000001E-01;695;  0.0000000E+00;  0.0000000E+00;  0.0000000E+00;  1.0000000E+03;  4.0000001E-01;  0.0000000E+00;0;  0.0000000E+00;  0.0000000E+00;  0.0000000E+00;0;  0.0000000E+00;  1.0000000E+04;  0.0000000E+00;  0.0000000E+00;  1.0000000E+04;  0.0000000E+00;  1.0000000E+04;  0.0000000E+00;  0.0000000E+00;  0.0000000E+00;  0.0000000E+00;
  2.0599999E+00;  9.9999998E-03; -3.4000000E-01;696;  0.0000000E+00;  0.0000000E+00;  0.0000000E+00;  1.0000000E+03;  4.0000001E-01;  0.0000000E+00;0;  0.0000000E+00;  0.0000000E+00;  0.0000000E+00;0;  0.0000000E+00;  1.0000000E+04;  0.0000000E+00;  0.0000000E+00;  1.0000000E+04;  0.0000000E+00;  1.0000000E+04;  0.0000000E+00;  0.0000000E+00;  0.0000000E+00;  0.0000000E+00;
  2.0599999E+00;  9.9999998E-03; -3.1999999E-01;697;  0.0000000E+00;  0.0000000E+00;  0.0000000E+00;  1.0000000E+03;  4.0000001E-01;  0.0000000E+00;0;  0.0000000E+00;  0.0000000E+00;  0.0000000E+00;0;  0.0000000E+00;  1.0000000E+04;  0.0000000E+00;  0.0000000E+00;  1.0000000E+04;  0.0000000E+00;  1.0000000E+04;  0.0000000E+00;  0.0000000E+00;  0.0000000E+00;  0.0000000E+00;
  2.0599999E+00;  9.9999998E-03; -3.0000001E-01;698;  0.0000000E+00;  0.0000000E+00;  0.0000000E+00;  1.0000000E+03;  4.0000001E-01;  0.0000000E+00;0;  0.0000000E+00;  0.0000000E+00;  0.0000000E+00;0;  0.0000000E+00;  1.0000000E+04;  0.0000000E+00;  0.0000000E+00;  1.0000000E+04;  0.0000000E+00;  1.0000000E+04;  0.0000000E+00;  0.0000000E+00;  0.0000000E+00;  0.0000000E+00;
  2.0599999E+00;  9.9999998E-03; -2.8000000E-01;699;  0.0000000E+00;  0.0000000E+00;  0.0000000E+00;  1.0000000E+03;  4.0000001E-01;  0.0000000E+00;0;  0.0000000E+00;  0.0000000E+00;  0.0000000E+00;0;  0.0000000E+00;  1.0000000E+04;  0.0000000E+00;  0.0000000E+00;  1.0000000E+04;  0.0000000E+00;  1.0000000E+04;  0.0000000E+00;  0.0000000E+00;  0.0000000E+00;  0.0000000E+00;
  2.0599999E+00;  9.9999998E-03; -2.5999999E-01;700;  0.0000000E+00;  0.0000000E+00;  0.0000000E+00;  1.0000000E+03;  4.0000001E-01;  0.0000000E+00;0;  0.0000000E+00;  0.0000000E+00;  0.0000000E+00;0;  0.0000000E+00;  1.0000000E+04;  0.0000000E+00;  0.0000000E+00;  1.0000000E+04;  0.0000000E+00;  1.0000000E+04;  0.0000000E+00;  0.0000000E+00;  0.0000000E+00;  0.0000000E+00;
  2.0599999E+00;  9.9999998E-03; -2.3999999E-01;701;  0.0000000E+00;  0.0000000E+00;  0.0000000E+00;  1.0000000E+03;  4.0000001E-01;  0.0000000E+00;0;  0.0000000E+00;  0.0000000E+00;  0.0000000E+00;0;  0.0000000E+00;  1.0000000E+04;  0.0000000E+00;  0.0000000E+00;  1.0000000E+04;  0.0000000E+00;  1.0000000E+04;  0.0000000E+00;  0.0000000E+00;  0.0000000E+00;  0.0000000E+00;
  2.0599999E+00;  9.9999998E-03; -2.2000000E-01;702;  0.0000000E+00;  0.0000000E+00;  0.0000000E+00;  1.0000000E+03;  4.0000001E-01;  0.0000000E+00;0;  0.0000000E+00;  0.0000000E+00;  0.0000000E+00;0;  0.0000000E+00;  1.0000000E+04;  0.0000000E+00;  0.0000000E+00;  1.0000000E+04;  0.0000000E+00;  1.0000000E+04;  0.0000000E+00;  0.0000000E+00;  0.0000000E+00;  0.0000000E+00;
  2.0599999E+00;  9.9999998E-03; -2.0000000E-01;703;  0.0000000E+00;  0.0000000E+00;  0.0000000E+00;  1.0000000E+03;  4.0000001E-01;  0.0000000E+00;0;  0.0000000E+00;  0.0000000E+00;  0.0000000E+00;0;  0.0000000E+00;  1.0000000E+04;  0.0000000E+00;  0.0000000E+00;  1.0000000E+04;  0.0000000E+00;  1.0000000E+04;  0.0000000E+00;  0.0000000E+00;  0.0000000E+00;  0.0000000E+00;
  2.0599999E+00;  9.9999998E-03; -1.8000001E-01;704;  0.0000000E+00;  0.0000000E+00;  0.0000000E+00;  1.0000000E+03;  4.0000001E-01;  0.0000000E+00;0;  0.0000000E+00;  0.0000000E+00;  0.0000000E+00;0;  0.0000000E+00;  1.0000000E+04;  0.0000000E+00;  0.0000000E+00;  1.0000000E+04;  0.0000000E+00;  1.0000000E+04;  0.0000000E+00;  0.0000000E+00;  0.0000000E+00;  0.0000000E+00;
  2.0599999E+00;  9.9999998E-03; -1.6000000E-01;705;  0.0000000E+00;  0.0000000E+00;  0.0000000E+00;  1.0000000E+03;  4.0000001E-01;  0.0000000E+00;0;  0.0000000E+00;  0.0000000E+00;  0.0000000E+00;0;  0.0000000E+00;  1.0000000E+04;  0.0000000E+00;  0.0000000E+00;  1.0000000E+04;  0.0000000E+00;  1.0000000E+04;  0.0000000E+00;  0.0000000E+00;  0.0000000E+00;  0.0000000E+00;
  2.0599999E+00;  9.9999998E-03; -1.4000000E-01;706;  0.0000000E+00;  0.0000000E+00;  0.0000000E+00;  1.0000000E+03;  4.0000001E-01;  0.0000000E+00;0;  0.0000000E+00;  0.0000000E+00;  0.0000000E+00;0;  0.0000000E+00;  1.0000000E+04;  0.0000000E+00;  0.0000000E+00;  1.0000000E+04;  0.0000000E+00;  1.0000000E+04;  0.0000000E+00;  0.0000000E+00;  0.0000000E+00;  0.0000000E+00;
  2.0599999E+00;  9.9999998E-03; -1.2000000E-01;707;  0.0000000E+00;  0.0000000E+00;  0.0000000E+00;  1.0000000E+03;  4.0000001E-01;  0.0000000E+00;0;  0.0000000E+00;  0.0000000E+00;  0.0000000E+00;0;  0.0000000E+00;  1.0000000E+04;  0.0000000E+00;  0.0000000E+00;  1.0000000E+04;  0.0000000E+00;  1.0000000E+04;  0.0000000E+00;  0.0000000E+00;  0.0000000E+00;  0.0000000E+00;
  2.0599999E+00;  9.9999998E-03; -1.0000000E-01;708;  0.0000000E+00;  0.0000000E+00;  0.0000000E+00;  1.0000000E+03;  4.0000001E-01;  0.0000000E+00;0;  0.0000000E+00;  0.0000000E+00;  0.0000000E+00;0;  0.0000000E+00;  1.0000000E+04;  0.0000000E+00;  0.0000000E+00;  1.0000000E+04;  0.0000000E+00;  1.0000000E+04;  0.0000000E+00;  0.0000000E+00;  0.0000000E+00;  0.0000000E+00;
  2.0599999E+00;  9.9999998E-03; -7.9999998E-02;709;  0.0000000E+00;  0.0000000E+00;  0.0000000E+00;  1.0000000E+03;  4.0000001E-01;  0.0000000E+00;0;  0.0000000E+00;  0.0000000E+00;  0.0000000E+00;0;  0.0000000E+00;  1.0000000E+04;  0.0000000E+00;  0.0000000E+00;  1.0000000E+04;  0.0000000E+00;  1.0000000E+04;  0.0000000E+00;  0.0000000E+00;  0.0000000E+00;  0.0000000E+00;
  2.0599999E+00;  9.9999998E-03; -5.9999999E-02;710;  0.0000000E+00;  0.0000000E+00;  0.0000000E+00;  1.0000000E+03;  4.0000001E-01;  0.0000000E+00;0;  0.0000000E+00;  0.0000000E+00;  0.0000000E+00;0;  0.0000000E+00;  1.0000000E+04;  0.0000000E+00;  0.0000000E+00;  1.0000000E+04;  0.0000000E+00;  1.0000000E+04;  0.0000000E+00;  0.0000000E+00;  0.0000000E+00;  0.0000000E+00;
  2.0599999E+00;  9.9999998E-03; -3.9999999E-02;711;  0.0000000E+00;  0.0000000E+00;  0.0000000E+00;  1.0000000E+03;  4.0000001E-01;  0.0000000E+00;0;  0.0000000E+00;  0.0000000E+00;  0.0000000E+00;0;  0.0000000E+00;  1.0000000E+04;  0.0000000E+00;  0.0000000E+00;  1.0000000E+04;  0.0000000E+00;  1.0000000E+04;  0.0000000E+00;  0.0000000E+00;  0.0000000E+00;  0.0000000E+00;
  2.0599999E+00;  9.9999998E-03; -2.0000000E-02;712;  0.0000000E+00;  0.0000000E+00;  0.0000000E+00;  1.0000000E+03;  4.0000001E-01;  0.0000000E+00;0;  0.0000000E+00;  0.0000000E+00;  0.0000000E+00;0;  0.0000000E+00;  1.0000000E+04;  0.0000000E+00;  0.0000000E+00;  1.0000000E+04;  0.0000000E+00;  1.0000000E+04;  0.0000000E+00;  0.0000000E+00;  0.0000000E+00;  0.0000000E+00;
  2.0599999E+00;  9.9999998E-03;  0.0000000E+00;713;  0.0000000E+00;  0.0000000E+00;  0.0000000E+00;  1.0000000E+03;  4.0000001E-01;  0.0000000E+00;0;  0.0000000E+00;  0.0000000E+00;  0.0000000E+00;0;  0.0000000E+00;  1.0000000E+04;  0.0000000E+00;  0.0000000E+00;  1.0000000E+04;  0.0000000E+00;  1.0000000E+04;  0.0000000E+00;  0.0000000E+00;  0.0000000E+00;  0.0000000E+00;
  2.0599999E+00;  9.9999998E-03;  2.0000000E-02;714;  0.0000000E+00;  0.0000000E+00;  0.0000000E+00;  1.0000000E+03;  4.0000001E-01;  0.0000000E+00;0;  0.0000000E+00;  0.0000000E+00;  0.0000000E+00;0;  0.0000000E+00;  1.0000000E+04;  0.0000000E+00;  0.0000000E+00;  1.0000000E+04;  0.0000000E+00;  1.0000000E+04;  0.0000000E+00;  0.0000000E+00;  0.0000000E+00;  0.0000000E+00;
  2.0599999E+00;  9.9999998E-03;  3.9999999E-02;715;  0.0000000E+00;  0.0000000E+00;  0.0000000E+00;  1.0000000E+03;  4.0000001E-01;  0.0000000E+00;0;  0.0000000E+00;  0.0000000E+00;  0.0000000E+00;0;  0.0000000E+00;  1.0000000E+04;  0.0000000E+00;  0.0000000E+00;  1.0000000E+04;  0.0000000E+00;  1.0000000E+04;  0.0000000E+00;  0.0000000E+00;  0.0000000E+00;  0.0000000E+00;
  2.0599999E+00;  9.9999998E-03;  5.9999999E-02;716;  0.0000000E+00;  0.0000000E+00;  0.0000000E+00;  1.0000000E+03;  4.0000001E-01;  0.0000000E+00;0;  0.0000000E+00;  0.0000000E+00;  0.0000000E+00;0;  0.0000000E+00;  1.0000000E+04;  0.0000000E+00;  0.0000000E+00;  1.0000000E+04;  0.0000000E+00;  1.0000000E+04;  0.0000000E+00;  0.0000000E+00;  0.0000000E+00;  0.0000000E+00;
  2.0599999E+00;  9.9999998E-03;  7.9999998E-02;717;  0.0000000E+00;  0.0000000E+00;  0.0000000E+00;  1.0000000E+03;  4.0000001E-01;  0.0000000E+00;0;  0.0000000E+00;  0.0000000E+00;  0.0000000E+00;0;  0.0000000E+00;  1.0000000E+04;  0.0000000E+00;  0.0000000E+00;  1.0000000E+04;  0.0000000E+00;  1.0000000E+04;  0.0000000E+00;  0.0000000E+00;  0.0000000E+00;  0.0000000E+00;
  2.0599999E+00;  9.9999998E-03;  1.0000000E-01;718;  0.0000000E+00;  0.0000000E+00;  0.0000000E+00;  1.0000000E+03;  4.0000001E-01;  0.0000000E+00;0;  0.0000000E+00;  0.0000000E+00;  0.0000000E+00;0;  0.0000000E+00;  1.0000000E+04;  0.0000000E+00;  0.0000000E+00;  1.0000000E+04;  0.0000000E+00;  1.0000000E+04;  0.0000000E+00;  0.0000000E+00;  0.0000000E+00;  0.0000000E+00;
  2.0599999E+00;  9.9999998E-03;  1.2000000E-01;719;  0.0000000E+00;  0.0000000E+00;  0.0000000E+00;  1.0000000E+03;  4.0000001E-01;  0.0000000E+00;0;  0.0000000E+00;  0.0000000E+00;  0.0000000E+00;0;  0.0000000E+00;  1.0000000E+04;  0.0000000E+00;  0.0000000E+00;  1.0000000E+04;  0.0000000E+00;  1.0000000E+04;  0.0000000E+00;  0.0000000E+00;  0.0000000E+00;  0.0000000E+00;
  2.0599999E+00;  9.9999998E-03;  1.4000000E-01;720;  0.0000000E+00;  0.0000000E+00;  0.0000000E+00;  1.0000000E+03;  4.0000001E-01;  0.0000000E+00;0;  0.0000000E+00;  0.0000000E+00;  0.0000000E+00;0;  0.0000000E+00;  1.0000000E+04;  0.0000000E+00;  0.0000000E+00;  1.0000000E+04;  0.0000000E+00;  1.0000000E+04;  0.0000000E+00;  0.0000000E+00;  0.0000000E+00;  0.0000000E+00;
  2.0599999E+00;  9.9999998E-03;  1.6000000E-01;721;  0.0000000E+00;  0.0000000E+00;  0.0000000E+00;  1.0000000E+03;  4.0000001E-01;  0.0000000E+00;0;  0.0000000E+00;  0.0000000E+00;  0.0000000E+00;0;  0.0000000E+00;  1.0000000E+04;  0.0000000E+00;  0.0000000E+00;  1.0000000E+04;  0.0000000E+00;  1.0000000E+04;  0.0000000E+00;  0.0000000E+00;  0.0000000E+00;  0.0000000E+00;
  2.0599999E+00;  9.9999998E-03;  1.8000001E-01;722;  0.0000000E+00;  0.0000000E+00;  0.0000000E+00;  1.0000000E+03;  4.0000001E-01;  0.0000000E+00;0;  0.0000000E+00;  0.0000000E+00;  0.0000000E+00;0;  0.0000000E+00;  1.0000000E+04;  0.0000000E+00;  0.0000000E+00;  1.0000000E+04;  0.0000000E+00;  1.0000000E+04;  0.0000000E+00;  0.0000000E+00;  0.0000000E+00;  0.0000000E+00;
  2.0599999E+00;  9.9999998E-03;  2.0000000E-01;723;  0.0000000E+00;  0.0000000E+00;  0.0000000E+00;  1.0000000E+03;  4.0000001E-01;  0.0000000E+00;0;  0.0000000E+00;  0.0000000E+00;  0.0000000E+00;0;  0.0000000E+00;  1.0000000E+04;  0.0000000E+00;  0.0000000E+00;  1.0000000E+04;  0.0000000E+00;  1.0000000E+04;  0.0000000E+00;  0.0000000E+00;  0.0000000E+00;  0.0000000E+00;
  2.0599999E+00;  9.9999998E-03;  2.2000000E-01;724;  0.0000000E+00;  0.0000000E+00;  0.0000000E+00;  1.0000000E+03;  4.0000001E-01;  0.0000000E+00;0;  0.0000000E+00;  0.0000000E+00;  0.0000000E+00;0;  0.0000000E+00;  1.0000000E+04;  0.0000000E+00;  0.0000000E+00;  1.0000000E+04;  0.0000000E+00;  1.0000000E+04;  0.0000000E+00;  0.0000000E+00;  0.0000000E+00;  0.0000000E+00;
  2.0599999E+00;  9.9999998E-03;  2.3999999E-01;725;  0.0000000E+00;  0.0000000E+00;  0.0000000E+00;  1.0000000E+03;  4.0000001E-01;  0.0000000E+00;0;  0.0000000E+00;  0.0000000E+00;  0.0000000E+00;0;  0.0000000E+00;  1.0000000E+04;  0.0000000E+00;  0.0000000E+00;  1.0000000E+04;  0.0000000E+00;  1.0000000E+04;  0.0000000E+00;  0.0000000E+00;  0.0000000E+00;  0.0000000E+00;
  2.0599999E+00;  9.9999998E-03;  2.5999999E-01;726;  0.0000000E+00;  0.0000000E+00;  0.0000000E+00;  1.0000000E+03;  4.0000001E-01;  0.0000000E+00;0;  0.0000000E+00;  0.0000000E+00;  0.0000000E+00;0;  0.0000000E+00;  1.0000000E+04;  0.0000000E+00;  0.0000000E+00;  1.0000000E+04;  0.0000000E+00;  1.0000000E+04;  0.0000000E+00;  0.0000000E+00;  0.0000000E+00;  0.0000000E+00;
  2.0599999E+00;  9.9999998E-03;  2.8000000E-01;727;  0.0000000E+00;  0.0000000E+00;  0.0000000E+00;  1.0000000E+03;  4.0000001E-01;  0.0000000E+00;0;  0.0000000E+00;  0.0000000E+00;  0.0000000E+00;0;  0.0000000E+00;  1.0000000E+04;  0.0000000E+00;  0.0000000E+00;  1.0000000E+04;  0.0000000E+00;  1.0000000E+04;  0.0000000E+00;  0.0000000E+00;  0.0000000E+00;  0.0000000E+00;
  2.0599999E+00;  9.9999998E-03;  3.0000001E-01;728;  0.0000000E+00;  0.0000000E+00;  0.0000000E+00;  1.0000000E+03;  4.0000001E-01;  0.0000000E+00;0;  0.0000000E+00;  0.0000000E+00;  0.0000000E+00;0;  0.0000000E+00;  1.0000000E+04;  0.0000000E+00;  0.0000000E+00;  1.0000000E+04;  0.0000000E+00;  1.0000000E+04;  0.0000000E+00;  0.0000000E+00;  0.0000000E+00;  0.0000000E+00;
  2.0599999E+00;  9.9999998E-03;  3.1999999E-01;729;  0.0000000E+00;  0.0000000E+00;  0.0000000E+00;  1.0000000E+03;  4.0000001E-01;  0.0000000E+00;0;  0.0000000E+00;  0.0000000E+00;  0.0000000E+00;0;  0.0000000E+00;  1.0000000E+04;  0.0000000E+00;  0.0000000E+00;  1.0000000E+04;  0.0000000E+00;  1.0000000E+04;  0.0000000E+00;  0.0000000E+00;  0.0000000E+00;  0.0000000E+00;
  2.0599999E+00;  9.9999998E-03;  3.4000000E-01;730;  0.0000000E+00;  0.0000000E+00;  0.0000000E+00;  1.0000000E+03;  4.0000001E-01;  0.0000000E+00;0;  0.0000000E+00;  0.0000000E+00;  0.0000000E+00;0;  0.0000000E+00;  1.0000000E+04;  0.0000000E+00;  0.0000000E+00;  1.0000000E+04;  0.0000000E+00;  1.0000000E+04;  0.0000000E+00;  0.0000000E+00;  0.0000000E+00;  0.0000000E+00;
  2.0599999E+00;  9.9999998E-03;  3.6000001E-01;731;  0.0000000E+00;  0.0000000E+00;  0.0000000E+00;  1.0000000E+03;  4.0000001E-01;  0.0000000E+00;0;  0.0000000E+00;  0.0000000E+00;  0.0000000E+00;0;  0.0000000E+00;  1.0000000E+04;  0.0000000E+00;  0.0000000E+00;  1.0000000E+04;  0.0000000E+00;  1.0000000E+04;  0.0000000E+00;  0.0000000E+00;  0.0000000E+00;  0.0000000E+00;
  2.0599999E+00;  9.9999998E-03;  3.8000000E-01;732;  0.0000000E+00;  0.0000000E+00;  0.0000000E+00;  1.0000000E+03;  4.0000001E-01;  0.0000000E+00;0;  0.0000000E+00;  0.0000000E+00;  0.0000000E+00;0;  0.0000000E+00;  1.0000000E+04;  0.0000000E+00;  0.0000000E+00;  1.0000000E+04;  0.0000000E+00;  1.0000000E+04;  0.0000000E+00;  0.0000000E+00;  0.0000000E+00;  0.0000000E+00;
  2.0799999E+00;  9.9999998E-03; -4.0000001E-01;733;  0.0000000E+00;  0.0000000E+00;  0.0000000E+00;  1.0000000E+03;  4.0000001E-01;  0.0000000E+00;0;  0.0000000E+00;  0.0000000E+00;  0.0000000E+00;0;  0.0000000E+00;  1.0000000E+04;  0.0000000E+00;  0.0000000E+00;  1.0000000E+04;  0.0000000E+00;  1.0000000E+04;  0.0000000E+00;  0.0000000E+00;  0.0000000E+00;  0.0000000E+00;
  2.0799999E+00;  9.9999998E-03; -3.8000000E-01;734;  0.0000000E+00;  0.0000000E+00;  0.0000000E+00;  1.0000000E+03;  4.0000001E-01;  0.0000000E+00;0;  0.0000000E+00;  0.0000000E+00;  0.0000000E+00;0;  0.0000000E+00;  1.0000000E+04;  0.0000000E+00;  0.0000000E+00;  1.0000000E+04;  0.0000000E+00;  1.0000000E+04;  0.0000000E+00;  0.0000000E+00;  0.0000000E+00;  0.0000000E+00;
  2.0799999E+00;  9.9999998E-03; -3.6000001E-01;735;  0.0000000E+00;  0.0000000E+00;  0.0000000E+00;  1.0000000E+03;  4.0000001E-01;  0.0000000E+00;0;  0.0000000E+00;  0.0000000E+00;  0.0000000E+00;0;  0.0000000E+00;  1.0000000E+04;  0.0000000E+00;  0.0000000E+00;  1.0000000E+04;  0.0000000E+00;  1.0000000E+04;  0.0000000E+00;  0.0000000E+00;  0.0000000E+00;  0.0000000E+00;
  2.0799999E+00;  9.9999998E-03; -3.4000000E-01;736;  0.0000000E+00;  0.0000000E+00;  0.0000000E+00;  1.0000000E+03;  4.0000001E-01;  0.0000000E+00;0;  0.0000000E+00;  0.0000000E+00;  0.0000000E+00;0;  0.0000000E+00;  1.0000000E+04;  0.0000000E+00;  0.0000000E+00;  1.0000000E+04;  0.0000000E+00;  1.0000000E+04;  0.0000000E+00;  0.0000000E+00;  0.0000000E+00;  0.0000000E+00;
  2.0799999E+00;  9.9999998E-03; -3.1999999E-01;737;  0.0000000E+00;  0.0000000E+00;  0.0000000E+00;  1.0000000E+03;  4.0000001E-01;  0.0000000E+00;0;  0.0000000E+00;  0.0000000E+00;  0.0000000E+00;0;  0.0000000E+00;  1.0000000E+04;  0.0000000E+00;  0.0000000E+00;  1.0000000E+04;  0.0000000E+00;  1.0000000E+04;  0.0000000E+00;  0.0000000E+00;  0.0000000E+00;  0.0000000E+00;
  2.0799999E+00;  9.9999998E-03; -3.0000001E-01;738;  0.0000000E+00;  0.0000000E+00;  0.0000000E+00;  1.0000000E+03;  4.0000001E-01;  0.0000000E+00;0;  0.0000000E+00;  0.0000000E+00;  0.0000000E+00;0;  0.0000000E+00;  1.0000000E+04;  0.0000000E+00;  0.0000000E+00;  1.0000000E+04;  0.0000000E+00;  1.0000000E+04;  0.0000000E+00;  0.0000000E+00;  0.0000000E+00;  0.0000000E+00;
  2.0799999E+00;  9.9999998E-03; -2.8000000E-01;739;  0.0000000E+00;  0.0000000E+00;  0.0000000E+00;  1.0000000E+03;  4.0000001E-01;  0.0000000E+00;0;  0.0000000E+00;  0.0000000E+00;  0.0000000E+00;0;  0.0000000E+00;  1.0000000E+04;  0.0000000E+00;  0.0000000E+00;  1.0000000E+04;  0.0000000E+00;  1.0000000E+04;  0.0000000E+00;  0.0000000E+00;  0.0000000E+00;  0.0000000E+00;
  2.0799999E+00;  9.9999998E-03; -2.5999999E-01;740;  0.0000000E+00;  0.0000000E+00;  0.0000000E+00;  1.0000000E+03;  4.0000001E-01;  0.0000000E+00;0;  0.0000000E+00;  0.0000000E+00;  0.0000000E+00;0;  0.0000000E+00;  1.0000000E+04;  0.0000000E+00;  0.0000000E+00;  1.0000000E+04;  0.0000000E+00;  1.0000000E+04;  0.0000000E+00;  0.0000000E+00;  0.0000000E+00;  0.0000000E+00;
  2.0799999E+00;  9.9999998E-03; -2.3999999E-01;741;  0.0000000E+00;  0.0000000E+00;  0.0000000E+00;  1.0000000E+03;  4.0000001E-01;  0.0000000E+00;0;  0.0000000E+00;  0.0000000E+00;  0.0000000E+00;0;  0.0000000E+00;  1.0000000E+04;  0.0000000E+00;  0.0000000E+00;  1.0000000E+04;  0.0000000E+00;  1.0000000E+04;  0.0000000E+00;  0.0000000E+00;  0.0000000E+00;  0.0000000E+00;
  2.0799999E+00;  9.9999998E-03; -2.2000000E-01;742;  0.0000000E+00;  0.0000000E+00;  0.0000000E+00;  1.0000000E+03;  4.0000001E-01;  0.0000000E+00;0;  0.0000000E+00;  0.0000000E+00;  0.0000000E+00;0;  0.0000000E+00;  1.0000000E+04;  0.0000000E+00;  0.0000000E+00;  1.0000000E+04;  0.0000000E+00;  1.0000000E+04;  0.0000000E+00;  0.0000000E+00;  0.0000000E+00;  0.0000000E+00;
  2.0799999E+00;  9.9999998E-03; -2.0000000E-01;743;  0.0000000E+00;  0.0000000E+00;  0.0000000E+00;  1.0000000E+03;  4.0000001E-01;  0.0000000E+00;0;  0.0000000E+00;  0.0000000E+00;  0.0000000E+00;0;  0.0000000E+00;  1.0000000E+04;  0.0000000E+00;  0.0000000E+00;  1.0000000E+04;  0.0000000E+00;  1.0000000E+04;  0.0000000E+00;  0.0000000E+00;  0.0000000E+00;  0.0000000E+00;
  2.0799999E+00;  9.9999998E-03; -1.8000001E-01;744;  0.0000000E+00;  0.0000000E+00;  0.0000000E+00;  1.0000000E+03;  4.0000001E-01;  0.0000000E+00;0;  0.0000000E+00;  0.0000000E+00;  0.0000000E+00;0;  0.0000000E+00;  1.0000000E+04;  0.0000000E+00;  0.0000000E+00;  1.0000000E+04;  0.0000000E+00;  1.0000000E+04;  0.0000000E+00;  0.0000000E+00;  0.0000000E+00;  0.0000000E+00;
  2.0799999E+00;  9.9999998E-03; -1.6000000E-01;745;  0.0000000E+00;  0.0000000E+00;  0.0000000E+00;  1.0000000E+03;  4.0000001E-01;  0.0000000E+00;0;  0.0000000E+00;  0.0000000E+00;  0.0000000E+00;0;  0.0000000E+00;  1.0000000E+04;  0.0000000E+00;  0.0000000E+00;  1.0000000E+04;  0.0000000E+00;  1.0000000E+04;  0.0000000E+00;  0.0000000E+00;  0.0000000E+00;  0.0000000E+00;
  2.0799999E+00;  9.9999998E-03; -1.4000000E-01;746;  0.0000000E+00;  0.0000000E+00;  0.0000000E+00;  1.0000000E+03;  4.0000001E-01;  0.0000000E+00;0;  0.0000000E+00;  0.0000000E+00;  0.0000000E+00;0;  0.0000000E+00;  1.0000000E+04;  0.0000000E+00;  0.0000000E+00;  1.0000000E+04;  0.0000000E+00;  1.0000000E+04;  0.0000000E+00;  0.0000000E+00;  0.0000000E+00;  0.0000000E+00;
  2.0799999E+00;  9.9999998E-03; -1.2000000E-01;747;  0.0000000E+00;  0.0000000E+00;  0.0000000E+00;  1.0000000E+03;  4.0000001E-01;  0.0000000E+00;0;  0.0000000E+00;  0.0000000E+00;  0.0000000E+00;0;  0.0000000E+00;  1.0000000E+04;  0.0000000E+00;  0.0000000E+00;  1.0000000E+04;  0.0000000E+00;  1.0000000E+04;  0.0000000E+00;  0.0000000E+00;  0.0000000E+00;  0.0000000E+00;
  2.0799999E+00;  9.9999998E-03; -1.0000000E-01;748;  0.0000000E+00;  0.0000000E+00;  0.0000000E+00;  1.0000000E+03;  4.0000001E-01;  0.0000000E+00;0;  0.0000000E+00;  0.0000000E+00;  0.0000000E+00;0;  0.0000000E+00;  1.0000000E+04;  0.0000000E+00;  0.0000000E+00;  1.0000000E+04;  0.0000000E+00;  1.0000000E+04;  0.0000000E+00;  0.0000000E+00;  0.0000000E+00;  0.0000000E+00;
  2.0799999E+00;  9.9999998E-03; -7.9999998E-02;749;  0.0000000E+00;  0.0000000E+00;  0.0000000E+00;  1.0000000E+03;  4.0000001E-01;  0.0000000E+00;0;  0.0000000E+00;  0.0000000E+00;  0.0000000E+00;0;  0.0000000E+00;  1.0000000E+04;  0.0000000E+00;  0.0000000E+00;  1.0000000E+04;  0.0000000E+00;  1.0000000E+04;  0.0000000E+00;  0.0000000E+00;  0.0000000E+00;  0.0000000E+00;
  2.0799999E+00;  9.9999998E-03; -5.9999999E-02;750;  0.0000000E+00;  0.0000000E+00;  0.0000000E+00;  1.0000000E+03;  4.0000001E-01;  0.0000000E+00;0;  0.0000000E+00;  0.0000000E+00;  0.0000000E+00;0;  0.0000000E+00;  1.0000000E+04;  0.0000000E+00;  0.0000000E+00;  1.0000000E+04;  0.0000000E+00;  1.0000000E+04;  0.0000000E+00;  0.0000000E+00;  0.0000000E+00;  0.0000000E+00;
  2.0799999E+00;  9.9999998E-03; -3.9999999E-02;751;  0.0000000E+00;  0.0000000E+00;  0.0000000E+00;  1.0000000E+03;  4.0000001E-01;  0.0000000E+00;0;  0.0000000E+00;  0.0000000E+00;  0.0000000E+00;0;  0.0000000E+00;  1.0000000E+04;  0.0000000E+00;  0.0000000E+00;  1.0000000E+04;  0.0000000E+00;  1.0000000E+04;  0.0000000E+00;  0.0000000E+00;  0.0000000E+00;  0.0000000E+00;
  2.0799999E+00;  9.9999998E-03; -2.0000000E-02;752;  0.0000000E+00;  0.0000000E+00;  0.0000000E+00;  1.0000000E+03;  4.0000001E-01;  0.0000000E+00;0;  0.0000000E+00;  0.0000000E+00;  0.0000000E+00;0;  0.0000000E+00;  1.0000000E+04;  0.0000000E+00;  0.0000000E+00;  1.0000000E+04;  0.0000000E+00;  1.0000000E+04;  0.0000000E+00;  0.0000000E+00;  0.0000000E+00;  0.0000000E+00;
  2.0799999E+00;  9.9999998E-03;  0.0000000E+00;753;  0.0000000E+00;  0.0000000E+00;  0.0000000E+00;  1.0000000E+03;  4.0000001E-01;  0.0000000E+00;0;  0.0000000E+00;  0.0000000E+00;  0.0000000E+00;0;  0.0000000E+00;  1.0000000E+04;  0.0000000E+00;  0.0000000E+00;  1.0000000E+04;  0.0000000E+00;  1.0000000E+04;  0.0000000E+00;  0.0000000E+00;  0.0000000E+00;  0.0000000E+00;
  2.0799999E+00;  9.9999998E-03;  2.0000000E-02;754;  0.0000000E+00;  0.0000000E+00;  0.0000000E+00;  1.0000000E+03;  4.0000001E-01;  0.0000000E+00;0;  0.0000000E+00;  0.0000000E+00;  0.0000000E+00;0;  0.0000000E+00;  1.0000000E+04;  0.0000000E+00;  0.0000000E+00;  1.0000000E+04;  0.0000000E+00;  1.0000000E+04;  0.0000000E+00;  0.0000000E+00;  0.0000000E+00;  0.0000000E+00;
  2.0799999E+00;  9.9999998E-03;  3.9999999E-02;755;  0.0000000E+00;  0.0000000E+00;  0.0000000E+00;  1.0000000E+03;  4.0000001E-01;  0.0000000E+00;0;  0.0000000E+00;  0.0000000E+00;  0.0000000E+00;0;  0.0000000E+00;  1.0000000E+04;  0.0000000E+00;  0.0000000E+00;  1.0000000E+04;  0.0000000E+00;  1.0000000E+04;  0.0000000E+00;  0.0000000E+00;  0.0000000E+00;  0.0000000E+00;
  2.0799999E+00;  9.9999998E-03;  5.9999999E-02;756;  0.0000000E+00;  0.0000000E+00;  0.0000000E+00;  1.0000000E+03;  4.0000001E-01;  0.0000000E+00;0;  0.0000000E+00;  0.0000000E+00;  0.0000000E+00;0;  0.0000000E+00;  1.0000000E+04;  0.0000000E+00;  0.0000000E+00;  1.0000000E+04;  0.0000000E+00;  1.0000000E+04;  0.0000000E+00;  0.0000000E+00;  0.0000000E+00;  0.0000000E+00;
  2.0799999E+00;  9.9999998E-03;  7.9999998E-02;757;  0.0000000E+00;  0.0000000E+00;  0.0000000E+00;  1.0000000E+03;  4.0000001E-01;  0.0000000E+00;0;  0.0000000E+00;  0.0000000E+00;  0.0000000E+00;0;  0.0000000E+00;  1.0000000E+04;  0.0000000E+00;  0.0000000E+00;  1.0000000E+04;  0.0000000E+00;  1.0000000E+04;  0.0000000E+00;  0.0000000E+00;  0.0000000E+00;  0.0000000E+00;
  2.0799999E+00;  9.9999998E-03;  1.0000000E-01;758;  0.0000000E+00;  0.0000000E+00;  0.0000000E+00;  1.0000000E+03;  4.0000001E-01;  0.0000000E+00;0;  0.0000000E+00;  0.0000000E+00;  0.0000000E+00;0;  0.0000000E+00;  1.0000000E+04;  0.0000000E+00;  0.0000000E+00;  1.0000000E+04;  0.0000000E+00;  1.0000000E+04;  0.0000000E+00;  0.0000000E+00;  0.0000000E+00;  0.0000000E+00;
  2.0799999E+00;  9.9999998E-03;  1.2000000E-01;759;  0.0000000E+00;  0.0000000E+00;  0.0000000E+00;  1.0000000E+03;  4.0000001E-01;  0.0000000E+00;0;  0.0000000E+00;  0.0000000E+00;  0.0000000E+00;0;  0.0000000E+00;  1.0000000E+04;  0.0000000E+00;  0.0000000E+00;  1.0000000E+04;  0.0000000E+00;  1.0000000E+04;  0.0000000E+00;  0.0000000E+00;  0.0000000E+00;  0.0000000E+00;
  2.0799999E+00;  9.9999998E-03;  1.4000000E-01;760;  0.0000000E+00;  0.0000000E+00;  0.0000000E+00;  1.0000000E+03;  4.0000001E-01;  0.0000000E+00;0;  0.0000000E+00;  0.0000000E+00;  0.0000000E+00;0;  0.0000000E+00;  1.0000000E+04;  0.0000000E+00;  0.0000000E+00;  1.0000000E+04;  0.0000000E+00;  1.0000000E+04;  0.0000000E+00;  0.0000000E+00;  0.0000000E+00;  0.0000000E+00;
  2.0799999E+00;  9.9999998E-03;  1.6000000E-01;761;  0.0000000E+00;  0.0000000E+00;  0.0000000E+00;  1.0000000E+03;  4.0000001E-01;  0.0000000E+00;0;  0.0000000E+00;  0.0000000E+00;  0.0000000E+00;0;  0.0000000E+00;  1.0000000E+04;  0.0000000E+00;  0.0000000E+00;  1.0000000E+04;  0.0000000E+00;  1.0000000E+04;  0.0000000E+00;  0.0000000E+00;  0.0000000E+00;  0.0000000E+00;
  2.0799999E+00;  9.9999998E-03;  1.8000001E-01;762;  0.0000000E+00;  0.0000000E+00;  0.0000000E+00;  1.0000000E+03;  4.0000001E-01;  0.0000000E+00;0;  0.0000000E+00;  0.0000000E+00;  0.0000000E+00;0;  0.0000000E+00;  1.0000000E+04;  0.0000000E+00;  0.0000000E+00;  1.0000000E+04;  0.0000000E+00;  1.0000000E+04;  0.0000000E+00;  0.0000000E+00;  0.0000000E+00;  0.0000000E+00;
  2.0799999E+00;  9.9999998E-03;  2.0000000E-01;763;  0.0000000E+00;  0.0000000E+00;  0.0000000E+00;  1.0000000E+03;  4.0000001E-01;  0.0000000E+00;0;  0.0000000E+00;  0.0000000E+00;  0.0000000E+00;0;  0.0000000E+00;  1.0000000E+04;  0.0000000E+00;  0.0000000E+00;  1.0000000E+04;  0.0000000E+00;  1.0000000E+04;  0.0000000E+00;  0.0000000E+00;  0.0000000E+00;  0.0000000E+00;
  2.0799999E+00;  9.9999998E-03;  2.2000000E-01;764;  0.0000000E+00;  0.0000000E+00;  0.0000000E+00;  1.0000000E+03;  4.0000001E-01;  0.0000000E+00;0;  0.0000000E+00;  0.0000000E+00;  0.0000000E+00;0;  0.0000000E+00;  1.0000000E+04;  0.0000000E+00;  0.0000000E+00;  1.0000000E+04;  0.0000000E+00;  1.0000000E+04;  0.0000000E+00;  0.0000000E+00;  0.0000000E+00;  0.0000000E+00;
  2.0799999E+00;  9.9999998E-03;  2.3999999E-01;765;  0.0000000E+00;  0.0000000E+00;  0.0000000E+00;  1.0000000E+03;  4.0000001E-01;  0.0000000E+00;0;  0.0000000E+00;  0.0000000E+00;  0.0000000E+00;0;  0.0000000E+00;  1.0000000E+04;  0.0000000E+00;  0.0000000E+00;  1.0000000E+04;  0.0000000E+00;  1.0000000E+04;  0.0000000E+00;  0.0000000E+00;  0.0000000E+00;  0.0000000E+00;
  2.0799999E+00;  9.9999998E-03;  2.5999999E-01;766;  0.0000000E+00;  0.0000000E+00;  0.0000000E+00;  1.0000000E+03;  4.0000001E-01;  0.0000000E+00;0;  0.0000000E+00;  0.0000000E+00;  0.0000000E+00;0;  0.0000000E+00;  1.0000000E+04;  0.0000000E+00;  0.0000000E+00;  1.0000000E+04;  0.0000000E+00;  1.0000000E+04;  0.0000000E+00;  0.0000000E+00;  0.0000000E+00;  0.0000000E+00;
  2.0799999E+00;  9.9999998E-03;  2.8000000E-01;767;  0.0000000E+00;  0.0000000E+00;  0.0000000E+00;  1.0000000E+03;  4.0000001E-01;  0.0000000E+00;0;  0.0000000E+00;  0.0000000E+00;  0.0000000E+00;0;  0.0000000E+00;  1.0000000E+04;  0.0000000E+00;  0.0000000E+00;  1.0000000E+04;  0.0000000E+00;  1.0000000E+04;  0.0000000E+00;  0.0000000E+00;  0.0000000E+00;  0.0000000E+00;
  2.0799999E+00;  9.9999998E-03;  3.0000001E-01;768;  0.0000000E+00;  0.0000000E+00;  0.0000000E+00;  1.0000000E+03;  4.0000001E-01;  0.0000000E+00;0;  0.0000000E+00;  0.0000000E+00;  0.0000000E+00;0;  0.0000000E+00;  1.0000000E+04;  0.0000000E+00;  0.0000000E+00;  1.0000000E+04;  0.0000000E+00;  1.0000000E+04;  0.0000000E+00;  0.0000000E+00;  0.0000000E+00;  0.0000000E+00;
  2.0799999E+00;  9.9999998E-03;  3.1999999E-01;769;  0.0000000E+00;  0.0000000E+00;  0.0000000E+00;  1.0000000E+03;  4.0000001E-01;  0.0000000E+00;0;  0.0000000E+00;  0.0000000E+00;  0.0000000E+00;0;  0.0000000E+00;  1.0000000E+04;  0.0000000E+00;  0.0000000E+00;  1.0000000E+04;  0.0000000E+00;  1.0000000E+04;  0.0000000E+00;  0.0000000E+00;  0.0000000E+00;  0.0000000E+00;
  2.0799999E+00;  9.9999998E-03;  3.4000000E-01;770;  0.0000000E+00;  0.0000000E+00;  0.0000000E+00;  1.0000000E+03;  4.0000001E-01;  0.0000000E+00;0;  0.0000000E+00;  0.0000000E+00;  0.0000000E+00;0;  0.0000000E+00;  1.0000000E+04;  0.0000000E+00;  0.0000000E+00;  1.0000000E+04;  0.0000000E+00;  1.0000000E+04;  0.0000000E+00;  0.0000000E+00;  0.0000000E+00;  0.0000000E+00;
  2.0799999E+00;  9.9999998E-03;  3.6000001E-01;771;  0.0000000E+00;  0.0000000E+00;  0.0000000E+00;  1.0000000E+03;  4.0000001E-01;  0.0000000E+00;0;  0.0000000E+00;  0.0000000E+00;  0.0000000E+00;0;  0.0000000E+00;  1.0000000E+04;  0.0000000E+00;  0.0000000E+00;  1.0000000E+04;  0.0000000E+00;  1.0000000E+04;  0.0000000E+00;  0.0000000E+00;  0.0000000E+00;  0.0000000E+00;
  2.0799999E+00;  9.9999998E-03;  3.8000000E-01;772;  0.0000000E+00;  0.0000000E+00;  0.0000000E+00;  1.0000000E+03;  4.0000001E-01;  0.0000000E+00;0;  0.0000000E+00;  0.0000000E+00;  0.0000000E+00;0;  0.0000000E+00;  1.0000000E+04;  0.0000000E+00;  0.0000000E+00;  1.0000000E+04;  0.0000000E+00;  1.0000000E+04;  0.0000000E+00;  0.0000000E+00;  0.0000000E+00;  0.0000000E+00;
  2.0799999E+00;  9.9999998E-03;  4.0000001E-01;773;  0.0000000E+00;  0.0000000E+00;  0.0000000E+00;  1.0000000E+03;  4.0000001E-01;  0.0000000E+00;0;  0.0000000E+00;  0.0000000E+00;  0.0000000E+00;0;  0.0000000E+00;  1.0000000E+04;  0.0000000E+00;  0.0000000E+00;  1.0000000E+04;  0.0000000E+00;  1.0000000E+04;  0.0000000E+00;  0.0000000E+00;  0.0000000E+00;  0.0000000E+00;
  2.0999999E+00;  9.9999998E-03; -4.0000001E-01;774;  0.0000000E+00;  0.0000000E+00;  0.0000000E+00;  1.0000000E+03;  4.0000001E-01;  0.0000000E+00;0;  0.0000000E+00;  0.0000000E+00;  0.0000000E+00;0;  0.0000000E+00;  1.0000000E+04;  0.0000000E+00;  0.0000000E+00;  1.0000000E+04;  0.0000000E+00;  1.0000000E+04;  0.0000000E+00;  0.0000000E+00;  0.0000000E+00;  0.0000000E+00;
  2.0999999E+00;  9.9999998E-03; -3.8000000E-01;775;  0.0000000E+00;  0.0000000E+00;  0.0000000E+00;  1.0000000E+03;  4.0000001E-01;  0.0000000E+00;0;  0.0000000E+00;  0.0000000E+00;  0.0000000E+00;0;  0.0000000E+00;  1.0000000E+04;  0.0000000E+00;  0.0000000E+00;  1.0000000E+04;  0.0000000E+00;  1.0000000E+04;  0.0000000E+00;  0.0000000E+00;  0.0000000E+00;  0.0000000E+00;
  2.0999999E+00;  9.9999998E-03; -3.6000001E-01;776;  0.0000000E+00;  0.0000000E+00;  0.0000000E+00;  1.0000000E+03;  4.0000001E-01;  0.0000000E+00;0;  0.0000000E+00;  0.0000000E+00;  0.0000000E+00;0;  0.0000000E+00;  1.0000000E+04;  0.0000000E+00;  0.0000000E+00;  1.0000000E+04;  0.0000000E+00;  1.0000000E+04;  0.0000000E+00;  0.0000000E+00;  0.0000000E+00;  0.0000000E+00;
  2.0999999E+00;  9.9999998E-03; -3.4000000E-01;777;  0.0000000E+00;  0.0000000E+00;  0.0000000E+00;  1.0000000E+03;  4.0000001E-01;  0.0000000E+00;0;  0.0000000E+00;  0.0000000E+00;  0.0000000E+00;0;  0.0000000E+00;  1.0000000E+04;  0.0000000E+00;  0.0000000E+00;  1.0000000E+04;  0.0000000E+00;  1.0000000E+04;  0.0000000E+00;  0.0000000E+00;  0.0000000E+00;  0.0000000E+00;
  2.0999999E+00;  9.9999998E-03; -3.1999999E-01;778;  0.0000000E+00;  0.0000000E+00;  0.0000000E+00;  1.0000000E+03;  4.0000001E-01;  0.0000000E+00;0;  0.0000000E+00;  0.0000000E+00;  0.0000000E+00;0;  0.0000000E+00;  1.0000000E+04;  0.0000000E+00;  0.0000000E+00;  1.0000000E+04;  0.0000000E+00;  1.0000000E+04;  0.0000000E+00;  0.0000000E+00;  0.0000000E+00;  0.0000000E+00;
  2.0999999E+00;  9.9999998E-03; -3.0000001E-01;779;  0.0000000E+00;  0.0000000E+00;  0.0000000E+00;  1.0000000E+03;  4.0000001E-01;  0.0000000E+00;0;  0.0000000E+00;  0.0000000E+00;  0.0000000E+00;0;  0.0000000E+00;  1.0000000E+04;  0.0000000E+00;  0.0000000E+00;  1.0000000E+04;  0.0000000E+00;  1.0000000E+04;  0.0000000E+00;  0.0000000E+00;  0.0000000E+00;  0.0000000E+00;
  2.0999999E+00;  9.9999998E-03; -2.8000000E-01;780;  0.0000000E+00;  0.0000000E+00;  0.0000000E+00;  1.0000000E+03;  4.0000001E-01;  0.0000000E+00;0;  0.0000000E+00;  0.0000000E+00;  0.0000000E+00;0;  0.0000000E+00;  1.0000000E+04;  0.0000000E+00;  0.0000000E+00;  1.0000000E+04;  0.0000000E+00;  1.0000000E+04;  0.0000000E+00;  0.0000000E+00;  0.0000000E+00;  0.0000000E+00;
  2.0999999E+00;  9.9999998E-03; -2.5999999E-01;781;  0.0000000E+00;  0.0000000E+00;  0.0000000E+00;  1.0000000E+03;  4.0000001E-01;  0.0000000E+00;0;  0.0000000E+00;  0.0000000E+00;  0.0000000E+00;0;  0.0000000E+00;  1.0000000E+04;  0.0000000E+00;  0.0000000E+00;  1.0000000E+04;  0.0000000E+00;  1.0000000E+04;  0.0000000E+00;  0.0000000E+00;  0.0000000E+00;  0.0000000E+00;
  2.0999999E+00;  9.9999998E-03; -2.3999999E-01;782;  0.0000000E+00;  0.0000000E+00;  0.0000000E+00;  1.0000000E+03;  4.0000001E-01;  0.0000000E+00;0;  0.0000000E+00;  0.0000000E+00;  0.0000000E+00;0;  0.0000000E+00;  1.0000000E+04;  0.0000000E+00;  0.0000000E+00;  1.0000000E+04;  0.0000000E+00;  1.0000000E+04;  0.0000000E+00;  0.0000000E+00;  0.0000000E+00;  0.0000000E+00;
  2.0999999E+00;  9.9999998E-03; -2.2000000E-01;783;  0.0000000E+00;  0.0000000E+00;  0.0000000E+00;  1.0000000E+03;  4.0000001E-01;  0.0000000E+00;0;  0.0000000E+00;  0.0000000E+00;  0.0000000E+00;0;  0.0000000E+00;  1.0000000E+04;  0.0000000E+00;  0.0000000E+00;  1.0000000E+04;  0.0000000E+00;  1.0000000E+04;  0.0000000E+00;  0.0000000E+00;  0.0000000E+00;  0.0000000E+00;
  2.0999999E+00;  9.9999998E-03; -2.0000000E-01;784;  0.0000000E+00;  0.0000000E+00;  0.0000000E+00;  1.0000000E+03;  4.0000001E-01;  0.0000000E+00;0;  0.0000000E+00;  0.0000000E+00;  0.0000000E+00;0;  0.0000000E+00;  1.0000000E+04;  0.0000000E+00;  0.0000000E+00;  1.0000000E+04;  0.0000000E+00;  1.0000000E+04;  0.0000000E+00;  0.0000000E+00;  0.0000000E+00;  0.0000000E+00;
  2.0999999E+00;  9.9999998E-03; -1.8000001E-01;785;  0.0000000E+00;  0.0000000E+00;  0.0000000E+00;  1.0000000E+03;  4.0000001E-01;  0.0000000E+00;0;  0.0000000E+00;  0.0000000E+00;  0.0000000E+00;0;  0.0000000E+00;  1.0000000E+04;  0.0000000E+00;  0.0000000E+00;  1.0000000E+04;  0.0000000E+00;  1.0000000E+04;  0.0000000E+00;  0.0000000E+00;  0.0000000E+00;  0.0000000E+00;
  2.0999999E+00;  9.9999998E-03; -1.6000000E-01;786;  0.0000000E+00;  0.0000000E+00;  0.0000000E+00;  1.0000000E+03;  4.0000001E-01;  0.0000000E+00;0;  0.0000000E+00;  0.0000000E+00;  0.0000000E+00;0;  0.0000000E+00;  1.0000000E+04;  0.0000000E+00;  0.0000000E+00;  1.0000000E+04;  0.0000000E+00;  1.0000000E+04;  0.0000000E+00;  0.0000000E+00;  0.0000000E+00;  0.0000000E+00;
  2.0999999E+00;  9.9999998E-03; -1.4000000E-01;787;  0.0000000E+00;  0.0000000E+00;  0.0000000E+00;  1.0000000E+03;  4.0000001E-01;  0.0000000E+00;0;  0.0000000E+00;  0.0000000E+00;  0.0000000E+00;0;  0.0000000E+00;  1.0000000E+04;  0.0000000E+00;  0.0000000E+00;  1.0000000E+04;  0.0000000E+00;  1.0000000E+04;  0.0000000E+00;  0.0000000E+00;  0.0000000E+00;  0.0000000E+00;
  2.0999999E+00;  9.9999998E-03; -1.2000000E-01;788;  0.0000000E+00;  0.0000000E+00;  0.0000000E+00;  1.0000000E+03;  4.0000001E-01;  0.0000000E+00;0;  0.0000000E+00;  0.0000000E+00;  0.0000000E+00;0;  0.0000000E+00;  1.0000000E+04;  0.0000000E+00;  0.0000000E+00;  1.0000000E+04;  0.0000000E+00;  1.0000000E+04;  0.0000000E+00;  0.0000000E+00;  0.0000000E+00;  0.0000000E+00;
  2.0999999E+00;  9.9999998E-03; -1.0000000E-01;789;  0.0000000E+00;  0.0000000E+00;  0.0000000E+00;  1.0000000E+03;  4.0000001E-01;  0.0000000E+00;0;  0.0000000E+00;  0.0000000E+00;  0.0000000E+00;0;  0.0000000E+00;  1.0000000E+04;  0.0000000E+00;  0.0000000E+00;  1.0000000E+04;  0.0000000E+00;  1.0000000E+04;  0.0000000E+00;  0.0000000E+00;  0.0000000E+00;  0.0000000E+00;
  2.0999999E+00;  9.9999998E-03; -7.9999998E-02;790;  0.0000000E+00;  0.0000000E+00;  0.0000000E+00;  1.0000000E+03;  4.0000001E-01;  0.0000000E+00;0;  0.0000000E+00;  0.0000000E+00;  0.0000000E+00;0;  0.0000000E+00;  1.0000000E+04;  0.0000000E+00;  0.0000000E+00;  1.0000000E+04;  0.0000000E+00;  1.0000000E+04;  0.0000000E+00;  0.0000000E+00;  0.0000000E+00;  0.0000000E+00;
  2.0999999E+00;  9.9999998E-03; -5.9999999E-02;791;  0.0000000E+00;  0.0000000E+00;  0.0000000E+00;  1.0000000E+03;  4.0000001E-01;  0.0000000E+00;0;  0.0000000E+00;  0.0000000E+00;  0.0000000E+00;0;  0.0000000E+00;  1.0000000E+04;  0.0000000E+00;  0.0000000E+00;  1.0000000E+04;  0.0000000E+00;  1.0000000E+04;  0.0000000E+00;  0.0000000E+00;  0.0000000E+00;  0.0000000E+00;
  2.0999999E+00;  9.9999998E-03; -3.9999999E-02;792;  0.0000000E+00;  0.0000000E+00;  0.0000000E+00;  1.0000000E+03;  4.0000001E-01;  0.0000000E+00;0;  0.0000000E+00;  0.0000000E+00;  0.0000000E+00;0;  0.0000000E+00;  1.0000000E+04;  0.0000000E+00;  0.0000000E+00;  1.0000000E+04;  0.0000000E+00;  1.0000000E+04;  0.0000000E+00;  0.0000000E+00;  0.0000000E+00;  0.0000000E+00;
  2.0999999E+00;  9.9999998E-03; -2.0000000E-02;793;  0.0000000E+00;  0.0000000E+00;  0.0000000E+00;  1.0000000E+03;  4.0000001E-01;  0.0000000E+00;0;  0.0000000E+00;  0.0000000E+00;  0.0000000E+00;0;  0.0000000E+00;  1.0000000E+04;  0.0000000E+00;  0.0000000E+00;  1.0000000E+04;  0.0000000E+00;  1.0000000E+04;  0.0000000E+00;  0.0000000E+00;  0.0000000E+00;  0.0000000E+00;
  2.0999999E+00;  9.9999998E-03;  0.0000000E+00;794;  0.0000000E+00;  0.0000000E+00;  0.0000000E+00;  1.0000000E+03;  4.0000001E-01;  0.0000000E+00;0;  0.0000000E+00;  0.0000000E+00;  0.0000000E+00;0;  0.0000000E+00;  1.0000000E+04;  0.0000000E+00;  0.0000000E+00;  1.0000000E+04;  0.0000000E+00;  1.0000000E+04;  0.0000000E+00;  0.0000000E+00;  0.0000000E+00;  0.0000000E+00;
  2.0999999E+00;  9.9999998E-03;  2.0000000E-02;795;  0.0000000E+00;  0.0000000E+00;  0.0000000E+00;  1.0000000E+03;  4.0000001E-01;  0.0000000E+00;0;  0.0000000E+00;  0.0000000E+00;  0.0000000E+00;0;  0.0000000E+00;  1.0000000E+04;  0.0000000E+00;  0.0000000E+00;  1.0000000E+04;  0.0000000E+00;  1.0000000E+04;  0.0000000E+00;  0.0000000E+00;  0.0000000E+00;  0.0000000E+00;
  2.0999999E+00;  9.9999998E-03;  3.9999999E-02;796;  0.0000000E+00;  0.0000000E+00;  0.0000000E+00;  1.0000000E+03;  4.0000001E-01;  0.0000000E+00;0;  0.0000000E+00;  0.0000000E+00;  0.0000000E+00;0;  0.0000000E+00;  1.0000000E+04;  0.0000000E+00;  0.0000000E+00;  1.0000000E+04;  0.0000000E+00;  1.0000000E+04;  0.0000000E+00;  0.0000000E+00;  0.0000000E+00;  0.0000000E+00;
  2.0999999E+00;  9.9999998E-03;  5.9999999E-02;797;  0.0000000E+00;  0.0000000E+00;  0.0000000E+00;  1.0000000E+03;  4.0000001E-01;  0.0000000E+00;0;  0.0000000E+00;  0.0000000E+00;  0.0000000E+00;0;  0.0000000E+00;  1.0000000E+04;  0.0000000E+00;  0.0000000E+00;  1.0000000E+04;  0.0000000E+00;  1.0000000E+04;  0.0000000E+00;  0.0000000E+00;  0.0000000E+00;  0.0000000E+00;
  2.0999999E+00;  9.9999998E-03;  7.9999998E-02;798;  0.0000000E+00;  0.0000000E+00;  0.0000000E+00;  1.0000000E+03;  4.0000001E-01;  0.0000000E+00;0;  0.0000000E+00;  0.0000000E+00;  0.0000000E+00;0;  0.0000000E+00;  1.0000000E+04;  0.0000000E+00;  0.0000000E+00;  1.0000000E+04;  0.0000000E+00;  1.0000000E+04;  0.0000000E+00;  0.0000000E+00;  0.0000000E+00;  0.0000000E+00;
  2.0999999E+00;  9.9999998E-03;  1.0000000E-01;799;  0.0000000E+00;  0.0000000E+00;  0.0000000E+00;  1.0000000E+03;  4.0000001E-01;  0.0000000E+00;0;  0.0000000E+00;  0.0000000E+00;  0.0000000E+00;0;  0.0000000E+00;  1.0000000E+04;  0.0000000E+00;  0.0000000E+00;  1.0000000E+04;  0.0000000E+00;  1.0000000E+04;  0.0000000E+00;  0.0000000E+00;  0.0000000E+00;  0.0000000E+00;
  2.0999999E+00;  9.9999998E-03;  1.2000000E-01;800;  0.0000000E+00;  0.0000000E+00;  0.0000000E+00;  1.0000000E+03;  4.0000001E-01;  0.0000000E+00;0;  0.0000000E+00;  0.0000000E+00;  0.0000000E+00;0;  0.0000000E+00;  1.0000000E+04;  0.0000000E+00;  0.0000000E+00;  1.0000000E+04;  0.0000000E+00;  1.0000000E+04;  0.0000000E+00;  0.0000000E+00;  0.0000000E+00;  0.0000000E+00;
  2.0999999E+00;  9.9999998E-03;  1.4000000E-01;801;  0.0000000E+00;  0.0000000E+00;  0.0000000E+00;  1.0000000E+03;  4.0000001E-01;  0.0000000E+00;0;  0.0000000E+00;  0.0000000E+00;  0.0000000E+00;0;  0.0000000E+00;  1.0000000E+04;  0.0000000E+00;  0.0000000E+00;  1.0000000E+04;  0.0000000E+00;  1.0000000E+04;  0.0000000E+00;  0.0000000E+00;  0.0000000E+00;  0.0000000E+00;
  2.0999999E+00;  9.9999998E-03;  1.6000000E-01;802;  0.0000000E+00;  0.0000000E+00;  0.0000000E+00;  1.0000000E+03;  4.0000001E-01;  0.0000000E+00;0;  0.0000000E+00;  0.0000000E+00;  0.0000000E+00;0;  0.0000000E+00;  1.0000000E+04;  0.0000000E+00;  0.0000000E+00;  1.0000000E+04;  0.0000000E+00;  1.0000000E+04;  0.0000000E+00;  0.0000000E+00;  0.0000000E+00;  0.0000000E+00;
  2.0999999E+00;  9.9999998E-03;  1.8000001E-01;803;  0.0000000E+00;  0.0000000E+00;  0.0000000E+00;  1.0000000E+03;  4.0000001E-01;  0.0000000E+00;0;  0.0000000E+00;  0.0000000E+00;  0.0000000E+00;0;  0.0000000E+00;  1.0000000E+04;  0.0000000E+00;  0.0000000E+00;  1.0000000E+04;  0.0000000E+00;  1.0000000E+04;  0.0000000E+00;  0.0000000E+00;  0.0000000E+00;  0.0000000E+00;
  2.0999999E+00;  9.9999998E-03;  2.0000000E-01;804;  0.0000000E+00;  0.0000000E+00;  0.0000000E+00;  1.0000000E+03;  4.0000001E-01;  0.0000000E+00;0;  0.0000000E+00;  0.0000000E+00;  0.0000000E+00;0;  0.0000000E+00;  1.0000000E+04;  0.0000000E+00;  0.0000000E+00;  1.0000000E+04;  0.0000000E+00;  1.0000000E+04;  0.0000000E+00;  0.0000000E+00;  0.0000000E+00;  0.0000000E+00;
  2.0999999E+00;  9.9999998E-03;  2.2000000E-01;805;  0.0000000E+00;  0.0000000E+00;  0.0000000E+00;  1.0000000E+03;  4.0000001E-01;  0.0000000E+00;0;  0.0000000E+00;  0.0000000E+00;  0.0000000E+00;0;  0.0000000E+00;  1.0000000E+04;  0.0000000E+00;  0.0000000E+00;  1.0000000E+04;  0.0000000E+00;  1.0000000E+04;  0.0000000E+00;  0.0000000E+00;  0.0000000E+00;  0.0000000E+00;
  2.0999999E+00;  9.9999998E-03;  2.3999999E-01;806;  0.0000000E+00;  0.0000000E+00;  0.0000000E+00;  1.0000000E+03;  4.0000001E-01;  0.0000000E+00;0;  0.0000000E+00;  0.0000000E+00;  0.0000000E+00;0;  0.0000000E+00;  1.0000000E+04;  0.0000000E+00;  0.0000000E+00;  1.0000000E+04;  0.0000000E+00;  1.0000000E+04;  0.0000000E+00;  0.0000000E+00;  0.0000000E+00;  0.0000000E+00;
  2.0999999E+00;  9.9999998E-03;  2.5999999E-01;807;  0.0000000E+00;  0.0000000E+00;  0.0000000E+00;  1.0000000E+03;  4.0000001E-01;  0.0000000E+00;0;  0.0000000E+00;  0.0000000E+00;  0.0000000E+00;0;  0.0000000E+00;  1.0000000E+04;  0.0000000E+00;  0.0000000E+00;  1.0000000E+04;  0.0000000E+00;  1.0000000E+04;  0.0000000E+00;  0.0000000E+00;  0.0000000E+00;  0.0000000E+00;
  2.0999999E+00;  9.9999998E-03;  2.8000000E-01;808;  0.0000000E+00;  0.0000000E+00;  0.0000000E+00;  1.0000000E+03;  4.0000001E-01;  0.0000000E+00;0;  0.0000000E+00;  0.0000000E+00;  0.0000000E+00;0;  0.0000000E+00;  1.0000000E+04;  0.0000000E+00;  0.0000000E+00;  1.0000000E+04;  0.0000000E+00;  1.0000000E+04;  0.0000000E+00;  0.0000000E+00;  0.0000000E+00;  0.0000000E+00;
  2.0999999E+00;  9.9999998E-03;  3.0000001E-01;809;  0.0000000E+00;  0.0000000E+00;  0.0000000E+00;  1.0000000E+03;  4.0000001E-01;  0.0000000E+00;0;  0.0000000E+00;  0.0000000E+00;  0.0000000E+00;0;  0.0000000E+00;  1.0000000E+04;  0.0000000E+00;  0.0000000E+00;  1.0000000E+04;  0.0000000E+00;  1.0000000E+04;  0.0000000E+00;  0.0000000E+00;  0.0000000E+00;  0.0000000E+00;
  2.0999999E+00;  9.9999998E-03;  3.1999999E-01;810;  0.0000000E+00;  0.0000000E+00;  0.0000000E+00;  1.0000000E+03;  4.0000001E-01;  0.0000000E+00;0;  0.0000000E+00;  0.0000000E+00;  0.0000000E+00;0;  0.0000000E+00;  1.0000000E+04;  0.0000000E+00;  0.0000000E+00;  1.0000000E+04;  0.0000000E+00;  1.0000000E+04;  0.0000000E+00;  0.0000000E+00;  0.0000000E+00;  0.0000000E+00;
  2.0999999E+00;  9.9999998E-03;  3.4000000E-01;811;  0.0000000E+00;  0.0000000E+00;  0.0000000E+00;  1.0000000E+03;  4.0000001E-01;  0.0000000E+00;0;  0.0000000E+00;  0.0000000E+00;  0.0000000E+00;0;  0.0000000E+00;  1.0000000E+04;  0.0000000E+00;  0.0000000E+00;  1.0000000E+04;  0.0000000E+00;  1.0000000E+04;  0.0000000E+00;  0.0000000E+00;  0.0000000E+00;  0.0000000E+00;
  2.0999999E+00;  9.9999998E-03;  3.6000001E-01;812;  0.0000000E+00;  0.0000000E+00;  0.0000000E+00;  1.0000000E+03;  4.0000001E-01;  0.0000000E+00;0;  0.0000000E+00;  0.0000000E+00;  0.0000000E+00;0;  0.0000000E+00;  1.0000000E+04;  0.0000000E+00;  0.0000000E+00;  1.0000000E+04;  0.0000000E+00;  1.0000000E+04;  0.0000000E+00;  0.0000000E+00;  0.0000000E+00;  0.0000000E+00;
  2.0999999E+00;  9.9999998E-03;  3.8000000E-01;813;  0.0000000E+00;  0.0000000E+00;  0.0000000E+00;  1.0000000E+03;  4.0000001E-01;  0.0000000E+00;0;  0.0000000E+00;  0.0000000E+00;  0.0000000E+00;0;  0.0000000E+00;  1.0000000E+04;  0.0000000E+00;  0.0000000E+00;  1.0000000E+04;  0.0000000E+00;  1.0000000E+04;  0.0000000E+00;  0.0000000E+00;  0.0000000E+00;  0.0000000E+00;
  2.0999999E+00;  9.9999998E-03;  4.0000001E-01;814;  0.0000000E+00;  0.0000000E+00;  0.0000000E+00;  1.0000000E+03;  4.0000001E-01;  0.0000000E+00;0;  0.0000000E+00;  0.0000000E+00;  0.0000000E+00;0;  0.0000000E+00;  1.0000000E+04;  0.0000000E+00;  0.0000000E+00;  1.0000000E+04;  0.0000000E+00;  1.0000000E+04;  0.0000000E+00;  0.0000000E+00;  0.0000000E+00;  0.0000000E+00;
  2.1199999E+00;  9.9999998E-03; -4.1999999E-01;815;  0.0000000E+00;  0.0000000E+00;  0.0000000E+00;  1.0000000E+03;  4.0000001E-01;  0.0000000E+00;0;  0.0000000E+00;  0.0000000E+00;  0.0000000E+00;0;  0.0000000E+00;  1.0000000E+04;  0.0000000E+00;  0.0000000E+00;  1.0000000E+04;  0.0000000E+00;  1.0000000E+04;  0.0000000E+00;  0.0000000E+00;  0.0000000E+00;  0.0000000E+00;
  2.1199999E+00;  9.9999998E-03; -4.0000001E-01;816;  0.0000000E+00;  0.0000000E+00;  0.0000000E+00;  1.0000000E+03;  4.0000001E-01;  0.0000000E+00;0;  0.0000000E+00;  0.0000000E+00;  0.0000000E+00;0;  0.0000000E+00;  1.0000000E+04;  0.0000000E+00;  0.0000000E+00;  1.0000000E+04;  0.0000000E+00;  1.0000000E+04;  0.0000000E+00;  0.0000000E+00;  0.0000000E+00;  0.0000000E+00;
  2.1199999E+00;  9.9999998E-03; -3.8000000E-01;817;  0.0000000E+00;  0.0000000E+00;  0.0000000E+00;  1.0000000E+03;  4.0000001E-01;  0.0000000E+00;0;  0.0000000E+00;  0.0000000E+00;  0.0000000E+00;0;  0.0000000E+00;  1.0000000E+04;  0.0000000E+00;  0.0000000E+00;  1.0000000E+04;  0.0000000E+00;  1.0000000E+04;  0.0000000E+00;  0.0000000E+00;  0.0000000E+00;  0.0000000E+00;
  2.1199999E+00;  9.9999998E-03; -3.6000001E-01;818;  0.0000000E+00;  0.0000000E+00;  0.0000000E+00;  1.0000000E+03;  4.0000001E-01;  0.0000000E+00;0;  0.0000000E+00;  0.0000000E+00;  0.0000000E+00;0;  0.0000000E+00;  1.0000000E+04;  0.0000000E+00;  0.0000000E+00;  1.0000000E+04;  0.0000000E+00;  1.0000000E+04;  0.0000000E+00;  0.0000000E+00;  0.0000000E+00;  0.0000000E+00;
  2.1199999E+00;  9.9999998E-03; -3.4000000E-01;819;  0.0000000E+00;  0.0000000E+00;  0.0000000E+00;  1.0000000E+03;  4.0000001E-01;  0.0000000E+00;0;  0.0000000E+00;  0.0000000E+00;  0.0000000E+00;0;  0.0000000E+00;  1.0000000E+04;  0.0000000E+00;  0.0000000E+00;  1.0000000E+04;  0.0000000E+00;  1.0000000E+04;  0.0000000E+00;  0.0000000E+00;  0.0000000E+00;  0.0000000E+00;
  2.1199999E+00;  9.9999998E-03; -3.1999999E-01;820;  0.0000000E+00;  0.0000000E+00;  0.0000000E+00;  1.0000000E+03;  4.0000001E-01;  0.0000000E+00;0;  0.0000000E+00;  0.0000000E+00;  0.0000000E+00;0;  0.0000000E+00;  1.0000000E+04;  0.0000000E+00;  0.0000000E+00;  1.0000000E+04;  0.0000000E+00;  1.0000000E+04;  0.0000000E+00;  0.0000000E+00;  0.0000000E+00;  0.0000000E+00;
  2.1199999E+00;  9.9999998E-03; -3.0000001E-01;821;  0.0000000E+00;  0.0000000E+00;  0.0000000E+00;  1.0000000E+03;  4.0000001E-01;  0.0000000E+00;0;  0.0000000E+00;  0.0000000E+00;  0.0000000E+00;0;  0.0000000E+00;  1.0000000E+04;  0.0000000E+00;  0.0000000E+00;  1.0000000E+04;  0.0000000E+00;  1.0000000E+04;  0.0000000E+00;  0.0000000E+00;  0.0000000E+00;  0.0000000E+00;
  2.1199999E+00;  9.9999998E-03; -2.8000000E-01;822;  0.0000000E+00;  0.0000000E+00;  0.0000000E+00;  1.0000000E+03;  4.0000001E-01;  0.0000000E+00;0;  0.0000000E+00;  0.0000000E+00;  0.0000000E+00;0;  0.0000000E+00;  1.0000000E+04;  0.0000000E+00;  0.0000000E+00;  1.0000000E+04;  0.0000000E+00;  1.0000000E+04;  0.0000000E+00;  0.0000000E+00;  0.0000000E+00;  0.0000000E+00;
  2.1199999E+00;  9.9999998E-03; -2.5999999E-01;823;  0.0000000E+00;  0.0000000E+00;  0.0000000E+00;  1.0000000E+03;  4.0000001E-01;  0.0000000E+00;0;  0.0000000E+00;  0.0000000E+00;  0.0000000E+00;0;  0.0000000E+00;  1.0000000E+04;  0.0000000E+00;  0.0000000E+00;  1.0000000E+04;  0.0000000E+00;  1.0000000E+04;  0.0000000E+00;  0.0000000E+00;  0.0000000E+00;  0.0000000E+00;
  2.1199999E+00;  9.9999998E-03; -2.3999999E-01;824;  0.0000000E+00;  0.0000000E+00;  0.0000000E+00;  1.0000000E+03;  4.0000001E-01;  0.0000000E+00;0;  0.0000000E+00;  0.0000000E+00;  0.0000000E+00;0;  0.0000000E+00;  1.0000000E+04;  0.0000000E+00;  0.0000000E+00;  1.0000000E+04;  0.0000000E+00;  1.0000000E+04;  0.0000000E+00;  0.0000000E+00;  0.0000000E+00;  0.0000000E+00;
  2.1199999E+00;  9.9999998E-03; -2.2000000E-01;825;  0.0000000E+00;  0.0000000E+00;  0.0000000E+00;  1.0000000E+03;  4.0000001E-01;  0.0000000E+00;0;  0.0000000E+00;  0.0000000E+00;  0.0000000E+00;0;  0.0000000E+00;  1.0000000E+04;  0.0000000E+00;  0.0000000E+00;  1.0000000E+04;  0.0000000E+00;  1.0000000E+04;  0.0000000E+00;  0.0000000E+00;  0.0000000E+00;  0.0000000E+00;
  2.1199999E+00;  9.9999998E-03; -2.0000000E-01;826;  0.0000000E+00;  0.0000000E+00;  0.0000000E+00;  1.0000000E+03;  4.0000001E-01;  0.0000000E+00;0;  0.0000000E+00;  0.0000000E+00;  0.0000000E+00;0;  0.0000000E+00;  1.0000000E+04;  0.0000000E+00;  0.0000000E+00;  1.0000000E+04;  0.0000000E+00;  1.0000000E+04;  0.0000000E+00;  0.0000000E+00;  0.0000000E+00;  0.0000000E+00;
  2.1199999E+00;  9.9999998E-03; -1.8000001E-01;827;  0.0000000E+00;  0.0000000E+00;  0.0000000E+00;  1.0000000E+03;  4.0000001E-01;  0.0000000E+00;0;  0.0000000E+00;  0.0000000E+00;  0.0000000E+00;0;  0.0000000E+00;  1.0000000E+04;  0.0000000E+00;  0.0000000E+00;  1.0000000E+04;  0.0000000E+00;  1.0000000E+04;  0.0000000E+00;  0.0000000E+00;  0.0000000E+00;  0.0000000E+00;
  2.1199999E+00;  9.9999998E-03; -1.6000000E-01;828;  0.0000000E+00;  0.0000000E+00;  0.0000000E+00;  1.0000000E+03;  4.0000001E-01;  0.0000000E+00;0;  0.0000000E+00;  0.0000000E+00;  0.0000000E+00;0;  0.0000000E+00;  1.0000000E+04;  0.0000000E+00;  0.0000000E+00;  1.0000000E+04;  0.0000000E+00;  1.0000000E+04;  0.0000000E+00;  0.0000000E+00;  0.0000000E+00;  0.0000000E+00;
  2.1199999E+00;  9.9999998E-03; -1.4000000E-01;829;  0.0000000E+00;  0.0000000E+00;  0.0000000E+00;  1.0000000E+03;  4.0000001E-01;  0.0000000E+00;0;  0.0000000E+00;  0.0000000E+00;  0.0000000E+00;0;  0.0000000E+00;  1.0000000E+04;  0.0000000E+00;  0.0000000E+00;  1.0000000E+04;  0.0000000E+00;  1.0000000E+04;  0.0000000E+00;  0.0000000E+00;  0.0000000E+00;  0.0000000E+00;
  2.1199999E+00;  9.9999998E-03; -1.2000000E-01;830;  0.0000000E+00;  0.0000000E+00;  0.0000000E+00;  1.0000000E+03;  4.0000001E-01;  0.0000000E+00;0;  0.0000000E+00;  0.0000000E+00;  0.0000000E+00;0;  0.0000000E+00;  1.0000000E+04;  0.0000000E+00;  0.0000000E+00;  1.0000000E+04;  0.0000000E+00;  1.0000000E+04;  0.0000000E+00;  0.0000000E+00;  0.0000000E+00;  0.0000000E+00;
  2.1199999E+00;  9.9999998E-03; -1.0000000E-01;831;  0.0000000E+00;  0.0000000E+00;  0.0000000E+00;  1.0000000E+03;  4.0000001E-01;  0.0000000E+00;0;  0.0000000E+00;  0.0000000E+00;  0.0000000E+00;0;  0.0000000E+00;  1.0000000E+04;  0.0000000E+00;  0.0000000E+00;  1.0000000E+04;  0.0000000E+00;  1.0000000E+04;  0.0000000E+00;  0.0000000E+00;  0.0000000E+00;  0.0000000E+00;
  2.1199999E+00;  9.9999998E-03; -7.9999998E-02;832;  0.0000000E+00;  0.0000000E+00;  0.0000000E+00;  1.0000000E+03;  4.0000001E-01;  0.0000000E+00;0;  0.0000000E+00;  0.0000000E+00;  0.0000000E+00;0;  0.0000000E+00;  1.0000000E+04;  0.0000000E+00;  0.0000000E+00;  1.0000000E+04;  0.0000000E+00;  1.0000000E+04;  0.0000000E+00;  0.0000000E+00;  0.0000000E+00;  0.0000000E+00;
  2.1199999E+00;  9.9999998E-03; -5.9999999E-02;833;  0.0000000E+00;  0.0000000E+00;  0.0000000E+00;  1.0000000E+03;  4.0000001E-01;  0.0000000E+00;0;  0.0000000E+00;  0.0000000E+00;  0.0000000E+00;0;  0.0000000E+00;  1.0000000E+04;  0.0000000E+00;  0.0000000E+00;  1.0000000E+04;  0.0000000E+00;  1.0000000E+04;  0.0000000E+00;  0.0000000E+00;  0.0000000E+00;  0.0000000E+00;
  2.1199999E+00;  9.9999998E-03; -3.9999999E-02;834;  0.0000000E+00;  0.0000000E+00;  0.0000000E+00;  1.0000000E+03;  4.0000001E-01;  0.0000000E+00;0;  0.0000000E+00;  0.0000000E+00;  0.0000000E+00;0;  0.0000000E+00;  1.0000000E+04;  0.0000000E+00;  0.0000000E+00;  1.0000000E+04;  0.0000000E+00;  1.0000000E+04;  0.0000000E+00;  0.0000000E+00;  0.0000000E+00;  0.0000000E+00;
  2.1199999E+00;  9.9999998E-03; -2.0000000E-02;835;  0.0000000E+00;  0.0000000E+00;  0.0000000E+00;  1.0000000E+03;  4.0000001E-01;  0.0000000E+00;0;  0.0000000E+00;  0.0000000E+00;  0.0000000E+00;0;  0.0000000E+00;  1.0000000E+04;  0.0000000E+00;  0.0000000E+00;  1.0000000E+04;  0.0000000E+00;  1.0000000E+04;  0.0000000E+00;  0.0000000E+00;  0.0000000E+00;  0.0000000E+00;
  2.1199999E+00;  9.9999998E-03;  0.0000000E+00;836;  0.0000000E+00;  0.0000000E+00;  0.0000000E+00;  1.0000000E+03;  4.0000001E-01;  0.0000000E+00;0;  0.0000000E+00;  0.0000000E+00;  0.0000000E+00;0;  0.0000000E+00;  1.0000000E+04;  0.0000000E+00;  0.0000000E+00;  1.0000000E+04;  0.0000000E+00;  1.0000000E+04;  0.0000000E+00;  0.0000000E+00;  0.0000000E+00;  0.0000000E+00;
  2.1199999E+00;  9.9999998E-03;  2.0000000E-02;837;  0.0000000E+00;  0.0000000E+00;  0.0000000E+00;  1.0000000E+03;  4.0000001E-01;  0.0000000E+00;0;  0.0000000E+00;  0.0000000E+00;  0.0000000E+00;0;  0.0000000E+00;  1.0000000E+04;  0.0000000E+00;  0.0000000E+00;  1.0000000E+04;  0.0000000E+00;  1.0000000E+04;  0.0000000E+00;  0.0000000E+00;  0.0000000E+00;  0.0000000E+00;
  2.1199999E+00;  9.9999998E-03;  3.9999999E-02;838;  0.0000000E+00;  0.0000000E+00;  0.0000000E+00;  1.0000000E+03;  4.0000001E-01;  0.0000000E+00;0;  0.0000000E+00;  0.0000000E+00;  0.0000000E+00;0;  0.0000000E+00;  1.0000000E+04;  0.0000000E+00;  0.0000000E+00;  1.0000000E+04;  0.0000000E+00;  1.0000000E+04;  0.0000000E+00;  0.0000000E+00;  0.0000000E+00;  0.0000000E+00;
  2.1199999E+00;  9.9999998E-03;  5.9999999E-02;839;  0.0000000E+00;  0.0000000E+00;  0.0000000E+00;  1.0000000E+03;  4.0000001E-01;  0.0000000E+00;0;  0.0000000E+00;  0.0000000E+00;  0.0000000E+00;0;  0.0000000E+00;  1.0000000E+04;  0.0000000E+00;  0.0000000E+00;  1.0000000E+04;  0.0000000E+00;  1.0000000E+04;  0.0000000E+00;  0.0000000E+00;  0.0000000E+00;  0.0000000E+00;
  2.1199999E+00;  9.9999998E-03;  7.9999998E-02;840;  0.0000000E+00;  0.0000000E+00;  0.0000000E+00;  1.0000000E+03;  4.0000001E-01;  0.0000000E+00;0;  0.0000000E+00;  0.0000000E+00;  0.0000000E+00;0;  0.0000000E+00;  1.0000000E+04;  0.0000000E+00;  0.0000000E+00;  1.0000000E+04;  0.0000000E+00;  1.0000000E+04;  0.0000000E+00;  0.0000000E+00;  0.0000000E+00;  0.0000000E+00;
  2.1199999E+00;  9.9999998E-03;  1.0000000E-01;841;  0.0000000E+00;  0.0000000E+00;  0.0000000E+00;  1.0000000E+03;  4.0000001E-01;  0.0000000E+00;0;  0.0000000E+00;  0.0000000E+00;  0.0000000E+00;0;  0.0000000E+00;  1.0000000E+04;  0.0000000E+00;  0.0000000E+00;  1.0000000E+04;  0.0000000E+00;  1.0000000E+04;  0.0000000E+00;  0.0000000E+00;  0.0000000E+00;  0.0000000E+00;
  2.1199999E+00;  9.9999998E-03;  1.2000000E-01;842;  0.0000000E+00;  0.0000000E+00;  0.0000000E+00;  1.0000000E+03;  4.0000001E-01;  0.0000000E+00;0;  0.0000000E+00;  0.0000000E+00;  0.0000000E+00;0;  0.0000000E+00;  1.0000000E+04;  0.0000000E+00;  0.0000000E+00;  1.0000000E+04;  0.0000000E+00;  1.0000000E+04;  0.0000000E+00;  0.0000000E+00;  0.0000000E+00;  0.0000000E+00;
  2.1199999E+00;  9.9999998E-03;  1.4000000E-01;843;  0.0000000E+00;  0.0000000E+00;  0.0000000E+00;  1.0000000E+03;  4.0000001E-01;  0.0000000E+00;0;  0.0000000E+00;  0.0000000E+00;  0.0000000E+00;0;  0.0000000E+00;  1.0000000E+04;  0.0000000E+00;  0.0000000E+00;  1.0000000E+04;  0.0000000E+00;  1.0000000E+04;  0.0000000E+00;  0.0000000E+00;  0.0000000E+00;  0.0000000E+00;
  2.1199999E+00;  9.9999998E-03;  1.6000000E-01;844;  0.0000000E+00;  0.0000000E+00;  0.0000000E+00;  1.0000000E+03;  4.0000001E-01;  0.0000000E+00;0;  0.0000000E+00;  0.0000000E+00;  0.0000000E+00;0;  0.0000000E+00;  1.0000000E+04;  0.0000000E+00;  0.0000000E+00;  1.0000000E+04;  0.0000000E+00;  1.0000000E+04;  0.0000000E+00;  0.0000000E+00;  0.0000000E+00;  0.0000000E+00;
  2.1199999E+00;  9.9999998E-03;  1.8000001E-01;845;  0.0000000E+00;  0.0000000E+00;  0.0000000E+00;  1.0000000E+03;  4.0000001E-01;  0.0000000E+00;0;  0.0000000E+00;  0.0000000E+00;  0.0000000E+00;0;  0.0000000E+00;  1.0000000E+04;  0.0000000E+00;  0.0000000E+00;  1.0000000E+04;  0.0000000E+00;  1.0000000E+04;  0.0000000E+00;  0.0000000E+00;  0.0000000E+00;  0.0000000E+00;
  2.1199999E+00;  9.9999998E-03;  2.0000000E-01;846;  0.0000000E+00;  0.0000000E+00;  0.0000000E+00;  1.0000000E+03;  4.0000001E-01;  0.0000000E+00;0;  0.0000000E+00;  0.0000000E+00;  0.0000000E+00;0;  0.0000000E+00;  1.0000000E+04;  0.0000000E+00;  0.0000000E+00;  1.0000000E+04;  0.0000000E+00;  1.0000000E+04;  0.0000000E+00;  0.0000000E+00;  0.0000000E+00;  0.0000000E+00;
  2.1199999E+00;  9.9999998E-03;  2.2000000E-01;847;  0.0000000E+00;  0.0000000E+00;  0.0000000E+00;  1.0000000E+03;  4.0000001E-01;  0.0000000E+00;0;  0.0000000E+00;  0.0000000E+00;  0.0000000E+00;0;  0.0000000E+00;  1.0000000E+04;  0.0000000E+00;  0.0000000E+00;  1.0000000E+04;  0.0000000E+00;  1.0000000E+04;  0.0000000E+00;  0.0000000E+00;  0.0000000E+00;  0.0000000E+00;
  2.1199999E+00;  9.9999998E-03;  2.3999999E-01;848;  0.0000000E+00;  0.0000000E+00;  0.0000000E+00;  1.0000000E+03;  4.0000001E-01;  0.0000000E+00;0;  0.0000000E+00;  0.0000000E+00;  0.0000000E+00;0;  0.0000000E+00;  1.0000000E+04;  0.0000000E+00;  0.0000000E+00;  1.0000000E+04;  0.0000000E+00;  1.0000000E+04;  0.0000000E+00;  0.0000000E+00;  0.0000000E+00;  0.0000000E+00;
  2.1199999E+00;  9.9999998E-03;  2.5999999E-01;849;  0.0000000E+00;  0.0000000E+00;  0.0000000E+00;  1.0000000E+03;  4.0000001E-01;  0.0000000E+00;0;  0.0000000E+00;  0.0000000E+00;  0.0000000E+00;0;  0.0000000E+00;  1.0000000E+04;  0.0000000E+00;  0.0000000E+00;  1.0000000E+04;  0.0000000E+00;  1.0000000E+04;  0.0000000E+00;  0.0000000E+00;  0.0000000E+00;  0.0000000E+00;
  2.1199999E+00;  9.9999998E-03;  2.8000000E-01;850;  0.0000000E+00;  0.0000000E+00;  0.0000000E+00;  1.0000000E+03;  4.0000001E-01;  0.0000000E+00;0;  0.0000000E+00;  0.0000000E+00;  0.0000000E+00;0;  0.0000000E+00;  1.0000000E+04;  0.0000000E+00;  0.0000000E+00;  1.0000000E+04;  0.0000000E+00;  1.0000000E+04;  0.0000000E+00;  0.0000000E+00;  0.0000000E+00;  0.0000000E+00;
  2.1199999E+00;  9.9999998E-03;  3.0000001E-01;851;  0.0000000E+00;  0.0000000E+00;  0.0000000E+00;  1.0000000E+03;  4.0000001E-01;  0.0000000E+00;0;  0.0000000E+00;  0.0000000E+00;  0.0000000E+00;0;  0.0000000E+00;  1.0000000E+04;  0.0000000E+00;  0.0000000E+00;  1.0000000E+04;  0.0000000E+00;  1.0000000E+04;  0.0000000E+00;  0.0000000E+00;  0.0000000E+00;  0.0000000E+00;
  2.1199999E+00;  9.9999998E-03;  3.1999999E-01;852;  0.0000000E+00;  0.0000000E+00;  0.0000000E+00;  1.0000000E+03;  4.0000001E-01;  0.0000000E+00;0;  0.0000000E+00;  0.0000000E+00;  0.0000000E+00;0;  0.0000000E+00;  1.0000000E+04;  0.0000000E+00;  0.0000000E+00;  1.0000000E+04;  0.0000000E+00;  1.0000000E+04;  0.0000000E+00;  0.0000000E+00;  0.0000000E+00;  0.0000000E+00;
  2.1199999E+00;  9.9999998E-03;  3.4000000E-01;853;  0.0000000E+00;  0.0000000E+00;  0.0000000E+00;  1.0000000E+03;  4.0000001E-01;  0.0000000E+00;0;  0.0000000E+00;  0.0000000E+00;  0.0000000E+00;0;  0.0000000E+00;  1.0000000E+04;  0.0000000E+00;  0.0000000E+00;  1.0000000E+04;  0.0000000E+00;  1.0000000E+04;  0.0000000E+00;  0.0000000E+00;  0.0000000E+00;  0.0000000E+00;
  2.1199999E+00;  9.9999998E-03;  3.6000001E-01;854;  0.0000000E+00;  0.0000000E+00;  0.0000000E+00;  1.0000000E+03;  4.0000001E-01;  0.0000000E+00;0;  0.0000000E+00;  0.0000000E+00;  0.0000000E+00;0;  0.0000000E+00;  1.0000000E+04;  0.0000000E+00;  0.0000000E+00;  1.0000000E+04;  0.0000000E+00;  1.0000000E+04;  0.0000000E+00;  0.0000000E+00;  0.0000000E+00;  0.0000000E+00;
  2.1199999E+00;  9.9999998E-03;  3.8000000E-01;855;  0.0000000E+00;  0.0000000E+00;  0.0000000E+00;  1.0000000E+03;  4.0000001E-01;  0.0000000E+00;0;  0.0000000E+00;  0.0000000E+00;  0.0000000E+00;0;  0.0000000E+00;  1.0000000E+04;  0.0000000E+00;  0.0000000E+00;  1.0000000E+04;  0.0000000E+00;  1.0000000E+04;  0.0000000E+00;  0.0000000E+00;  0.0000000E+00;  0.0000000E+00;
  2.1199999E+00;  9.9999998E-03;  4.0000001E-01;856;  0.0000000E+00;  0.0000000E+00;  0.0000000E+00;  1.0000000E+03;  4.0000001E-01;  0.0000000E+00;0;  0.0000000E+00;  0.0000000E+00;  0.0000000E+00;0;  0.0000000E+00;  1.0000000E+04;  0.0000000E+00;  0.0000000E+00;  1.0000000E+04;  0.0000000E+00;  1.0000000E+04;  0.0000000E+00;  0.0000000E+00;  0.0000000E+00;  0.0000000E+00;
  2.1400001E+00;  9.9999998E-03; -3.8000000E-01;857;  0.0000000E+00;  0.0000000E+00;  0.0000000E+00;  1.0000000E+03;  4.0000001E-01;  0.0000000E+00;0;  0.0000000E+00;  0.0000000E+00;  0.0000000E+00;0;  0.0000000E+00;  1.0000000E+04;  0.0000000E+00;  0.0000000E+00;  1.0000000E+04;  0.0000000E+00;  1.0000000E+04;  0.0000000E+00;  0.0000000E+00;  0.0000000E+00;  0.0000000E+00;
  2.1400001E+00;  9.9999998E-03; -3.6000001E-01;858;  0.0000000E+00;  0.0000000E+00;  0.0000000E+00;  1.0000000E+03;  4.0000001E-01;  0.0000000E+00;0;  0.0000000E+00;  0.0000000E+00;  0.0000000E+00;0;  0.0000000E+00;  1.0000000E+04;  0.0000000E+00;  0.0000000E+00;  1.0000000E+04;  0.0000000E+00;  1.0000000E+04;  0.0000000E+00;  0.0000000E+00;  0.0000000E+00;  0.0000000E+00;
  2.1400001E+00;  9.9999998E-03; -3.4000000E-01;859;  0.0000000E+00;  0.0000000E+00;  0.0000000E+00;  1.0000000E+03;  4.0000001E-01;  0.0000000E+00;0;  0.0000000E+00;  0.0000000E+00;  0.0000000E+00;0;  0.0000000E+00;  1.0000000E+04;  0.0000000E+00;  0.0000000E+00;  1.0000000E+04;  0.0000000E+00;  1.0000000E+04;  0.0000000E+00;  0.0000000E+00;  0.0000000E+00;  0.0000000E+00;
  2.1400001E+00;  9.9999998E-03; -3.1999999E-01;860;  0.0000000E+00;  0.0000000E+00;  0.0000000E+00;  1.0000000E+03;  4.0000001E-01;  0.0000000E+00;0;  0.0000000E+00;  0.0000000E+00;  0.0000000E+00;0;  0.0000000E+00;  1.0000000E+04;  0.0000000E+00;  0.0000000E+00;  1.0000000E+04;  0.0000000E+00;  1.0000000E+04;  0.0000000E+00;  0.0000000E+00;  0.0000000E+00;  0.0000000E+00;
  2.1400001E+00;  9.9999998E-03; -3.0000001E-01;861;  0.0000000E+00;  0.0000000E+00;  0.0000000E+00;  1.0000000E+03;  4.0000001E-01;  0.0000000E+00;0;  0.0000000E+00;  0.0000000E+00;  0.0000000E+00;0;  0.0000000E+00;  1.0000000E+04;  0.0000000E+00;  0.0000000E+00;  1.0000000E+04;  0.0000000E+00;  1.0000000E+04;  0.0000000E+00;  0.0000000E+00;  0.0000000E+00;  0.0000000E+00;
  2.1400001E+00;  9.9999998E-03; -2.8000000E-01;862;  0.0000000E+00;  0.0000000E+00;  0.0000000E+00;  1.0000000E+03;  4.0000001E-01;  0.0000000E+00;0;  0.0000000E+00;  0.0000000E+00;  0.0000000E+00;0;  0.0000000E+00;  1.0000000E+04;  0.0000000E+00;  0.0000000E+00;  1.0000000E+04;  0.0000000E+00;  1.0000000E+04;  0.0000000E+00;  0.0000000E+00;  0.0000000E+00;  0.0000000E+00;
  2.1400001E+00;  9.9999998E-03; -2.5999999E-01;863;  0.0000000E+00;  0.0000000E+00;  0.0000000E+00;  1.0000000E+03;  4.0000001E-01;  0.0000000E+00;0;  0.0000000E+00;  0.0000000E+00;  0.0000000E+00;0;  0.0000000E+00;  1.0000000E+04;  0.0000000E+00;  0.0000000E+00;  1.0000000E+04;  0.0000000E+00;  1.0000000E+04;  0.0000000E+00;  0.0000000E+00;  0.0000000E+00;  0.0000000E+00;
  2.1400001E+00;  9.9999998E-03; -2.3999999E-01;864;  0.0000000E+00;  0.0000000E+00;  0.0000000E+00;  1.0000000E+03;  4.0000001E-01;  0.0000000E+00;0;  0.0000000E+00;  0.0000000E+00;  0.0000000E+00;0;  0.0000000E+00;  1.0000000E+04;  0.0000000E+00;  0.0000000E+00;  1.0000000E+04;  0.0000000E+00;  1.0000000E+04;  0.0000000E+00;  0.0000000E+00;  0.0000000E+00;  0.0000000E+00;
  2.1400001E+00;  9.9999998E-03; -2.2000000E-01;865;  0.0000000E+00;  0.0000000E+00;  0.0000000E+00;  1.0000000E+03;  4.0000001E-01;  0.0000000E+00;0;  0.0000000E+00;  0.0000000E+00;  0.0000000E+00;0;  0.0000000E+00;  1.0000000E+04;  0.0000000E+00;  0.0000000E+00;  1.0000000E+04;  0.0000000E+00;  1.0000000E+04;  0.0000000E+00;  0.0000000E+00;  0.0000000E+00;  0.0000000E+00;
  2.1400001E+00;  9.9999998E-03; -2.0000000E-01;866;  0.0000000E+00;  0.0000000E+00;  0.0000000E+00;  1.0000000E+03;  4.0000001E-01;  0.0000000E+00;0;  0.0000000E+00;  0.0000000E+00;  0.0000000E+00;0;  0.0000000E+00;  1.0000000E+04;  0.0000000E+00;  0.0000000E+00;  1.0000000E+04;  0.0000000E+00;  1.0000000E+04;  0.0000000E+00;  0.0000000E+00;  0.0000000E+00;  0.0000000E+00;
  2.1400001E+00;  9.9999998E-03; -1.8000001E-01;867;  0.0000000E+00;  0.0000000E+00;  0.0000000E+00;  1.0000000E+03;  4.0000001E-01;  0.0000000E+00;0;  0.0000000E+00;  0.0000000E+00;  0.0000000E+00;0;  0.0000000E+00;  1.0000000E+04;  0.0000000E+00;  0.0000000E+00;  1.0000000E+04;  0.0000000E+00;  1.0000000E+04;  0.0000000E+00;  0.0000000E+00;  0.0000000E+00;  0.0000000E+00;
  2.1400001E+00;  9.9999998E-03; -1.6000000E-01;868;  0.0000000E+00;  0.0000000E+00;  0.0000000E+00;  1.0000000E+03;  4.0000001E-01;  0.0000000E+00;0;  0.0000000E+00;  0.0000000E+00;  0.0000000E+00;0;  0.0000000E+00;  1.0000000E+04;  0.0000000E+00;  0.0000000E+00;  1.0000000E+04;  0.0000000E+00;  1.0000000E+04;  0.0000000E+00;  0.0000000E+00;  0.0000000E+00;  0.0000000E+00;
  2.1400001E+00;  9.9999998E-03; -1.4000000E-01;869;  0.0000000E+00;  0.0000000E+00;  0.0000000E+00;  1.0000000E+03;  4.0000001E-01;  0.0000000E+00;0;  0.0000000E+00;  0.0000000E+00;  0.0000000E+00;0;  0.0000000E+00;  1.0000000E+04;  0.0000000E+00;  0.0000000E+00;  1.0000000E+04;  0.0000000E+00;  1.0000000E+04;  0.0000000E+00;  0.0000000E+00;  0.0000000E+00;  0.0000000E+00;
  2.1400001E+00;  9.9999998E-03; -1.2000000E-01;870;  0.0000000E+00;  0.0000000E+00;  0.0000000E+00;  1.0000000E+03;  4.0000001E-01;  0.0000000E+00;0;  0.0000000E+00;  0.0000000E+00;  0.0000000E+00;0;  0.0000000E+00;  1.0000000E+04;  0.0000000E+00;  0.0000000E+00;  1.0000000E+04;  0.0000000E+00;  1.0000000E+04;  0.0000000E+00;  0.0000000E+00;  0.0000000E+00;  0.0000000E+00;
  2.1400001E+00;  9.9999998E-03; -1.0000000E-01;871;  0.0000000E+00;  0.0000000E+00;  0.0000000E+00;  1.0000000E+03;  4.0000001E-01;  0.0000000E+00;0;  0.0000000E+00;  0.0000000E+00;  0.0000000E+00;0;  0.0000000E+00;  1.0000000E+04;  0.0000000E+00;  0.0000000E+00;  1.0000000E+04;  0.0000000E+00;  1.0000000E+04;  0.0000000E+00;  0.0000000E+00;  0.0000000E+00;  0.0000000E+00;
  2.1400001E+00;  9.9999998E-03; -7.9999998E-02;872;  0.0000000E+00;  0.0000000E+00;  0.0000000E+00;  1.0000000E+03;  4.0000001E-01;  0.0000000E+00;0;  0.0000000E+00;  0.0000000E+00;  0.0000000E+00;0;  0.0000000E+00;  1.0000000E+04;  0.0000000E+00;  0.0000000E+00;  1.0000000E+04;  0.0000000E+00;  1.0000000E+04;  0.0000000E+00;  0.0000000E+00;  0.0000000E+00;  0.0000000E+00;
  2.1400001E+00;  9.9999998E-03; -5.9999999E-02;873;  0.0000000E+00;  0.0000000E+00;  0.0000000E+00;  1.0000000E+03;  4.0000001E-01;  0.0000000E+00;0;  0.0000000E+00;  0.0000000E+00;  0.0000000E+00;0;  0.0000000E+00;  1.0000000E+04;  0.0000000E+00;  0.0000000E+00;  1.0000000E+04;  0.0000000E+00;  1.0000000E+04;  0.0000000E+00;  0.0000000E+00;  0.0000000E+00;  0.0000000E+00;
  2.1400001E+00;  9.9999998E-03; -3.9999999E-02;874;  0.0000000E+00;  0.0000000E+00;  0.0000000E+00;  1.0000000E+03;  4.0000001E-01;  0.0000000E+00;0;  0.0000000E+00;  0.0000000E+00;  0.0000000E+00;0;  0.0000000E+00;  1.0000000E+04;  0.0000000E+00;  0.0000000E+00;  1.0000000E+04;  0.0000000E+00;  1.0000000E+04;  0.0000000E+00;  0.0000000E+00;  0.0000000E+00;  0.0000000E+00;
  2.1400001E+00;  9.9999998E-03; -2.0000000E-02;875;  0.0000000E+00;  0.0000000E+00;  0.0000000E+00;  1.0000000E+03;  4.0000001E-01;  0.0000000E+00;0;  0.0000000E+00;  0.0000000E+00;  0.0000000E+00;0;  0.0000000E+00;  1.0000000E+04;  0.0000000E+00;  0.0000000E+00;  1.0000000E+04;  0.0000000E+00;  1.0000000E+04;  0.0000000E+00;  0.0000000E+00;  0.0000000E+00;  0.0000000E+00;
  2.1400001E+00;  9.9999998E-03;  0.0000000E+00;876;  0.0000000E+00;  0.0000000E+00;  0.0000000E+00;  1.0000000E+03;  4.0000001E-01;  0.0000000E+00;0;  0.0000000E+00;  0.0000000E+00;  0.0000000E+00;0;  0.0000000E+00;  1.0000000E+04;  0.0000000E+00;  0.0000000E+00;  1.0000000E+04;  0.0000000E+00;  1.0000000E+04;  0.0000000E+00;  0.0000000E+00;  0.0000000E+00;  0.0000000E+00;
  2.1400001E+00;  9.9999998E-03;  2.0000000E-02;877;  0.0000000E+00;  0.0000000E+00;  0.0000000E+00;  1.0000000E+03;  4.0000001E-01;  0.0000000E+00;0;  0.0000000E+00;  0.0000000E+00;  0.0000000E+00;0;  0.0000000E+00;  1.0000000E+04;  0.0000000E+00;  0.0000000E+00;  1.0000000E+04;  0.0000000E+00;  1.0000000E+04;  0.0000000E+00;  0.0000000E+00;  0.0000000E+00;  0.0000000E+00;
  2.1400001E+00;  9.9999998E-03;  3.9999999E-02;878;  0.0000000E+00;  0.0000000E+00;  0.0000000E+00;  1.0000000E+03;  4.0000001E-01;  0.0000000E+00;0;  0.0000000E+00;  0.0000000E+00;  0.0000000E+00;0;  0.0000000E+00;  1.0000000E+04;  0.0000000E+00;  0.0000000E+00;  1.0000000E+04;  0.0000000E+00;  1.0000000E+04;  0.0000000E+00;  0.0000000E+00;  0.0000000E+00;  0.0000000E+00;
  2.1400001E+00;  9.9999998E-03;  5.9999999E-02;879;  0.0000000E+00;  0.0000000E+00;  0.0000000E+00;  1.0000000E+03;  4.0000001E-01;  0.0000000E+00;0;  0.0000000E+00;  0.0000000E+00;  0.0000000E+00;0;  0.0000000E+00;  1.0000000E+04;  0.0000000E+00;  0.0000000E+00;  1.0000000E+04;  0.0000000E+00;  1.0000000E+04;  0.0000000E+00;  0.0000000E+00;  0.0000000E+00;  0.0000000E+00;
  2.1400001E+00;  9.9999998E-03;  7.9999998E-02;880;  0.0000000E+00;  0.0000000E+00;  0.0000000E+00;  1.0000000E+03;  4.0000001E-01;  0.0000000E+00;0;  0.0000000E+00;  0.0000000E+00;  0.0000000E+00;0;  0.0000000E+00;  1.0000000E+04;  0.0000000E+00;  0.0000000E+00;  1.0000000E+04;  0.0000000E+00;  1.0000000E+04;  0.0000000E+00;  0.0000000E+00;  0.0000000E+00;  0.0000000E+00;
  2.1400001E+00;  9.9999998E-03;  1.0000000E-01;881;  0.0000000E+00;  0.0000000E+00;  0.0000000E+00;  1.0000000E+03;  4.0000001E-01;  0.0000000E+00;0;  0.0000000E+00;  0.0000000E+00;  0.0000000E+00;0;  0.0000000E+00;  1.0000000E+04;  0.0000000E+00;  0.0000000E+00;  1.0000000E+04;  0.0000000E+00;  1.0000000E+04;  0.0000000E+00;  0.0000000E+00;  0.0000000E+00;  0.0000000E+00;
  2.1400001E+00;  9.9999998E-03;  1.2000000E-01;882;  0.0000000E+00;  0.0000000E+00;  0.0000000E+00;  1.0000000E+03;  4.0000001E-01;  0.0000000E+00;0;  0.0000000E+00;  0.0000000E+00;  0.0000000E+00;0;  0.0000000E+00;  1.0000000E+04;  0.0000000E+00;  0.0000000E+00;  1.0000000E+04;  0.0000000E+00;  1.0000000E+04;  0.0000000E+00;  0.0000000E+00;  0.0000000E+00;  0.0000000E+00;
  2.1400001E+00;  9.9999998E-03;  1.4000000E-01;883;  0.0000000E+00;  0.0000000E+00;  0.0000000E+00;  1.0000000E+03;  4.0000001E-01;  0.0000000E+00;0;  0.0000000E+00;  0.0000000E+00;  0.0000000E+00;0;  0.0000000E+00;  1.0000000E+04;  0.0000000E+00;  0.0000000E+00;  1.0000000E+04;  0.0000000E+00;  1.0000000E+04;  0.0000000E+00;  0.0000000E+00;  0.0000000E+00;  0.0000000E+00;
  2.1400001E+00;  9.9999998E-03;  1.6000000E-01;884;  0.0000000E+00;  0.0000000E+00;  0.0000000E+00;  1.0000000E+03;  4.0000001E-01;  0.0000000E+00;0;  0.0000000E+00;  0.0000000E+00;  0.0000000E+00;0;  0.0000000E+00;  1.0000000E+04;  0.0000000E+00;  0.0000000E+00;  1.0000000E+04;  0.0000000E+00;  1.0000000E+04;  0.0000000E+00;  0.0000000E+00;  0.0000000E+00;  0.0000000E+00;
  2.1400001E+00;  9.9999998E-03;  1.8000001E-01;885;  0.0000000E+00;  0.0000000E+00;  0.0000000E+00;  1.0000000E+03;  4.0000001E-01;  0.0000000E+00;0;  0.0000000E+00;  0.0000000E+00;  0.0000000E+00;0;  0.0000000E+00;  1.0000000E+04;  0.0000000E+00;  0.0000000E+00;  1.0000000E+04;  0.0000000E+00;  1.0000000E+04;  0.0000000E+00;  0.0000000E+00;  0.0000000E+00;  0.0000000E+00;
  2.1400001E+00;  9.9999998E-03;  2.0000000E-01;886;  0.0000000E+00;  0.0000000E+00;  0.0000000E+00;  1.0000000E+03;  4.0000001E-01;  0.0000000E+00;0;  0.0000000E+00;  0.0000000E+00;  0.0000000E+00;0;  0.0000000E+00;  1.0000000E+04;  0.0000000E+00;  0.0000000E+00;  1.0000000E+04;  0.0000000E+00;  1.0000000E+04;  0.0000000E+00;  0.0000000E+00;  0.0000000E+00;  0.0000000E+00;
  2.1400001E+00;  9.9999998E-03;  2.2000000E-01;887;  0.0000000E+00;  0.0000000E+00;  0.0000000E+00;  1.0000000E+03;  4.0000001E-01;  0.0000000E+00;0;  0.0000000E+00;  0.0000000E+00;  0.0000000E+00;0;  0.0000000E+00;  1.0000000E+04;  0.0000000E+00;  0.0000000E+00;  1.0000000E+04;  0.0000000E+00;  1.0000000E+04;  0.0000000E+00;  0.0000000E+00;  0.0000000E+00;  0.0000000E+00;
  2.1400001E+00;  9.9999998E-03;  2.3999999E-01;888;  0.0000000E+00;  0.0000000E+00;  0.0000000E+00;  1.0000000E+03;  4.0000001E-01;  0.0000000E+00;0;  0.0000000E+00;  0.0000000E+00;  0.0000000E+00;0;  0.0000000E+00;  1.0000000E+04;  0.0000000E+00;  0.0000000E+00;  1.0000000E+04;  0.0000000E+00;  1.0000000E+04;  0.0000000E+00;  0.0000000E+00;  0.0000000E+00;  0.0000000E+00;
  2.1400001E+00;  9.9999998E-03;  2.5999999E-01;889;  0.0000000E+00;  0.0000000E+00;  0.0000000E+00;  1.0000000E+03;  4.0000001E-01;  0.0000000E+00;0;  0.0000000E+00;  0.0000000E+00;  0.0000000E+00;0;  0.0000000E+00;  1.0000000E+04;  0.0000000E+00;  0.0000000E+00;  1.0000000E+04;  0.0000000E+00;  1.0000000E+04;  0.0000000E+00;  0.0000000E+00;  0.0000000E+00;  0.0000000E+00;
  2.1400001E+00;  9.9999998E-03;  2.8000000E-01;890;  0.0000000E+00;  0.0000000E+00;  0.0000000E+00;  1.0000000E+03;  4.0000001E-01;  0.0000000E+00;0;  0.0000000E+00;  0.0000000E+00;  0.0000000E+00;0;  0.0000000E+00;  1.0000000E+04;  0.0000000E+00;  0.0000000E+00;  1.0000000E+04;  0.0000000E+00;  1.0000000E+04;  0.0000000E+00;  0.0000000E+00;  0.0000000E+00;  0.0000000E+00;
  2.1400001E+00;  9.9999998E-03;  3.0000001E-01;891;  0.0000000E+00;  0.0000000E+00;  0.0000000E+00;  1.0000000E+03;  4.0000001E-01;  0.0000000E+00;0;  0.0000000E+00;  0.0000000E+00;  0.0000000E+00;0;  0.0000000E+00;  1.0000000E+04;  0.0000000E+00;  0.0000000E+00;  1.0000000E+04;  0.0000000E+00;  1.0000000E+04;  0.0000000E+00;  0.0000000E+00;  0.0000000E+00;  0.0000000E+00;
  2.1400001E+00;  9.9999998E-03;  3.1999999E-01;892;  0.0000000E+00;  0.0000000E+00;  0.0000000E+00;  1.0000000E+03;  4.0000001E-01;  0.0000000E+00;0;  0.0000000E+00;  0.0000000E+00;  0.0000000E+00;0;  0.0000000E+00;  1.0000000E+04;  0.0000000E+00;  0.0000000E+00;  1.0000000E+04;  0.0000000E+00;  1.0000000E+04;  0.0000000E+00;  0.0000000E+00;  0.0000000E+00;  0.0000000E+00;
  2.1400001E+00;  9.9999998E-03;  3.4000000E-01;893;  0.0000000E+00;  0.0000000E+00;  0.0000000E+00;  1.0000000E+03;  4.0000001E-01;  0.0000000E+00;0;  0.0000000E+00;  0.0000000E+00;  0.0000000E+00;0;  0.0000000E+00;  1.0000000E+04;  0.0000000E+00;  0.0000000E+00;  1.0000000E+04;  0.0000000E+00;  1.0000000E+04;  0.0000000E+00;  0.0000000E+00;  0.0000000E+00;  0.0000000E+00;
  2.1400001E+00;  9.9999998E-03;  3.6000001E-01;894;  0.0000000E+00;  0.0000000E+00;  0.0000000E+00;  1.0000000E+03;  4.0000001E-01;  0.0000000E+00;0;  0.0000000E+00;  0.0000000E+00;  0.0000000E+00;0;  0.0000000E+00;  1.0000000E+04;  0.0000000E+00;  0.0000000E+00;  1.0000000E+04;  0.0000000E+00;  1.0000000E+04;  0.0000000E+00;  0.0000000E+00;  0.0000000E+00;  0.0000000E+00;
  2.1400001E+00;  9.9999998E-03;  3.8000000E-01;895;  0.0000000E+00;  0.0000000E+00;  0.0000000E+00;  1.0000000E+03;  4.0000001E-01;  0.0000000E+00;0;  0.0000000E+00;  0.0000000E+00;  0.0000000E+00;0;  0.0000000E+00;  1.0000000E+04;  0.0000000E+00;  0.0000000E+00;  1.0000000E+04;  0.0000000E+00;  1.0000000E+04;  0.0000000E+00;  0.0000000E+00;  0.0000000E+00;  0.0000000E+00;
  2.1400001E+00;  9.9999998E-03;  4.0000001E-01;896;  0.0000000E+00;  0.0000000E+00;  0.0000000E+00;  1.0000000E+03;  4.0000001E-01;  0.0000000E+00;0;  0.0000000E+00;  0.0000000E+00;  0.0000000E+00;0;  0.0000000E+00;  1.0000000E+04;  0.0000000E+00;  0.0000000E+00;  1.0000000E+04;  0.0000000E+00;  1.0000000E+04;  0.0000000E+00;  0.0000000E+00;  0.0000000E+00;  0.0000000E+00;
  2.1600001E+00;  9.9999998E-03; -2.8000000E-01;897;  0.0000000E+00;  0.0000000E+00;  0.0000000E+00;  1.0000000E+03;  4.0000001E-01;  0.0000000E+00;0;  0.0000000E+00;  0.0000000E+00;  0.0000000E+00;0;  0.0000000E+00;  1.0000000E+04;  0.0000000E+00;  0.0000000E+00;  1.0000000E+04;  0.0000000E+00;  1.0000000E+04;  0.0000000E+00;  0.0000000E+00;  0.0000000E+00;  0.0000000E+00;
  2.1600001E+00;  9.9999998E-03; -2.5999999E-01;898;  0.0000000E+00;  0.0000000E+00;  0.0000000E+00;  1.0000000E+03;  4.0000001E-01;  0.0000000E+00;0;  0.0000000E+00;  0.0000000E+00;  0.0000000E+00;0;  0.0000000E+00;  1.0000000E+04;  0.0000000E+00;  0.0000000E+00;  1.0000000E+04;  0.0000000E+00;  1.0000000E+04;  0.0000000E+00;  0.0000000E+00;  0.0000000E+00;  0.0000000E+00;
  2.1600001E+00;  9.9999998E-03; -2.3999999E-01;899;  0.0000000E+00;  0.0000000E+00;  0.0000000E+00;  1.0000000E+03;  4.0000001E-01;  0.0000000E+00;0;  0.0000000E+00;  0.0000000E+00;  0.0000000E+00;0;  0.0000000E+00;  1.0000000E+04;  0.0000000E+00;  0.0000000E+00;  1.0000000E+04;  0.0000000E+00;  1.0000000E+04;  0.0000000E+00;  0.0000000E+00;  0.0000000E+00;  0.0000000E+00;
  2.1600001E+00;  9.9999998E-03; -2.2000000E-01;900;  0.0000000E+00;  0.0000000E+00;  0.0000000E+00;  1.0000000E+03;  4.0000001E-01;  0.0000000E+00;0;  0.0000000E+00;  0.0000000E+00;  0.0000000E+00;0;  0.0000000E+00;  1.0000000E+04;  0.0000000E+00;  0.0000000E+00;  1.0000000E+04;  0.0000000E+00;  1.0000000E+04;  0.0000000E+00;  0.0000000E+00;  0.0000000E+00;  0.0000000E+00;
  2.1600001E+00;  9.9999998E-03; -2.0000000E-01;901;  0.0000000E+00;  0.0000000E+00;  0.0000000E+00;  1.0000000E+03;  4.0000001E-01;  0.0000000E+00;0;  0.0000000E+00;  0.0000000E+00;  0.0000000E+00;0;  0.0000000E+00;  1.0000000E+04;  0.0000000E+00;  0.0000000E+00;  1.0000000E+04;  0.0000000E+00;  1.0000000E+04;  0.0000000E+00;  0.0000000E+00;  0.0000000E+00;  0.0000000E+00;
  2.1600001E+00;  9.9999998E-03; -1.8000001E-01;902;  0.0000000E+00;  0.0000000E+00;  0.0000000E+00;  1.0000000E+03;  4.0000001E-01;  0.0000000E+00;0;  0.0000000E+00;  0.0000000E+00;  0.0000000E+00;0;  0.0000000E+00;  1.0000000E+04;  0.0000000E+00;  0.0000000E+00;  1.0000000E+04;  0.0000000E+00;  1.0000000E+04;  0.0000000E+00;  0.0000000E+00;  0.0000000E+00;  0.0000000E+00;
  2.1600001E+00;  9.9999998E-03; -1.6000000E-01;903;  0.0000000E+00;  0.0000000E+00;  0.0000000E+00;  1.0000000E+03;  4.0000001E-01;  0.0000000E+00;0;  0.0000000E+00;  0.0000000E+00;  0.0000000E+00;0;  0.0000000E+00;  1.0000000E+04;  0.0000000E+00;  0.0000000E+00;  1.0000000E+04;  0.0000000E+00;  1.0000000E+04;  0.0000000E+00;  0.0000000E+00;  0.0000000E+00;  0.0000000E+00;
  2.1600001E+00;  9.9999998E-03; -1.4000000E-01;904;  0.0000000E+00;  0.0000000E+00;  0.0000000E+00;  1.0000000E+03;  4.0000001E-01;  0.0000000E+00;0;  0.0000000E+00;  0.0000000E+00;  0.0000000E+00;0;  0.0000000E+00;  1.0000000E+04;  0.0000000E+00;  0.0000000E+00;  1.0000000E+04;  0.0000000E+00;  1.0000000E+04;  0.0000000E+00;  0.0000000E+00;  0.0000000E+00;  0.0000000E+00;
  2.1600001E+00;  9.9999998E-03; -1.2000000E-01;905;  0.0000000E+00;  0.0000000E+00;  0.0000000E+00;  1.0000000E+03;  4.0000001E-01;  0.0000000E+00;0;  0.0000000E+00;  0.0000000E+00;  0.0000000E+00;0;  0.0000000E+00;  1.0000000E+04;  0.0000000E+00;  0.0000000E+00;  1.0000000E+04;  0.0000000E+00;  1.0000000E+04;  0.0000000E+00;  0.0000000E+00;  0.0000000E+00;  0.0000000E+00;
  2.1600001E+00;  9.9999998E-03; -1.0000000E-01;906;  0.0000000E+00;  0.0000000E+00;  0.0000000E+00;  1.0000000E+03;  4.0000001E-01;  0.0000000E+00;0;  0.0000000E+00;  0.0000000E+00;  0.0000000E+00;0;  0.0000000E+00;  1.0000000E+04;  0.0000000E+00;  0.0000000E+00;  1.0000000E+04;  0.0000000E+00;  1.0000000E+04;  0.0000000E+00;  0.0000000E+00;  0.0000000E+00;  0.0000000E+00;
  2.1600001E+00;  9.9999998E-03; -7.9999998E-02;907;  0.0000000E+00;  0.0000000E+00;  0.0000000E+00;  1.0000000E+03;  4.0000001E-01;  0.0000000E+00;0;  0.0000000E+00;  0.0000000E+00;  0.0000000E+00;0;  0.0000000E+00;  1.0000000E+04;  0.0000000E+00;  0.0000000E+00;  1.0000000E+04;  0.0000000E+00;  1.0000000E+04;  0.0000000E+00;  0.0000000E+00;  0.0000000E+00;  0.0000000E+00;
  2.1600001E+00;  9.9999998E-03; -5.9999999E-02;908;  0.0000000E+00;  0.0000000E+00;  0.0000000E+00;  1.0000000E+03;  4.0000001E-01;  0.0000000E+00;0;  0.0000000E+00;  0.0000000E+00;  0.0000000E+00;0;  0.0000000E+00;  1.0000000E+04;  0.0000000E+00;  0.0000000E+00;  1.0000000E+04;  0.0000000E+00;  1.0000000E+04;  0.0000000E+00;  0.0000000E+00;  0.0000000E+00;  0.0000000E+00;
  2.1600001E+00;  9.9999998E-03; -3.9999999E-02;909;  0.0000000E+00;  0.0000000E+00;  0.0000000E+00;  1.0000000E+03;  4.0000001E-01;  0.0000000E+00;0;  0.0000000E+00;  0.0000000E+00;  0.0000000E+00;0;  0.0000000E+00;  1.0000000E+04;  0.0000000E+00;  0.0000000E+00;  1.0000000E+04;  0.0000000E+00;  1.0000000E+04;  0.0000000E+00;  0.0000000E+00;  0.0000000E+00;  0.0000000E+00;
  2.1600001E+00;  9.9999998E-03; -2.0000000E-02;910;  0.0000000E+00;  0.0000000E+00;  0.0000000E+00;  1.0000000E+03;  4.0000001E-01;  0.0000000E+00;0;  0.0000000E+00;  0.0000000E+00;  0.0000000E+00;0;  0.0000000E+00;  1.0000000E+04;  0.0000000E+00;  0.0000000E+00;  1.0000000E+04;  0.0000000E+00;  1.0000000E+04;  0.0000000E+00;  0.0000000E+00;  0.0000000E+00;  0.0000000E+00;
  2.1600001E+00;  9.9999998E-03;  0.0000000E+00;911;  0.0000000E+00;  0.0000000E+00;  0.0000000E+00;  1.0000000E+03;  4.0000001E-01;  0.0000000E+00;0;  0.0000000E+00;  0.0000000E+00;  0.0000000E+00;0;  0.0000000E+00;  1.0000000E+04;  0.0000000E+00;  0.0000000E+00;  1.0000000E+04;  0.0000000E+00;  1.0000000E+04;  0.0000000E+00;  0.0000000E+00;  0.0000000E+00;  0.0000000E+00;
  2.1600001E+00;  9.9999998E-03;  2.0000000E-02;912;  0.0000000E+00;  0.0000000E+00;  0.0000000E+00;  1.0000000E+03;  4.0000001E-01;  0.0000000E+00;0;  0.0000000E+00;  0.0000000E+00;  0.0000000E+00;0;  0.0000000E+00;  1.0000000E+04;  0.0000000E+00;  0.0000000E+00;  1.0000000E+04;  0.0000000E+00;  1.0000000E+04;  0.0000000E+00;  0.0000000E+00;  0.0000000E+00;  0.0000000E+00;
  2.1600001E+00;  9.9999998E-03;  3.9999999E-02;913;  0.0000000E+00;  0.0000000E+00;  0.0000000E+00;  1.0000000E+03;  4.0000001E-01;  0.0000000E+00;0;  0.0000000E+00;  0.0000000E+00;  0.0000000E+00;0;  0.0000000E+00;  1.0000000E+04;  0.0000000E+00;  0.0000000E+00;  1.0000000E+04;  0.0000000E+00;  1.0000000E+04;  0.0000000E+00;  0.0000000E+00;  0.0000000E+00;  0.0000000E+00;
  2.1600001E+00;  9.9999998E-03;  5.9999999E-02;914;  0.0000000E+00;  0.0000000E+00;  0.0000000E+00;  1.0000000E+03;  4.0000001E-01;  0.0000000E+00;0;  0.0000000E+00;  0.0000000E+00;  0.0000000E+00;0;  0.0000000E+00;  1.0000000E+04;  0.0000000E+00;  0.0000000E+00;  1.0000000E+04;  0.0000000E+00;  1.0000000E+04;  0.0000000E+00;  0.0000000E+00;  0.0000000E+00;  0.0000000E+00;
  2.1600001E+00;  9.9999998E-03;  7.9999998E-02;915;  0.0000000E+00;  0.0000000E+00;  0.0000000E+00;  1.0000000E+03;  4.0000001E-01;  0.0000000E+00;0;  0.0000000E+00;  0.0000000E+00;  0.0000000E+00;0;  0.0000000E+00;  1.0000000E+04;  0.0000000E+00;  0.0000000E+00;  1.0000000E+04;  0.0000000E+00;  1.0000000E+04;  0.0000000E+00;  0.0000000E+00;  0.0000000E+00;  0.0000000E+00;
  2.1600001E+00;  9.9999998E-03;  1.0000000E-01;916;  0.0000000E+00;  0.0000000E+00;  0.0000000E+00;  1.0000000E+03;  4.0000001E-01;  0.0000000E+00;0;  0.0000000E+00;  0.0000000E+00;  0.0000000E+00;0;  0.0000000E+00;  1.0000000E+04;  0.0000000E+00;  0.0000000E+00;  1.0000000E+04;  0.0000000E+00;  1.0000000E+04;  0.0000000E+00;  0.0000000E+00;  0.0000000E+00;  0.0000000E+00;
  2.1600001E+00;  9.9999998E-03;  1.2000000E-01;917;  0.0000000E+00;  0.0000000E+00;  0.0000000E+00;  1.0000000E+03;  4.0000001E-01;  0.0000000E+00;0;  0.0000000E+00;  0.0000000E+00;  0.0000000E+00;0;  0.0000000E+00;  1.0000000E+04;  0.0000000E+00;  0.0000000E+00;  1.0000000E+04;  0.0000000E+00;  1.0000000E+04;  0.0000000E+00;  0.0000000E+00;  0.0000000E+00;  0.0000000E+00;
  2.1600001E+00;  9.9999998E-03;  1.4000000E-01;918;  0.0000000E+00;  0.0000000E+00;  0.0000000E+00;  1.0000000E+03;  4.0000001E-01;  0.0000000E+00;0;  0.0000000E+00;  0.0000000E+00;  0.0000000E+00;0;  0.0000000E+00;  1.0000000E+04;  0.0000000E+00;  0.0000000E+00;  1.0000000E+04;  0.0000000E+00;  1.0000000E+04;  0.0000000E+00;  0.0000000E+00;  0.0000000E+00;  0.0000000E+00;
  2.1600001E+00;  9.9999998E-03;  1.6000000E-01;919;  0.0000000E+00;  0.0000000E+00;  0.0000000E+00;  1.0000000E+03;  4.0000001E-01;  0.0000000E+00;0;  0.0000000E+00;  0.0000000E+00;  0.0000000E+00;0;  0.0000000E+00;  1.0000000E+04;  0.0000000E+00;  0.0000000E+00;  1.0000000E+04;  0.0000000E+00;  1.0000000E+04;  0.0000000E+00;  0.0000000E+00;  0.0000000E+00;  0.0000000E+00;
  2.1600001E+00;  9.9999998E-03;  1.8000001E-01;920;  0.0000000E+00;  0.0000000E+00;  0.0000000E+00;  1.0000000E+03;  4.0000001E-01;  0.0000000E+00;0;  0.0000000E+00;  0.0000000E+00;  0.0000000E+00;0;  0.0000000E+00;  1.0000000E+04;  0.0000000E+00;  0.0000000E+00;  1.0000000E+04;  0.0000000E+00;  1.0000000E+04;  0.0000000E+00;  0.0000000E+00;  0.0000000E+00;  0.0000000E+00;
  2.1600001E+00;  9.9999998E-03;  2.0000000E-01;921;  0.0000000E+00;  0.0000000E+00;  0.0000000E+00;  1.0000000E+03;  4.0000001E-01;  0.0000000E+00;0;  0.0000000E+00;  0.0000000E+00;  0.0000000E+00;0;  0.0000000E+00;  1.0000000E+04;  0.0000000E+00;  0.0000000E+00;  1.0000000E+04;  0.0000000E+00;  1.0000000E+04;  0.0000000E+00;  0.0000000E+00;  0.0000000E+00;  0.0000000E+00;
  2.1600001E+00;  9.9999998E-03;  2.2000000E-01;922;  0.0000000E+00;  0.0000000E+00;  0.0000000E+00;  1.0000000E+03;  4.0000001E-01;  0.0000000E+00;0;  0.0000000E+00;  0.0000000E+00;  0.0000000E+00;0;  0.0000000E+00;  1.0000000E+04;  0.0000000E+00;  0.0000000E+00;  1.0000000E+04;  0.0000000E+00;  1.0000000E+04;  0.0000000E+00;  0.0000000E+00;  0.0000000E+00;  0.0000000E+00;
  2.1600001E+00;  9.9999998E-03;  2.3999999E-01;923;  0.0000000E+00;  0.0000000E+00;  0.0000000E+00;  1.0000000E+03;  4.0000001E-01;  0.0000000E+00;0;  0.0000000E+00;  0.0000000E+00;  0.0000000E+00;0;  0.0000000E+00;  1.0000000E+04;  0.0000000E+00;  0.0000000E+00;  1.0000000E+04;  0.0000000E+00;  1.0000000E+04;  0.0000000E+00;  0.0000000E+00;  0.0000000E+00;  0.0000000E+00;
  2.1600001E+00;  9.9999998E-03;  2.5999999E-01;924;  0.0000000E+00;  0.0000000E+00;  0.0000000E+00;  1.0000000E+03;  4.0000001E-01;  0.0000000E+00;0;  0.0000000E+00;  0.0000000E+00;  0.0000000E+00;0;  0.0000000E+00;  1.0000000E+04;  0.0000000E+00;  0.0000000E+00;  1.0000000E+04;  0.0000000E+00;  1.0000000E+04;  0.0000000E+00;  0.0000000E+00;  0.0000000E+00;  0.0000000E+00;
  2.1600001E+00;  9.9999998E-03;  2.8000000E-01;925;  0.0000000E+00;  0.0000000E+00;  0.0000000E+00;  1.0000000E+03;  4.0000001E-01;  0.0000000E+00;0;  0.0000000E+00;  0.0000000E+00;  0.0000000E+00;0;  0.0000000E+00;  1.0000000E+04;  0.0000000E+00;  0.0000000E+00;  1.0000000E+04;  0.0000000E+00;  1.0000000E+04;  0.0000000E+00;  0.0000000E+00;  0.0000000E+00;  0.0000000E+00;
  2.1600001E+00;  9.9999998E-03;  3.0000001E-01;926;  0.0000000E+00;  0.0000000E+00;  0.0000000E+00;  1.0000000E+03;  4.0000001E-01;  0.0000000E+00;0;  0.0000000E+00;  0.0000000E+00;  0.0000000E+00;0;  0.0000000E+00;  1.0000000E+04;  0.0000000E+00;  0.0000000E+00;  1.0000000E+04;  0.0000000E+00;  1.0000000E+04;  0.0000000E+00;  0.0000000E+00;  0.0000000E+00;  0.0000000E+00;
  2.1600001E+00;  9.9999998E-03;  3.1999999E-01;927;  0.0000000E+00;  0.0000000E+00;  0.0000000E+00;  1.0000000E+03;  4.0000001E-01;  0.0000000E+00;0;  0.0000000E+00;  0.0000000E+00;  0.0000000E+00;0;  0.0000000E+00;  1.0000000E+04;  0.0000000E+00;  0.0000000E+00;  1.0000000E+04;  0.0000000E+00;  1.0000000E+04;  0.0000000E+00;  0.0000000E+00;  0.0000000E+00;  0.0000000E+00;
  2.1600001E+00;  9.9999998E-03;  3.4000000E-01;928;  0.0000000E+00;  0.0000000E+00;  0.0000000E+00;  1.0000000E+03;  4.0000001E-01;  0.0000000E+00;0;  0.0000000E+00;  0.0000000E+00;  0.0000000E+00;0;  0.0000000E+00;  1.0000000E+04;  0.0000000E+00;  0.0000000E+00;  1.0000000E+04;  0.0000000E+00;  1.0000000E+04;  0.0000000E+00;  0.0000000E+00;  0.0000000E+00;  0.0000000E+00;
  2.1600001E+00;  9.9999998E-03;  3.6000001E-01;929;  0.0000000E+00;  0.0000000E+00;  0.0000000E+00;  1.0000000E+03;  4.0000001E-01;  0.0000000E+00;0;  0.0000000E+00;  0.0000000E+00;  0.0000000E+00;0;  0.0000000E+00;  1.0000000E+04;  0.0000000E+00;  0.0000000E+00;  1.0000000E+04;  0.0000000E+00;  1.0000000E+04;  0.0000000E+00;  0.0000000E+00;  0.0000000E+00;  0.0000000E+00;
  2.1600001E+00;  9.9999998E-03;  3.8000000E-01;930;  0.0000000E+00;  0.0000000E+00;  0.0000000E+00;  1.0000000E+03;  4.0000001E-01;  0.0000000E+00;0;  0.0000000E+00;  0.0000000E+00;  0.0000000E+00;0;  0.0000000E+00;  1.0000000E+04;  0.0000000E+00;  0.0000000E+00;  1.0000000E+04;  0.0000000E+00;  1.0000000E+04;  0.0000000E+00;  0.0000000E+00;  0.0000000E+00;  0.0000000E+00;
  2.1600001E+00;  9.9999998E-03;  4.0000001E-01;931;  0.0000000E+00;  0.0000000E+00;  0.0000000E+00;  1.0000000E+03;  4.0000001E-01;  0.0000000E+00;0;  0.0000000E+00;  0.0000000E+00;  0.0000000E+00;0;  0.0000000E+00;  1.0000000E+04;  0.0000000E+00;  0.0000000E+00;  1.0000000E+04;  0.0000000E+00;  1.0000000E+04;  0.0000000E+00;  0.0000000E+00;  0.0000000E+00;  0.0000000E+00;
  2.1800001E+00;  9.9999998E-03; -1.8000001E-01;932;  0.0000000E+00;  0.0000000E+00;  0.0000000E+00;  1.0000000E+03;  4.0000001E-01;  0.0000000E+00;0;  0.0000000E+00;  0.0000000E+00;  0.0000000E+00;0;  0.0000000E+00;  1.0000000E+04;  0.0000000E+00;  0.0000000E+00;  1.0000000E+04;  0.0000000E+00;  1.0000000E+04;  0.0000000E+00;  0.0000000E+00;  0.0000000E+00;  0.0000000E+00;
  2.1800001E+00;  9.9999998E-03; -1.6000000E-01;933;  0.0000000E+00;  0.0000000E+00;  0.0000000E+00;  1.0000000E+03;  4.0000001E-01;  0.0000000E+00;0;  0.0000000E+00;  0.0000000E+00;  0.0000000E+00;0;  0.0000000E+00;  1.0000000E+04;  0.0000000E+00;  0.0000000E+00;  1.0000000E+04;  0.0000000E+00;  1.0000000E+04;  0.0000000E+00;  0.0000000E+00;  0.0000000E+00;  0.0000000E+00;
  2.1800001E+00;  9.9999998E-03; -1.4000000E-01;934;  0.0000000E+00;  0.0000000E+00;  0.0000000E+00;  1.0000000E+03;  4.0000001E-01;  0.0000000E+00;0;  0.0000000E+00;  0.0000000E+00;  0.0000000E+00;0;  0.0000000E+00;  1.0000000E+04;  0.0000000E+00;  0.0000000E+00;  1.0000000E+04;  0.0000000E+00;  1.0000000E+04;  0.0000000E+00;  0.0000000E+00;  0.0000000E+00;  0.0000000E+00;
  2.1800001E+00;  9.9999998E-03; -1.2000000E-01;935;  0.0000000E+00;  0.0000000E+00;  0.0000000E+00;  1.0000000E+03;  4.0000001E-01;  0.0000000E+00;0;  0.0000000E+00;  0.0000000E+00;  0.0000000E+00;0;  0.0000000E+00;  1.0000000E+04;  0.0000000E+00;  0.0000000E+00;  1.0000000E+04;  0.0000000E+00;  1.0000000E+04;  0.0000000E+00;  0.0000000E+00;  0.0000000E+00;  0.0000000E+00;
  2.1800001E+00;  9.9999998E-03; -1.0000000E-01;936;  0.0000000E+00;  0.0000000E+00;  0.0000000E+00;  1.0000000E+03;  4.0000001E-01;  0.0000000E+00;0;  0.0000000E+00;  0.0000000E+00;  0.0000000E+00;0;  0.0000000E+00;  1.0000000E+04;  0.0000000E+00;  0.0000000E+00;  1.0000000E+04;  0.0000000E+00;  1.0000000E+04;  0.0000000E+00;  0.0000000E+00;  0.0000000E+00;  0.0000000E+00;
  2.1800001E+00;  9.9999998E-03; -7.9999998E-02;937;  0.0000000E+00;  0.0000000E+00;  0.0000000E+00;  1.0000000E+03;  4.0000001E-01;  0.0000000E+00;0;  0.0000000E+00;  0.0000000E+00;  0.0000000E+00;0;  0.0000000E+00;  1.0000000E+04;  0.0000000E+00;  0.0000000E+00;  1.0000000E+04;  0.0000000E+00;  1.0000000E+04;  0.0000000E+00;  0.0000000E+00;  0.0000000E+00;  0.0000000E+00;
  2.1800001E+00;  9.9999998E-03; -5.9999999E-02;938;  0.0000000E+00;  0.0000000E+00;  0.0000000E+00;  1.0000000E+03;  4.0000001E-01;  0.0000000E+00;0;  0.0000000E+00;  0.0000000E+00;  0.0000000E+00;0;  0.0000000E+00;  1.0000000E+04;  0.0000000E+00;  0.0000000E+00;  1.0000000E+04;  0.0000000E+00;  1.0000000E+04;  0.0000000E+00;  0.0000000E+00;  0.0000000E+00;  0.0000000E+00;
  2.1800001E+00;  9.9999998E-03; -3.9999999E-02;939;  0.0000000E+00;  0.0000000E+00;  0.0000000E+00;  1.0000000E+03;  4.0000001E-01;  0.0000000E+00;0;  0.0000000E+00;  0.0000000E+00;  0.0000000E+00;0;  0.0000000E+00;  1.0000000E+04;  0.0000000E+00;  0.0000000E+00;  1.0000000E+04;  0.0000000E+00;  1.0000000E+04;  0.0000000E+00;  0.0000000E+00;  0.0000000E+00;  0.0000000E+00;
  2.1800001E+00;  9.9999998E-03; -2.0000000E-02;940;  0.0000000E+00;  0.0000000E+00;  0.0000000E+00;  1.0000000E+03;  4.0000001E-01;  0.0000000E+00;0;  0.0000000E+00;  0.0000000E+00;  0.0000000E+00;0;  0.0000000E+00;  1.0000000E+04;  0.0000000E+00;  0.0000000E+00;  1.0000000E+04;  0.0000000E+00;  1.0000000E+04;  0.0000000E+00;  0.0000000E+00;  0.0000000E+00;  0.0000000E+00;
  2.1800001E+00;  9.9999998E-03;  0.0000000E+00;941;  0.0000000E+00;  0.0000000E+00;  0.0000000E+00;  1.0000000E+03;  4.0000001E-01;  0.0000000E+00;0;  0.0000000E+00;  0.0000000E+00;  0.0000000E+00;0;  0.0000000E+00;  1.0000000E+04;  0.0000000E+00;  0.0000000E+00;  1.0000000E+04;  0.0000000E+00;  1.0000000E+04;  0.0000000E+00;  0.0000000E+00;  0.0000000E+00;  0.0000000E+00;
  2.1800001E+00;  9.9999998E-03;  2.0000000E-02;942;  0.0000000E+00;  0.0000000E+00;  0.0000000E+00;  1.0000000E+03;  4.0000001E-01;  0.0000000E+00;0;  0.0000000E+00;  0.0000000E+00;  0.0000000E+00;0;  0.0000000E+00;  1.0000000E+04;  0.0000000E+00;  0.0000000E+00;  1.0000000E+04;  0.0000000E+00;  1.0000000E+04;  0.0000000E+00;  0.0000000E+00;  0.0000000E+00;  0.0000000E+00;
  2.1800001E+00;  9.9999998E-03;  3.9999999E-02;943;  0.0000000E+00;  0.0000000E+00;  0.0000000E+00;  1.0000000E+03;  4.0000001E-01;  0.0000000E+00;0;  0.0000000E+00;  0.0000000E+00;  0.0000000E+00;0;  0.0000000E+00;  1.0000000E+04;  0.0000000E+00;  0.0000000E+00;  1.0000000E+04;  0.0000000E+00;  1.0000000E+04;  0.0000000E+00;  0.0000000E+00;  0.0000000E+00;  0.0000000E+00;
  2.1800001E+00;  9.9999998E-03;  5.9999999E-02;944;  0.0000000E+00;  0.0000000E+00;  0.0000000E+00;  1.0000000E+03;  4.0000001E-01;  0.0000000E+00;0;  0.0000000E+00;  0.0000000E+00;  0.0000000E+00;0;  0.0000000E+00;  1.0000000E+04;  0.0000000E+00;  0.0000000E+00;  1.0000000E+04;  0.0000000E+00;  1.0000000E+04;  0.0000000E+00;  0.0000000E+00;  0.0000000E+00;  0.0000000E+00;
  2.1800001E+00;  9.9999998E-03;  7.9999998E-02;945;  0.0000000E+00;  0.0000000E+00;  0.0000000E+00;  1.0000000E+03;  4.0000001E-01;  0.0000000E+00;0;  0.0000000E+00;  0.0000000E+00;  0.0000000E+00;0;  0.0000000E+00;  1.0000000E+04;  0.0000000E+00;  0.0000000E+00;  1.0000000E+04;  0.0000000E+00;  1.0000000E+04;  0.0000000E+00;  0.0000000E+00;  0.0000000E+00;  0.0000000E+00;
  2.1800001E+00;  9.9999998E-03;  1.0000000E-01;946;  0.0000000E+00;  0.0000000E+00;  0.0000000E+00;  1.0000000E+03;  4.0000001E-01;  0.0000000E+00;0;  0.0000000E+00;  0.0000000E+00;  0.0000000E+00;0;  0.0000000E+00;  1.0000000E+04;  0.0000000E+00;  0.0000000E+00;  1.0000000E+04;  0.0000000E+00;  1.0000000E+04;  0.0000000E+00;  0.0000000E+00;  0.0000000E+00;  0.0000000E+00;
  2.1800001E+00;  9.9999998E-03;  1.2000000E-01;947;  0.0000000E+00;  0.0000000E+00;  0.0000000E+00;  1.0000000E+03;  4.0000001E-01;  0.0000000E+00;0;  0.0000000E+00;  0.0000000E+00;  0.0000000E+00;0;  0.0000000E+00;  1.0000000E+04;  0.0000000E+00;  0.0000000E+00;  1.0000000E+04;  0.0000000E+00;  1.0000000E+04;  0.0000000E+00;  0.0000000E+00;  0.0000000E+00;  0.0000000E+00;
  2.1800001E+00;  9.9999998E-03;  1.4000000E-01;948;  0.0000000E+00;  0.0000000E+00;  0.0000000E+00;  1.0000000E+03;  4.0000001E-01;  0.0000000E+00;0;  0.0000000E+00;  0.0000000E+00;  0.0000000E+00;0;  0.0000000E+00;  1.0000000E+04;  0.0000000E+00;  0.0000000E+00;  1.0000000E+04;  0.0000000E+00;  1.0000000E+04;  0.0000000E+00;  0.0000000E+00;  0.0000000E+00;  0.0000000E+00;
  2.1800001E+00;  9.9999998E-03;  1.6000000E-01;949;  0.0000000E+00;  0.0000000E+00;  0.0000000E+00;  1.0000000E+03;  4.0000001E-01;  0.0000000E+00;0;  0.0000000E+00;  0.0000000E+00;  0.0000000E+00;0;  0.0000000E+00;  1.0000000E+04;  0.0000000E+00;  0.0000000E+00;  1.0000000E+04;  0.0000000E+00;  1.0000000E+04;  0.0000000E+00;  0.0000000E+00;  0.0000000E+00;  0.0000000E+00;
  2.1800001E+00;  9.9999998E-03;  1.8000001E-01;950;  0.0000000E+00;  0.0000000E+00;  0.0000000E+00;  1.0000000E+03;  4.0000001E-01;  0.0000000E+00;0;  0.0000000E+00;  0.0000000E+00;  0.0000000E+00;0;  0.0000000E+00;  1.0000000E+04;  0.0000000E+00;  0.0000000E+00;  1.0000000E+04;  0.0000000E+00;  1.0000000E+04;  0.0000000E+00;  0.0000000E+00;  0.0000000E+00;  0.0000000E+00;
  2.1800001E+00;  9.9999998E-03;  2.0000000E-01;951;  0.0000000E+00;  0.0000000E+00;  0.0000000E+00;  1.0000000E+03;  4.0000001E-01;  0.0000000E+00;0;  0.0000000E+00;  0.0000000E+00;  0.0000000E+00;0;  0.0000000E+00;  1.0000000E+04;  0.0000000E+00;  0.0000000E+00;  1.0000000E+04;  0.0000000E+00;  1.0000000E+04;  0.0000000E+00;  0.0000000E+00;  0.0000000E+00;  0.0000000E+00;
  2.1800001E+00;  9.9999998E-03;  2.2000000E-01;952;  0.0000000E+00;  0.0000000E+00;  0.0000000E+00;  1.0000000E+03;  4.0000001E-01;  0.0000000E+00;0;  0.0000000E+00;  0.0000000E+00;  0.0000000E+00;0;  0.0000000E+00;  1.0000000E+04;  0.0000000E+00;  0.0000000E+00;  1.0000000E+04;  0.0000000E+00;  1.0000000E+04;  0.0000000E+00;  0.0000000E+00;  0.0000000E+00;  0.0000000E+00;
  2.1800001E+00;  9.9999998E-03;  2.3999999E-01;953;  0.0000000E+00;  0.0000000E+00;  0.0000000E+00;  1.0000000E+03;  4.0000001E-01;  0.0000000E+00;0;  0.0000000E+00;  0.0000000E+00;  0.0000000E+00;0;  0.0000000E+00;  1.0000000E+04;  0.0000000E+00;  0.0000000E+00;  1.0000000E+04;  0.0000000E+00;  1.0000000E+04;  0.0000000E+00;  0.0000000E+00;  0.0000000E+00;  0.0000000E+00;
  2.1800001E+00;  9.9999998E-03;  2.5999999E-01;954;  0.0000000E+00;  0.0000000E+00;  0.0000000E+00;  1.0000000E+03;  4.0000001E-01;  0.0000000E+00;0;  0.0000000E+00;  0.0000000E+00;  0.0000000E+00;0;  0.0000000E+00;  1.0000000E+04;  0.0000000E+00;  0.0000000E+00;  1.0000000E+04;  0.0000000E+00;  1.0000000E+04;  0.0000000E+00;  0.0000000E+00;  0.0000000E+00;  0.0000000E+00;
  2.1800001E+00;  9.9999998E-03;  2.8000000E-01;955;  0.0000000E+00;  0.0000000E+00;  0.0000000E+00;  1.0000000E+03;  4.0000001E-01;  0.0000000E+00;0;  0.0000000E+00;  0.0000000E+00;  0.0000000E+00;0;  0.0000000E+00;  1.0000000E+04;  0.0000000E+00;  0.0000000E+00;  1.0000000E+04;  0.0000000E+00;  1.0000000E+04;  0.0000000E+00;  0.0000000E+00;  0.0000000E+00;  0.0000000E+00;
  2.1800001E+00;  9.9999998E-03;  3.0000001E-01;956;  0.0000000E+00;  0.0000000E+00;  0.0000000E+00;  1.0000000E+03;  4.0000001E-01;  0.0000000E+00;0;  0.0000000E+00;  0.0000000E+00;  0.0000000E+00;0;  0.0000000E+00;  1.0000000E+04;  0.0000000E+00;  0.0000000E+00;  1.0000000E+04;  0.0000000E+00;  1.0000000E+04;  0.0000000E+00;  0.0000000E+00;  0.0000000E+00;  0.0000000E+00;
  2.1800001E+00;  9.9999998E-03;  3.1999999E-01;957;  0.0000000E+00;  0.0000000E+00;  0.0000000E+00;  1.0000000E+03;  4.0000001E-01;  0.0000000E+00;0;  0.0000000E+00;  0.0000000E+00;  0.0000000E+00;0;  0.0000000E+00;  1.0000000E+04;  0.0000000E+00;  0.0000000E+00;  1.0000000E+04;  0.0000000E+00;  1.0000000E+04;  0.0000000E+00;  0.0000000E+00;  0.0000000E+00;  0.0000000E+00;
  2.1800001E+00;  9.9999998E-03;  3.4000000E-01;958;  0.0000000E+00;  0.0000000E+00;  0.0000000E+00;  1.0000000E+03;  4.0000001E-01;  0.0000000E+00;0;  0.0000000E+00;  0.0000000E+00;  0.0000000E+00;0;  0.0000000E+00;  1.0000000E+04;  0.0000000E+00;  0.0000000E+00;  1.0000000E+04;  0.0000000E+00;  1.0000000E+04;  0.0000000E+00;  0.0000000E+00;  0.0000000E+00;  0.0000000E+00;
  2.1800001E+00;  9.9999998E-03;  3.6000001E-01;959;  0.0000000E+00;  0.0000000E+00;  0.0000000E+00;  1.0000000E+03;  4.0000001E-01;  0.0000000E+00;0;  0.0000000E+00;  0.0000000E+00;  0.0000000E+00;0;  0.0000000E+00;  1.0000000E+04;  0.0000000E+00;  0.0000000E+00;  1.0000000E+04;  0.0000000E+00;  1.0000000E+04;  0.0000000E+00;  0.0000000E+00;  0.0000000E+00;  0.0000000E+00;
  2.1800001E+00;  9.9999998E-03;  3.8000000E-01;960;  0.0000000E+00;  0.0000000E+00;  0.0000000E+00;  1.0000000E+03;  4.0000001E-01;  0.0000000E+00;0;  0.0000000E+00;  0.0000000E+00;  0.0000000E+00;0;  0.0000000E+00;  1.0000000E+04;  0.0000000E+00;  0.0000000E+00;  1.0000000E+04;  0.0000000E+00;  1.0000000E+04;  0.0000000E+00;  0.0000000E+00;  0.0000000E+00;  0.0000000E+00;
  2.1800001E+00;  9.9999998E-03;  4.0000001E-01;961;  0.0000000E+00;  0.0000000E+00;  0.0000000E+00;  1.0000000E+03;  4.0000001E-01;  0.0000000E+00;0;  0.0000000E+00;  0.0000000E+00;  0.0000000E+00;0;  0.0000000E+00;  1.0000000E+04;  0.0000000E+00;  0.0000000E+00;  1.0000000E+04;  0.0000000E+00;  1.0000000E+04;  0.0000000E+00;  0.0000000E+00;  0.0000000E+00;  0.0000000E+00;
  2.2000000E+00;  9.9999998E-03; -7.9999998E-02;962;  0.0000000E+00;  0.0000000E+00;  0.0000000E+00;  1.0000000E+03;  4.0000001E-01;  0.0000000E+00;0;  0.0000000E+00;  0.0000000E+00;  0.0000000E+00;0;  0.0000000E+00;  1.0000000E+04;  0.0000000E+00;  0.0000000E+00;  1.0000000E+04;  0.0000000E+00;  1.0000000E+04;  0.0000000E+00;  0.0000000E+00;  0.0000000E+00;  0.0000000E+00;
  2.2000000E+00;  9.9999998E-03; -5.9999999E-02;963;  0.0000000E+00;  0.0000000E+00;  0.0000000E+00;  1.0000000E+03;  4.0000001E-01;  0.0000000E+00;0;  0.0000000E+00;  0.0000000E+00;  0.0000000E+00;0;  0.0000000E+00;  1.0000000E+04;  0.0000000E+00;  0.0000000E+00;  1.0000000E+04;  0.0000000E+00;  1.0000000E+04;  0.0000000E+00;  0.0000000E+00;  0.0000000E+00;  0.0000000E+00;
  2.2000000E+00;  9.9999998E-03; -3.9999999E-02;964;  0.0000000E+00;  0.0000000E+00;  0.0000000E+00;  1.0000000E+03;  4.0000001E-01;  0.0000000E+00;0;  0.0000000E+00;  0.0000000E+00;  0.0000000E+00;0;  0.0000000E+00;  1.0000000E+04;  0.0000000E+00;  0.0000000E+00;  1.0000000E+04;  0.0000000E+00;  1.0000000E+04;  0.0000000E+00;  0.0000000E+00;  0.0000000E+00;  0.0000000E+00;
  2.2000000E+00;  9.9999998E-03; -2.0000000E-02;965;  0.0000000E+00;  0.0000000E+00;  0.0000000E+00;  1.0000000E+03;  4.0000001E-01;  0.0000000E+00;0;  0.0000000E+00;  0.0000000E+00;  0.0000000E+00;0;  0.0000000E+00;  1.0000000E+04;  0.0000000E+00;  0.0000000E+00;  1.0000000E+04;  0.0000000E+00;  1.0000000E+04;  0.0000000E+00;  0.0000000E+00;  0.0000000E+00;  0.0000000E+00;
  2.2000000E+00;  9.9999998E-03;  0.0000000E+00;966;  0.0000000E+00;  0.0000000E+00;  0.0000000E+00;  1.0000000E+03;  4.0000001E-01;  0.0000000E+00;0;  0.0000000E+00;  0.0000000E+00;  0.0000000E+00;0;  0.0000000E+00;  1.0000000E+04;  0.0000000E+00;  0.0000000E+00;  1.0000000E+04;  0.0000000E+00;  1.0000000E+04;  0.0000000E+00;  0.0000000E+00;  0.0000000E+00;  0.0000000E+00;
  2.2000000E+00;  9.9999998E-03;  2.0000000E-02;967;  0.0000000E+00;  0.0000000E+00;  0.0000000E+00;  1.0000000E+03;  4.0000001E-01;  0.0000000E+00;0;  0.0000000E+00;  0.0000000E+00;  0.0000000E+00;0;  0.0000000E+00;  1.0000000E+04;  0.0000000E+00;  0.0000000E+00;  1.0000000E+04;  0.0000000E+00;  1.0000000E+04;  0.0000000E+00;  0.0000000E+00;  0.0000000E+00;  0.0000000E+00;
  2.2000000E+00;  9.9999998E-03;  3.9999999E-02;968;  0.0000000E+00;  0.0000000E+00;  0.0000000E+00;  1.0000000E+03;  4.0000001E-01;  0.0000000E+00;0;  0.0000000E+00;  0.0000000E+00;  0.0000000E+00;0;  0.0000000E+00;  1.0000000E+04;  0.0000000E+00;  0.0000000E+00;  1.0000000E+04;  0.0000000E+00;  1.0000000E+04;  0.0000000E+00;  0.0000000E+00;  0.0000000E+00;  0.0000000E+00;
  2.2000000E+00;  9.9999998E-03;  5.9999999E-02;969;  0.0000000E+00;  0.0000000E+00;  0.0000000E+00;  1.0000000E+03;  4.0000001E-01;  0.0000000E+00;0;  0.0000000E+00;  0.0000000E+00;  0.0000000E+00;0;  0.0000000E+00;  1.0000000E+04;  0.0000000E+00;  0.0000000E+00;  1.0000000E+04;  0.0000000E+00;  1.0000000E+04;  0.0000000E+00;  0.0000000E+00;  0.0000000E+00;  0.0000000E+00;
  2.2000000E+00;  9.9999998E-03;  7.9999998E-02;970;  0.0000000E+00;  0.0000000E+00;  0.0000000E+00;  1.0000000E+03;  4.0000001E-01;  0.0000000E+00;0;  0.0000000E+00;  0.0000000E+00;  0.0000000E+00;0;  0.0000000E+00;  1.0000000E+04;  0.0000000E+00;  0.0000000E+00;  1.0000000E+04;  0.0000000E+00;  1.0000000E+04;  0.0000000E+00;  0.0000000E+00;  0.0000000E+00;  0.0000000E+00;
  2.2000000E+00;  9.9999998E-03;  1.0000000E-01;971;  0.0000000E+00;  0.0000000E+00;  0.0000000E+00;  1.0000000E+03;  4.0000001E-01;  0.0000000E+00;0;  0.0000000E+00;  0.0000000E+00;  0.0000000E+00;0;  0.0000000E+00;  1.0000000E+04;  0.0000000E+00;  0.0000000E+00;  1.0000000E+04;  0.0000000E+00;  1.0000000E+04;  0.0000000E+00;  0.0000000E+00;  0.0000000E+00;  0.0000000E+00;
  2.2000000E+00;  9.9999998E-03;  1.2000000E-01;972;  0.0000000E+00;  0.0000000E+00;  0.0000000E+00;  1.0000000E+03;  4.0000001E-01;  0.0000000E+00;0;  0.0000000E+00;  0.0000000E+00;  0.0000000E+00;0;  0.0000000E+00;  1.0000000E+04;  0.0000000E+00;  0.0000000E+00;  1.0000000E+04;  0.0000000E+00;  1.0000000E+04;  0.0000000E+00;  0.0000000E+00;  0.0000000E+00;  0.0000000E+00;
  2.2000000E+00;  9.9999998E-03;  1.4000000E-01;973;  0.0000000E+00;  0.0000000E+00;  0.0000000E+00;  1.0000000E+03;  4.0000001E-01;  0.0000000E+00;0;  0.0000000E+00;  0.0000000E+00;  0.0000000E+00;0;  0.0000000E+00;  1.0000000E+04;  0.0000000E+00;  0.0000000E+00;  1.0000000E+04;  0.0000000E+00;  1.0000000E+04;  0.0000000E+00;  0.0000000E+00;  0.0000000E+00;  0.0000000E+00;
  2.2000000E+00;  9.9999998E-03;  1.6000000E-01;974;  0.0000000E+00;  0.0000000E+00;  0.0000000E+00;  1.0000000E+03;  4.0000001E-01;  0.0000000E+00;0;  0.0000000E+00;  0.0000000E+00;  0.0000000E+00;0;  0.0000000E+00;  1.0000000E+04;  0.0000000E+00;  0.0000000E+00;  1.0000000E+04;  0.0000000E+00;  1.0000000E+04;  0.0000000E+00;  0.0000000E+00;  0.0000000E+00;  0.0000000E+00;
  2.2000000E+00;  9.9999998E-03;  1.8000001E-01;975;  0.0000000E+00;  0.0000000E+00;  0.0000000E+00;  1.0000000E+03;  4.0000001E-01;  0.0000000E+00;0;  0.0000000E+00;  0.0000000E+00;  0.0000000E+00;0;  0.0000000E+00;  1.0000000E+04;  0.0000000E+00;  0.0000000E+00;  1.0000000E+04;  0.0000000E+00;  1.0000000E+04;  0.0000000E+00;  0.0000000E+00;  0.0000000E+00;  0.0000000E+00;
  2.2000000E+00;  9.9999998E-03;  2.0000000E-01;976;  0.0000000E+00;  0.0000000E+00;  0.0000000E+00;  1.0000000E+03;  4.0000001E-01;  0.0000000E+00;0;  0.0000000E+00;  0.0000000E+00;  0.0000000E+00;0;  0.0000000E+00;  1.0000000E+04;  0.0000000E+00;  0.0000000E+00;  1.0000000E+04;  0.0000000E+00;  1.0000000E+04;  0.0000000E+00;  0.0000000E+00;  0.0000000E+00;  0.0000000E+00;
  2.2000000E+00;  9.9999998E-03;  2.2000000E-01;977;  0.0000000E+00;  0.0000000E+00;  0.0000000E+00;  1.0000000E+03;  4.0000001E-01;  0.0000000E+00;0;  0.0000000E+00;  0.0000000E+00;  0.0000000E+00;0;  0.0000000E+00;  1.0000000E+04;  0.0000000E+00;  0.0000000E+00;  1.0000000E+04;  0.0000000E+00;  1.0000000E+04;  0.0000000E+00;  0.0000000E+00;  0.0000000E+00;  0.0000000E+00;
  2.2000000E+00;  9.9999998E-03;  2.3999999E-01;978;  0.0000000E+00;  0.0000000E+00;  0.0000000E+00;  1.0000000E+03;  4.0000001E-01;  0.0000000E+00;0;  0.0000000E+00;  0.0000000E+00;  0.0000000E+00;0;  0.0000000E+00;  1.0000000E+04;  0.0000000E+00;  0.0000000E+00;  1.0000000E+04;  0.0000000E+00;  1.0000000E+04;  0.0000000E+00;  0.0000000E+00;  0.0000000E+00;  0.0000000E+00;
  2.2000000E+00;  9.9999998E-03;  2.5999999E-01;979;  0.0000000E+00;  0.0000000E+00;  0.0000000E+00;  1.0000000E+03;  4.0000001E-01;  0.0000000E+00;0;  0.0000000E+00;  0.0000000E+00;  0.0000000E+00;0;  0.0000000E+00;  1.0000000E+04;  0.0000000E+00;  0.0000000E+00;  1.0000000E+04;  0.0000000E+00;  1.0000000E+04;  0.0000000E+00;  0.0000000E+00;  0.0000000E+00;  0.0000000E+00;
  2.2000000E+00;  9.9999998E-03;  2.8000000E-01;980;  0.0000000E+00;  0.0000000E+00;  0.0000000E+00;  1.0000000E+03;  4.0000001E-01;  0.0000000E+00;0;  0.0000000E+00;  0.0000000E+00;  0.0000000E+00;0;  0.0000000E+00;  1.0000000E+04;  0.0000000E+00;  0.0000000E+00;  1.0000000E+04;  0.0000000E+00;  1.0000000E+04;  0.0000000E+00;  0.0000000E+00;  0.0000000E+00;  0.0000000E+00;
  2.2000000E+00;  9.9999998E-03;  3.0000001E-01;981;  0.0000000E+00;  0.0000000E+00;  0.0000000E+00;  1.0000000E+03;  4.0000001E-01;  0.0000000E+00;0;  0.0000000E+00;  0.0000000E+00;  0.0000000E+00;0;  0.0000000E+00;  1.0000000E+04;  0.0000000E+00;  0.0000000E+00;  1.0000000E+04;  0.0000000E+00;  1.0000000E+04;  0.0000000E+00;  0.0000000E+00;  0.0000000E+00;  0.0000000E+00;
  2.2000000E+00;  9.9999998E-03;  3.1999999E-01;982;  0.0000000E+00;  0.0000000E+00;  0.0000000E+00;  1.0000000E+03;  4.0000001E-01;  0.0000000E+00;0;  0.0000000E+00;  0.0000000E+00;  0.0000000E+00;0;  0.0000000E+00;  1.0000000E+04;  0.0000000E+00;  0.0000000E+00;  1.0000000E+04;  0.0000000E+00;  1.0000000E+04;  0.0000000E+00;  0.0000000E+00;  0.0000000E+00;  0.0000000E+00;
  2.2000000E+00;  9.9999998E-03;  3.4000000E-01;983;  0.0000000E+00;  0.0000000E+00;  0.0000000E+00;  1.0000000E+03;  4.0000001E-01;  0.0000000E+00;0;  0.0000000E+00;  0.0000000E+00;  0.0000000E+00;0;  0.0000000E+00;  1.0000000E+04;  0.0000000E+00;  0.0000000E+00;  1.0000000E+04;  0.0000000E+00;  1.0000000E+04;  0.0000000E+00;  0.0000000E+00;  0.0000000E+00;  0.0000000E+00;
  2.2000000E+00;  9.9999998E-03;  3.6000001E-01;984;  0.0000000E+00;  0.0000000E+00;  0.0000000E+00;  1.0000000E+03;  4.0000001E-01;  0.0000000E+00;0;  0.0000000E+00;  0.0000000E+00;  0.0000000E+00;0;  0.0000000E+00;  1.0000000E+04;  0.0000000E+00;  0.0000000E+00;  1.0000000E+04;  0.0000000E+00;  1.0000000E+04;  0.0000000E+00;  0.0000000E+00;  0.0000000E+00;  0.0000000E+00;
  2.2000000E+00;  9.9999998E-03;  3.8000000E-01;985;  0.0000000E+00;  0.0000000E+00;  0.0000000E+00;  1.0000000E+03;  4.0000001E-01;  0.0000000E+00;0;  0.0000000E+00;  0.0000000E+00;  0.0000000E+00;0;  0.0000000E+00;  1.0000000E+04;  0.0000000E+00;  0.0000000E+00;  1.0000000E+04;  0.0000000E+00;  1.0000000E+04;  0.0000000E+00;  0.0000000E+00;  0.0000000E+00;  0.0000000E+00;
  2.2200000E+00;  9.9999998E-03;  2.0000000E-02;986;  0.0000000E+00;  0.0000000E+00;  0.0000000E+00;  1.0000000E+03;  4.0000001E-01;  0.0000000E+00;0;  0.0000000E+00;  0.0000000E+00;  0.0000000E+00;0;  0.0000000E+00;  1.0000000E+04;  0.0000000E+00;  0.0000000E+00;  1.0000000E+04;  0.0000000E+00;  1.0000000E+04;  0.0000000E+00;  0.0000000E+00;  0.0000000E+00;  0.0000000E+00;
  2.2200000E+00;  9.9999998E-03;  3.9999999E-02;987;  0.0000000E+00;  0.0000000E+00;  0.0000000E+00;  1.0000000E+03;  4.0000001E-01;  0.0000000E+00;0;  0.0000000E+00;  0.0000000E+00;  0.0000000E+00;0;  0.0000000E+00;  1.0000000E+04;  0.0000000E+00;  0.0000000E+00;  1.0000000E+04;  0.0000000E+00;  1.0000000E+04;  0.0000000E+00;  0.0000000E+00;  0.0000000E+00;  0.0000000E+00;
  2.2200000E+00;  9.9999998E-03;  5.9999999E-02;988;  0.0000000E+00;  0.0000000E+00;  0.0000000E+00;  1.0000000E+03;  4.0000001E-01;  0.0000000E+00;0;  0.0000000E+00;  0.0000000E+00;  0.0000000E+00;0;  0.0000000E+00;  1.0000000E+04;  0.0000000E+00;  0.0000000E+00;  1.0000000E+04;  0.0000000E+00;  1.0000000E+04;  0.0000000E+00;  0.0000000E+00;  0.0000000E+00;  0.0000000E+00;
  2.2200000E+00;  9.9999998E-03;  7.9999998E-02;989;  0.0000000E+00;  0.0000000E+00;  0.0000000E+00;  1.0000000E+03;  4.0000001E-01;  0.0000000E+00;0;  0.0000000E+00;  0.0000000E+00;  0.0000000E+00;0;  0.0000000E+00;  1.0000000E+04;  0.0000000E+00;  0.0000000E+00;  1.0000000E+04;  0.0000000E+00;  1.0000000E+04;  0.0000000E+00;  0.0000000E+00;  0.0000000E+00;  0.0000000E+00;
  2.2200000E+00;  9.9999998E-03;  1.0000000E-01;990;  0.0000000E+00;  0.0000000E+00;  0.0000000E+00;  1.0000000E+03;  4.0000001E-01;  0.0000000E+00;0;  0.0000000E+00;  0.0000000E+00;  0.0000000E+00;0;  0.0000000E+00;  1.0000000E+04;  0.0000000E+00;  0.0000000E+00;  1.0000000E+04;  0.0000000E+00;  1.0000000E+04;  0.0000000E+00;  0.0000000E+00;  0.0000000E+00;  0.0000000E+00;
  2.2200000E+00;  9.9999998E-03;  1.2000000E-01;991;  0.0000000E+00;  0.0000000E+00;  0.0000000E+00;  1.0000000E+03;  4.0000001E-01;  0.0000000E+00;0;  0.0000000E+00;  0.0000000E+00;  0.0000000E+00;0;  0.0000000E+00;  1.0000000E+04;  0.0000000E+00;  0.0000000E+00;  1.0000000E+04;  0.0000000E+00;  1.0000000E+04;  0.0000000E+00;  0.0000000E+00;  0.0000000E+00;  0.0000000E+00;
  2.2200000E+00;  9.9999998E-03;  1.4000000E-01;992;  0.0000000E+00;  0.0000000E+00;  0.0000000E+00;  1.0000000E+03;  4.0000001E-01;  0.0000000E+00;0;  0.0000000E+00;  0.0000000E+00;  0.0000000E+00;0;  0.0000000E+00;  1.0000000E+04;  0.0000000E+00;  0.0000000E+00;  1.0000000E+04;  0.0000000E+00;  1.0000000E+04;  0.0000000E+00;  0.0000000E+00;  0.0000000E+00;  0.0000000E+00;
  2.2200000E+00;  9.9999998E-03;  1.6000000E-01;993;  0.0000000E+00;  0.0000000E+00;  0.0000000E+00;  1.0000000E+03;  4.0000001E-01;  0.0000000E+00;0;  0.0000000E+00;  0.0000000E+00;  0.0000000E+00;0;  0.0000000E+00;  1.0000000E+04;  0.0000000E+00;  0.0000000E+00;  1.0000000E+04;  0.0000000E+00;  1.0000000E+04;  0.0000000E+00;  0.0000000E+00;  0.0000000E+00;  0.0000000E+00;
  2.2200000E+00;  9.9999998E-03;  1.8000001E-01;994;  0.0000000E+00;  0.0000000E+00;  0.0000000E+00;  1.0000000E+03;  4.0000001E-01;  0.0000000E+00;0;  0.0000000E+00;  0.0000000E+00;  0.0000000E+00;0;  0.0000000E+00;  1.0000000E+04;  0.0000000E+00;  0.0000000E+00;  1.0000000E+04;  0.0000000E+00;  1.0000000E+04;  0.0000000E+00;  0.0000000E+00;  0.0000000E+00;  0.0000000E+00;
  2.2200000E+00;  9.9999998E-03;  2.0000000E-01;995;  0.0000000E+00;  0.0000000E+00;  0.0000000E+00;  1.0000000E+03;  4.0000001E-01;  0.0000000E+00;0;  0.0000000E+00;  0.0000000E+00;  0.0000000E+00;0;  0.0000000E+00;  1.0000000E+04;  0.0000000E+00;  0.0000000E+00;  1.0000000E+04;  0.0000000E+00;  1.0000000E+04;  0.0000000E+00;  0.0000000E+00;  0.0000000E+00;  0.0000000E+00;
  2.2200000E+00;  9.9999998E-03;  2.2000000E-01;996;  0.0000000E+00;  0.0000000E+00;  0.0000000E+00;  1.0000000E+03;  4.0000001E-01;  0.0000000E+00;0;  0.0000000E+00;  0.0000000E+00;  0.0000000E+00;0;  0.0000000E+00;  1.0000000E+04;  0.0000000E+00;  0.0000000E+00;  1.0000000E+04;  0.0000000E+00;  1.0000000E+04;  0.0000000E+00;  0.0000000E+00;  0.0000000E+00;  0.0000000E+00;
  2.2200000E+00;  9.9999998E-03;  2.3999999E-01;997;  0.0000000E+00;  0.0000000E+00;  0.0000000E+00;  1.0000000E+03;  4.0000001E-01;  0.0000000E+00;0;  0.0000000E+00;  0.0000000E+00;  0.0000000E+00;0;  0.0000000E+00;  1.0000000E+04;  0.0000000E+00;  0.0000000E+00;  1.0000000E+04;  0.0000000E+00;  1.0000000E+04;  0.0000000E+00;  0.0000000E+00;  0.0000000E+00;  0.0000000E+00;
  2.2200000E+00;  9.9999998E-03;  2.5999999E-01;998;  0.0000000E+00;  0.0000000E+00;  0.0000000E+00;  1.0000000E+03;  4.0000001E-01;  0.0000000E+00;0;  0.0000000E+00;  0.0000000E+00;  0.0000000E+00;0;  0.0000000E+00;  1.0000000E+04;  0.0000000E+00;  0.0000000E+00;  1.0000000E+04;  0.0000000E+00;  1.0000000E+04;  0.0000000E+00;  0.0000000E+00;  0.0000000E+00;  0.0000000E+00;
  2.2200000E+00;  9.9999998E-03;  2.8000000E-01;999;  0.0000000E+00;  0.0000000E+00;  0.0000000E+00;  1.0000000E+03;  4.0000001E-01;  0.0000000E+00;0;  0.0000000E+00;  0.0000000E+00;  0.0000000E+00;0;  0.0000000E+00;  1.0000000E+04;  0.0000000E+00;  0.0000000E+00;  1.0000000E+04;  0.0000000E+00;  1.0000000E+04;  0.0000000E+00;  0.0000000E+00;  0.0000000E+00;  0.0000000E+00;
  2.2200000E+00;  9.9999998E-03;  3.0000001E-01;1000;  0.0000000E+00;  0.0000000E+00;  0.0000000E+00;  1.0000000E+03;  4.0000001E-01;  0.0000000E+00;0;  0.0000000E+00;  0.0000000E+00;  0.0000000E+00;0;  0.0000000E+00;  1.0000000E+04;  0.0000000E+00;  0.0000000E+00;  1.0000000E+04;  0.0000000E+00;  1.0000000E+04;  0.0000000E+00;  0.0000000E+00;  0.0000000E+00;  0.0000000E+00;
  2.2200000E+00;  9.9999998E-03;  3.1999999E-01;1001;  0.0000000E+00;  0.0000000E+00;  0.0000000E+00;  1.0000000E+03;  4.0000001E-01;  0.0000000E+00;0;  0.0000000E+00;  0.0000000E+00;  0.0000000E+00;0;  0.0000000E+00;  1.0000000E+04;  0.0000000E+00;  0.0000000E+00;  1.0000000E+04;  0.0000000E+00;  1.0000000E+04;  0.0000000E+00;  0.0000000E+00;  0.0000000E+00;  0.0000000E+00;
  2.2200000E+00;  9.9999998E-03;  3.4000000E-01;1002;  0.0000000E+00;  0.0000000E+00;  0.0000000E+00;  1.0000000E+03;  4.0000001E-01;  0.0000000E+00;0;  0.0000000E+00;  0.0000000E+00;  0.0000000E+00;0;  0.0000000E+00;  1.0000000E+04;  0.0000000E+00;  0.0000000E+00;  1.0000000E+04;  0.0000000E+00;  1.0000000E+04;  0.0000000E+00;  0.0000000E+00;  0.0000000E+00;  0.0000000E+00;
  2.2200000E+00;  9.9999998E-03;  3.6000001E-01;1003;  0.0000000E+00;  0.0000000E+00;  0.0000000E+00;  1.0000000E+03;  4.0000001E-01;  0.0000000E+00;0;  0.0000000E+00;  0.0000000E+00;  0.0000000E+00;0;  0.0000000E+00;  1.0000000E+04;  0.0000000E+00;  0.0000000E+00;  1.0000000E+04;  0.0000000E+00;  1.0000000E+04;  0.0000000E+00;  0.0000000E+00;  0.0000000E+00;  0.0000000E+00;
  2.2200000E+00;  9.9999998E-03;  3.8000000E-01;1004;  0.0000000E+00;  0.0000000E+00;  0.0000000E+00;  1.0000000E+03;  4.0000001E-01;  0.0000000E+00;0;  0.0000000E+00;  0.0000000E+00;  0.0000000E+00;0;  0.0000000E+00;  1.0000000E+04;  0.0000000E+00;  0.0000000E+00;  1.0000000E+04;  0.0000000E+00;  1.0000000E+04;  0.0000000E+00;  0.0000000E+00;  0.0000000E+00;  0.0000000E+00;
  2.2400000E+00;  9.9999998E-03;  1.2000000E-01;1005;  0.0000000E+00;  0.0000000E+00;  0.0000000E+00;  1.0000000E+03;  4.0000001E-01;  0.0000000E+00;0;  0.0000000E+00;  0.0000000E+00;  0.0000000E+00;0;  0.0000000E+00;  1.0000000E+04;  0.0000000E+00;  0.0000000E+00;  1.0000000E+04;  0.0000000E+00;  1.0000000E+04;  0.0000000E+00;  0.0000000E+00;  0.0000000E+00;  0.0000000E+00;
  2.2400000E+00;  9.9999998E-03;  1.4000000E-01;1006;  0.0000000E+00;  0.0000000E+00;  0.0000000E+00;  1.0000000E+03;  4.0000001E-01;  0.0000000E+00;0;  0.0000000E+00;  0.0000000E+00;  0.0000000E+00;0;  0.0000000E+00;  1.0000000E+04;  0.0000000E+00;  0.0000000E+00;  1.0000000E+04;  0.0000000E+00;  1.0000000E+04;  0.0000000E+00;  0.0000000E+00;  0.0000000E+00;  0.0000000E+00;
  2.2400000E+00;  9.9999998E-03;  1.6000000E-01;1007;  0.0000000E+00;  0.0000000E+00;  0.0000000E+00;  1.0000000E+03;  4.0000001E-01;  0.0000000E+00;0;  0.0000000E+00;  0.0000000E+00;  0.0000000E+00;0;  0.0000000E+00;  1.0000000E+04;  0.0000000E+00;  0.0000000E+00;  1.0000000E+04;  0.0000000E+00;  1.0000000E+04;  0.0000000E+00;  0.0000000E+00;  0.0000000E+00;  0.0000000E+00;
  2.2400000E+00;  9.9999998E-03;  1.8000001E-01;1008;  0.0000000E+00;  0.0000000E+00;  0.0000000E+00;  1.0000000E+03;  4.0000001E-01;  0.0000000E+00;0;  0.0000000E+00;  0.0000000E+00;  0.0000000E+00;0;  0.0000000E+00;  1.0000000E+04;  0.0000000E+00;  0.0000000E+00;  1.0000000E+04;  0.0000000E+00;  1.0000000E+04;  0.0000000E+00;  0.0000000E+00;  0.0000000E+00;  0.0000000E+00;
  2.2400000E+00;  9.9999998E-03;  2.0000000E-01;1009;  0.0000000E+00;  0.0000000E+00;  0.0000000E+00;  1.0000000E+03;  4.0000001E-01;  0.0000000E+00;0;  0.0000000E+00;  0.0000000E+00;  0.0000000E+00;0;  0.0000000E+00;  1.0000000E+04;  0.0000000E+00;  0.0000000E+00;  1.0000000E+04;  0.0000000E+00;  1.0000000E+04;  0.0000000E+00;  0.0000000E+00;  0.0000000E+00;  0.0000000E+00;
  2.2400000E+00;  9.9999998E-03;  2.2000000E-01;1010;  0.0000000E+00;  0.0000000E+00;  0.0000000E+00;  1.0000000E+03;  4.0000001E-01;  0.0000000E+00;0;  0.0000000E+00;  0.0000000E+00;  0.0000000E+00;0;  0.0000000E+00;  1.0000000E+04;  0.0000000E+00;  0.0000000E+00;  1.0000000E+04;  0.0000000E+00;  1.0000000E+04;  0.0000000E+00;  0.0000000E+00;  0.0000000E+00;  0.0000000E+00;
  2.2400000E+00;  9.9999998E-03;  2.3999999E-01;1011;  0.0000000E+00;  0.0000000E+00;  0.0000000E+00;  1.0000000E+03;  4.0000001E-01;  0.0000000E+00;0;  0.0000000E+00;  0.0000000E+00;  0.0000000E+00;0;  0.0000000E+00;  1.0000000E+04;  0.0000000E+00;  0.0000000E+00;  1.0000000E+04;  0.0000000E+00;  1.0000000E+04;  0.0000000E+00;  0.0000000E+00;  0.0000000E+00;  0.0000000E+00;
  2.2400000E+00;  9.9999998E-03;  2.5999999E-01;1012;  0.0000000E+00;  0.0000000E+00;  0.0000000E+00;  1.0000000E+03;  4.0000001E-01;  0.0000000E+00;0;  0.0000000E+00;  0.0000000E+00;  0.0000000E+00;0;  0.0000000E+00;  1.0000000E+04;  0.0000000E+00;  0.0000000E+00;  1.0000000E+04;  0.0000000E+00;  1.0000000E+04;  0.0000000E+00;  0.0000000E+00;  0.0000000E+00;  0.0000000E+00;
  2.2400000E+00;  9.9999998E-03;  2.8000000E-01;1013;  0.0000000E+00;  0.0000000E+00;  0.0000000E+00;  1.0000000E+03;  4.0000001E-01;  0.0000000E+00;0;  0.0000000E+00;  0.0000000E+00;  0.0000000E+00;0;  0.0000000E+00;  1.0000000E+04;  0.0000000E+00;  0.0000000E+00;  1.0000000E+04;  0.0000000E+00;  1.0000000E+04;  0.0000000E+00;  0.0000000E+00;  0.0000000E+00;  0.0000000E+00;
  2.2400000E+00;  9.9999998E-03;  3.0000001E-01;1014;  0.0000000E+00;  0.0000000E+00;  0.0000000E+00;  1.0000000E+03;  4.0000001E-01;  0.0000000E+00;0;  0.0000000E+00;  0.0000000E+00;  0.0000000E+00;0;  0.0000000E+00;  1.0000000E+04;  0.0000000E+00;  0.0000000E+00;  1.0000000E+04;  0.0000000E+00;  1.0000000E+04;  0.0000000E+00;  0.0000000E+00;  0.0000000E+00;  0.0000000E+00;
  2.2400000E+00;  9.9999998E-03;  3.1999999E-01;1015;  0.0000000E+00;  0.0000000E+00;  0.0000000E+00;  1.0000000E+03;  4.0000001E-01;  0.0000000E+00;0;  0.0000000E+00;  0.0000000E+00;  0.0000000E+00;0;  0.0000000E+00;  1.0000000E+04;  0.0000000E+00;  0.0000000E+00;  1.0000000E+04;  0.0000000E+00;  1.0000000E+04;  0.0000000E+00;  0.0000000E+00;  0.0000000E+00;  0.0000000E+00;
  2.2400000E+00;  9.9999998E-03;  3.4000000E-01;1016;  0.0000000E+00;  0.0000000E+00;  0.0000000E+00;  1.0000000E+03;  4.0000001E-01;  0.0000000E+00;0;  0.0000000E+00;  0.0000000E+00;  0.0000000E+00;0;  0.0000000E+00;  1.0000000E+04;  0.0000000E+00;  0.0000000E+00;  1.0000000E+04;  0.0000000E+00;  1.0000000E+04;  0.0000000E+00;  0.0000000E+00;  0.0000000E+00;  0.0000000E+00;
  2.2400000E+00;  9.9999998E-03;  3.6000001E-01;1017;  0.0000000E+00;  0.0000000E+00;  0.0000000E+00;  1.0000000E+03;  4.0000001E-01;  0.0000000E+00;0;  0.0000000E+00;  0.0000000E+00;  0.0000000E+00;0;  0.0000000E+00;  1.0000000E+04;  0.0000000E+00;  0.0000000E+00;  1.0000000E+04;  0.0000000E+00;  1.0000000E+04;  0.0000000E+00;  0.0000000E+00;  0.0000000E+00;  0.0000000E+00;
  2.2400000E+00;  9.9999998E-03;  3.8000000E-01;1018;  0.0000000E+00;  0.0000000E+00;  0.0000000E+00;  1.0000000E+03;  4.0000001E-01;  0.0000000E+00;0;  0.0000000E+00;  0.0000000E+00;  0.0000000E+00;0;  0.0000000E+00;  1.0000000E+04;  0.0000000E+00;  0.0000000E+00;  1.0000000E+04;  0.0000000E+00;  1.0000000E+04;  0.0000000E+00;  0.0000000E+00;  0.0000000E+00;  0.0000000E+00;
  2.2600000E+00;  9.9999998E-03;  2.2000000E-01;1019;  0.0000000E+00;  0.0000000E+00;  0.0000000E+00;  1.0000000E+03;  4.0000001E-01;  0.0000000E+00;0;  0.0000000E+00;  0.0000000E+00;  0.0000000E+00;0;  0.0000000E+00;  1.0000000E+04;  0.0000000E+00;  0.0000000E+00;  1.0000000E+04;  0.0000000E+00;  1.0000000E+04;  0.0000000E+00;  0.0000000E+00;  0.0000000E+00;  0.0000000E+00;
  2.2600000E+00;  9.9999998E-03;  2.3999999E-01;1020;  0.0000000E+00;  0.0000000E+00;  0.0000000E+00;  1.0000000E+03;  4.0000001E-01;  0.0000000E+00;0;  0.0000000E+00;  0.0000000E+00;  0.0000000E+00;0;  0.0000000E+00;  1.0000000E+04;  0.0000000E+00;  0.0000000E+00;  1.0000000E+04;  0.0000000E+00;  1.0000000E+04;  0.0000000E+00;  0.0000000E+00;  0.0000000E+00;  0.0000000E+00;
  2.2600000E+00;  9.9999998E-03;  2.5999999E-01;1021;  0.0000000E+00;  0.0000000E+00;  0.0000000E+00;  1.0000000E+03;  4.0000001E-01;  0.0000000E+00;0;  0.0000000E+00;  0.0000000E+00;  0.0000000E+00;0;  0.0000000E+00;  1.0000000E+04;  0.0000000E+00;  0.0000000E+00;  1.0000000E+04;  0.0000000E+00;  1.0000000E+04;  0.0000000E+00;  0.0000000E+00;  0.0000000E+00;  0.0000000E+00;
  2.2600000E+00;  9.9999998E-03;  2.8000000E-01;1022;  0.0000000E+00;  0.0000000E+00;  0.0000000E+00;  1.0000000E+03;  4.0000001E-01;  0.0000000E+00;0;  0.0000000E+00;  0.0000000E+00;  0.0000000E+00;0;  0.0000000E+00;  1.0000000E+04;  0.0000000E+00;  0.0000000E+00;  1.0000000E+04;  0.0000000E+00;  1.0000000E+04;  0.0000000E+00;  0.0000000E+00;  0.0000000E+00;  0.0000000E+00;
  2.2600000E+00;  9.9999998E-03;  3.0000001E-01;1023;  0.0000000E+00;  0.0000000E+00;  0.0000000E+00;  1.0000000E+03;  4.0000001E-01;  0.0000000E+00;0;  0.0000000E+00;  0.0000000E+00;  0.0000000E+00;0;  0.0000000E+00;  1.0000000E+04;  0.0000000E+00;  0.0000000E+00;  1.0000000E+04;  0.0000000E+00;  1.0000000E+04;  0.0000000E+00;  0.0000000E+00;  0.0000000E+00;  0.0000000E+00;
  2.2600000E+00;  9.9999998E-03;  3.1999999E-01;1024;  0.0000000E+00;  0.0000000E+00;  0.0000000E+00;  1.0000000E+03;  4.0000001E-01;  0.0000000E+00;0;  0.0000000E+00;  0.0000000E+00;  0.0000000E+00;0;  0.0000000E+00;  1.0000000E+04;  0.0000000E+00;  0.0000000E+00;  1.0000000E+04;  0.0000000E+00;  1.0000000E+04;  0.0000000E+00;  0.0000000E+00;  0.0000000E+00;  0.0000000E+00;
  2.2600000E+00;  9.9999998E-03;  3.4000000E-01;1025;  0.0000000E+00;  0.0000000E+00;  0.0000000E+00;  1.0000000E+03;  4.0000001E-01;  0.0000000E+00;0;  0.0000000E+00;  0.0000000E+00;  0.0000000E+00;0;  0.0000000E+00;  1.0000000E+04;  0.0000000E+00;  0.0000000E+00;  1.0000000E+04;  0.0000000E+00;  1.0000000E+04;  0.0000000E+00;  0.0000000E+00;  0.0000000E+00;  0.0000000E+00;
  2.2600000E+00;  9.9999998E-03;  3.6000001E-01;1026;  0.0000000E+00;  0.0000000E+00;  0.0000000E+00;  1.0000000E+03;  4.0000001E-01;  0.0000000E+00;0;  0.0000000E+00;  0.0000000E+00;  0.0000000E+00;0;  0.0000000E+00;  1.0000000E+04;  0.0000000E+00;  0.0000000E+00;  1.0000000E+04;  0.0000000E+00;  1.0000000E+04;  0.0000000E+00;  0.0000000E+00;  0.0000000E+00;  0.0000000E+00;
  2.2600000E+00;  9.9999998E-03;  3.8000000E-01;1027;  0.0000000E+00;  0.0000000E+00;  0.0000000E+00;  1.0000000E+03;  4.0000001E-01;  0.0000000E+00;0;  0.0000000E+00;  0.0000000E+00;  0.0000000E+00;0;  0.0000000E+00;  1.0000000E+04;  0.0000000E+00;  0.0000000E+00;  1.0000000E+04;  0.0000000E+00;  1.0000000E+04;  0.0000000E+00;  0.0000000E+00;  0.0000000E+00;  0.0000000E+00;
  2.2800000E+00;  9.9999998E-03;  3.1999999E-01;1028;  0.0000000E+00;  0.0000000E+00;  0.0000000E+00;  1.0000000E+03;  4.0000001E-01;  0.0000000E+00;0;  0.0000000E+00;  0.0000000E+00;  0.0000000E+00;0;  0.0000000E+00;  1.0000000E+04;  0.0000000E+00;  0.0000000E+00;  1.0000000E+04;  0.0000000E+00;  1.0000000E+04;  0.0000000E+00;  0.0000000E+00;  0.0000000E+00;  0.0000000E+00;
  2.2800000E+00;  9.9999998E-03;  3.4000000E-01;1029;  0.0000000E+00;  0.0000000E+00;  0.0000000E+00;  1.0000000E+03;  4.0000001E-01;  0.0000000E+00;0;  0.0000000E+00;  0.0000000E+00;  0.0000000E+00;0;  0.0000000E+00;  1.0000000E+04;  0.0000000E+00;  0.0000000E+00;  1.0000000E+04;  0.0000000E+00;  1.0000000E+04;  0.0000000E+00;  0.0000000E+00;  0.0000000E+00;  0.0000000E+00;
  2.2800000E+00;  9.9999998E-03;  3.6000001E-01;1030;  0.0000000E+00;  0.0000000E+00;  0.0000000E+00;  1.0000000E+03;  4.0000001E-01;  0.0000000E+00;0;  0.0000000E+00;  0.0000000E+00;  0.0000000E+00;0;  0.0000000E+00;  1.0000000E+04;  0.0000000E+00;  0.0000000E+00;  1.0000000E+04;  0.0000000E+00;  1.0000000E+04;  0.0000000E+00;  0.0000000E+00;  0.0000000E+00;  0.0000000E+00;
 -3.2911705E-06;  9.9999998E-03; -2.8000128E-01;1031; -2.0615652E-03;  0.0000000E+00; -8.0606778E-04;  1.0000716E+03;  4.0000001E-01;  5.9356339E+01;3; -1.4732599E+00;  0.0000000E+00; -5.8551621E-01;0; -4.1214831E-02;  1.0001326E+04;  0.0000000E+00; -8.9264529E-07;  1.0000000E+04;  0.0000000E+00;  1.0000106E+04; -3.8078204E-02;  0.0000000E+00; -3.1366269E-03;  4.3134254E+01;
 -4.0104364E-06;  9.9999998E-03; -2.6000121E-01;1032; -2.5211794E-03;  0.0000000E+00; -7.7955000E-04;  1.0000854E+03;  4.0000001E-01;  7.0714035E+01;3; -1.7220774E+00;  0.0000000E+00; -5.4231882E-01;0; -4.9318932E-02;  1.0001667E+04;  0.0000000E+00; -3.5190922E-07;  1.0000000E+04;  0.0000000E+00;  1.0000046E+04; -4.7870964E-02;  0.0000000E+00; -1.4479669E-03;  1.4611714E+01;
 -4.6192649E-06;  9.9999998E-03; -2.4000111E-01;1033; -2.9123486E-03;  0.0000000E+00; -7.1031536E-04;  1.0000970E+03;  4.0000001E-01;  8.0392776E+01;3; -1.9289942E+00;  0.0000000E+00; -4.8246706E-01;0; -5.6053039E-02;  1.0001955E+04;  0.0000000E+00; -4.4493206E-08;  1.0000000E+04;  0.0000000E+00;  9.9999873E+03; -5.6317292E-02;  0.0000000E+00;  2.6425475E-04;  1.3903382E+01;
 -5.0951871E-06;  9.9999998E-03; -2.2000097E-01;1034; -3.2208695E-03;  0.0000000E+00; -6.1888935E-04;  1.0001062E+03;  4.0000001E-01;  8.7997498E+01;3; -2.0989532E+00;  0.0000000E+00; -4.1733992E-01;0; -6.1414380E-02;  1.0002184E+04;  0.0000000E+00;  3.8689041E-08;  1.0000000E+04;  0.0000000E+00;  9.9999404E+03; -6.3008428E-02;  0.0000000E+00;  1.5940490E-03;  3.5840061E+01;
 -5.4465490E-06;  9.9999998E-03; -2.0000079E-01;1035; -3.4489918E-03;  0.0000000E+00; -5.2041135E-04;  1.0001132E+03;  4.0000001E-01;  9.3725731E+01;3; -2.2333984E+00;  0.0000000E+00; -3.5459220E-01;0; -6.5556556E-02;  1.0002351E+04;  0.0000000E+00;  1.0402479E-08;  1.0000000E+04;  0.0000000E+00;  9.9999150E+03; -6.7949787E-02;  0.0000000E+00;  2.3932306E-03;  4.8832642E+01;
  1.9996747E-02;  9.9999998E-03; -3.0000168E-01;1060; -2.0023466E-03;  0.0000000E+00; -1.0482732E-03;  1.0000693E+03;  4.0000001E-01;  5.7381084E+01;3; -1.4119759E+00;  0.0000000E+00; -7.5520182E-01;0; -3.9294131E-02;  1.0001197E+04;  0.0000000E+00; -1.0837356E-06;  1.0000000E+04;  0.0000000E+00;  1.0000190E+04; -3.3873774E-02;  0.0000000E+00; -5.4203579E-03;  8.1625885E+01;
  1.9995432E-02;  9.9999998E-03; -2.8000155E-01;1061; -2.8324078E-03;  0.0000000E+00; -9.7275776E-04;  1.0000879E+03;  4.0000001E-01;  7.2788055E+01;3; -1.8580012E+00;  0.0000000E+00; -6.4739227E-01;0; -4.9835242E-02;  1.0001622E+04;  0.0000000E+00; -3.8756420E-07;  1.0000000E+04;  0.0000000E+00;  1.0000133E+04; -4.5876730E-02;  0.0000000E+00; -3.9585121E-03;  5.5466171E+01;
  1.9994307E-02;  9.9999998E-03; -2.6000154E-01;1062; -3.5467977E-03;  0.0000000E+00; -9.6946408E-04;  1.0001038E+03;  4.0000001E-01;  8.5923485E+01;3; -2.1882076E+00;  0.0000000E+00; -6.0922933E-01;0; -5.9011675E-02;  1.0002021E+04;  0.0000000E+00;  2.2289099E-07;  1.0000000E+04;  0.0000000E+00;  1.0000056E+04; -5.7260655E-02;  0.0000000E+00; -1.7510192E-03;  1.7625301E+01;
  1.9993396E-02;  9.9999998E-03; -2.4000144E-01;1063; -4.1272151E-03;  0.0000000E+00; -9.0870808E-04;  1.0001168E+03;  4.0000001E-01;  9.6688606E+01;3; -2.4409389E+00;  0.0000000E+00; -5.5349672E-01;0; -6.6541865E-02;  1.0002359E+04;  0.0000000E+00;  4.7638457E-07;  1.0000000E+04;  0.0000000E+00;  9.9999795E+03; -6.6975884E-02;  0.0000000E+00;  4.3402100E-04;  1.9350220E+01;
  1.9992709E-02;  9.9999998E-03; -2.2000127E-01;1064; -4.5690634E-03;  0.0000000E+00; -8.0893410E-04;  1.0001271E+03;  4.0000001E-01;  1.0528096E+02;3; -2.6415730E+00;  0.0000000E+00; -4.8836827E-01;0; -7.2454281E-02;  1.0002623E+04;  0.0000000E+00;  4.2265208E-07;  1.0000000E+04;  0.0000000E+00;  9.9999180E+03; -7.4568070E-02;  0.0000000E+00;  2.1137914E-03;  4.7449142E+01;
  1.9992217E-02;  9.9999998E-03; -2.0000106E-01;1065; -4.8864502E-03;  0.0000000E+00; -6.8965391E-04;  1.0001348E+03;  4.0000001E-01;  1.1160177E+02;3; -2.8005085E+00;  0.0000000E+00; -4.2168868E-01;0; -7.6960541E-02;  1.0002813E+04;  0.0000000E+00;  2.5240232E-07;  1.0000000E+04;  0.0000000E+00;  9.9998848E+03; -8.0079287E-02;  0.0000000E+00;  3.1187495E-03;  6.3907349E+01;
  3.9995454E-02;  9.9999998E-03; -3.0000186E-01;1091; -2.7717527E-03;  0.0000000E+00; -1.1323452E-03;  1.0000820E+03;  4.0000001E-01;  6.7948685E+01;3; -1.8473387E+00;  0.0000000E+00; -7.6568842E-01;0; -4.5589741E-02;  1.0001411E+04;  0.0000000E+00; -9.8277326E-07;  1.0000000E+04;  0.0000000E+00;  1.0000230E+04; -3.9138101E-02;  0.0000000E+00; -6.4516403E-03;  9.9417892E+01;
  3.9993636E-02;  9.9999998E-03; -2.8000179E-01;1092; -3.9108908E-03;  0.0000000E+00; -1.0796710E-03;  1.0001028E+03;  4.0000001E-01;  8.5232147E+01;3; -2.3835430E+00;  0.0000000E+00; -6.6122866E-01;0; -5.7327084E-02;  1.0001899E+04;  0.0000000E+00; -3.7333541E-07;  1.0000000E+04;  0.0000000E+00;  1.0000158E+04; -5.2765775E-02;  0.0000000E+00; -4.5613078E-03;  6.5149147E+01;
  3.9992075E-02;  9.9999998E-03; -2.6000175E-01;1093; -4.8944480E-03;  0.0000000E+00; -1.0622385E-03;  1.0001208E+03;  4.0000001E-01;  1.0014530E+02;3; -2.7648196E+00;  0.0000000E+00; -6.0591435E-01;0; -6.7441091E-02;  1.0002356E+04;  0.0000000E+00;  2.7299714E-07;  1.0000000E+04;  0.0000000E+00;  1.0000061E+04; -6.5515324E-02;  0.0000000E+00; -1.9257665E-03;  1.8873610E+01;
  3.9990809E-02;  9.9999998E-03; -2.4000162E-01;1094; -5.6968299E-03;  0.0000000E+00; -9.9970750E-04;  1.0001352E+03;  4.0000001E-01;  1.1199682E+02;3; -3.0542755E+00;  0.0000000E+00; -5.4936874E-01;0; -7.5582817E-02;  1.0002736E+04;  0.0000000E+00;  5.9058277E-07;  1.0000000E+04;  0.0000000E+00;  9.9999697E+03; -7.6201886E-02;  0.0000000E+00;  6.1906595E-04;  2.5280449E+01;
  3.9989866E-02;  9.9999998E-03; -2.2000144E-01;1095; -6.2969523E-03;  0.0000000E+00; -9.0509246E-04;  1.0001461E+03;  4.0000001E-01;  1.2098421E+02;3; -3.2825975E+00;  0.0000000E+00; -4.9382424E-01;0; -8.1827946E-02;  1.0003025E+04;  0.0000000E+00;  5.6542825E-07;  1.0000000E+04;  0.0000000E+00;  9.9998994E+03; -8.4377624E-02;  0.0000000E+00;  2.5496786E-03;  5.8313358E+01;
  3.9989207E-02;  9.9999998E-03; -2.0000122E-01;1096; -6.7211557E-03;  0.0000000E+00; -7.7931670E-04;  1.0001542E+03;  4.0000001E-01;  1.2779884E+02;3; -3.4675732E+00;  0.0000000E+00; -4.3239161E-01;0; -8.6470269E-02;  1.0003225E+04;  0.0000000E+00;  3.7818785E-07;  1.0000000E+04;  0.0000000E+00;  9.9998604E+03; -9.0162933E-02;  0.0000000E+00;  3.6926630E-03;  7.7312637E+01;
  5.9993852E-02;  9.9999998E-03; -3.0000198E-01;1122; -3.7150665E-03;  0.0000000E+00; -1.1727081E-03;  1.0000948E+03;  4.0000001E-01;  7.8615051E+01;3; -2.3748279E+00;  0.0000000E+00; -7.4771309E-01;0; -5.1561952E-02;  1.0001636E+04;  0.0000000E+00; -1.5773268E-05;  1.0000000E+04;  0.0000000E+00;  1.0000261E+04; -4.4435911E-02;  0.0000000E+00; -7.1260408E-03;  1.1282319E+02;
  5.9991438E-02;  9.9999998E-03; -2.8000188E-01;1123; -5.2106031E-03;  0.0000000E+00; -1.1031682E-03;  1.0001187E+03;  4.0000001E-01;  9.8268814E+01;3; -3.0047555E+00;  0.0000000E+00; -6.2532949E-01;0; -6.4553976E-02;  1.0002195E+04;  0.0000000E+00; -5.1922952E-06;  1.0000000E+04;  0.0000000E+00;  1.0000173E+04; -5.9648573E-02;  0.0000000E+00; -4.9054055E-03;  7.1493965E+01;
  5.9989400E-02;  9.9999998E-03; -2.6000184E-01;1124; -6.4787478E-03;  0.0000000E+00; -1.0906579E-03;  1.0001385E+03;  4.0000001E-01;  1.1476217E+02;3; -3.4229355E+00;  0.0000000E+00; -5.7145286E-01;0; -7.5634122E-02;  1.0002708E+04;  0.0000000E+00; -8.4318299E-07;  1.0000000E+04;  0.0000000E+00;  1.0000063E+04; -7.3672302E-02;  0.0000000E+00; -1.9618229E-03;  1.8053997E+01;
  5.9987761E-02;  9.9999998E-03; -2.4000172E-01;1125; -7.5039454E-03;  0.0000000E+00; -1.0341948E-03;  1.0001542E+03;  4.0000001E-01;  1.2779884E+02;3; -3.7342939E+00;  0.0000000E+00; -5.2144432E-01;0; -8.4373660E-02;  1.0003128E+04;  0.0000000E+00; -1.7835528E-07;  1.0000000E+04;  0.0000000E+00;  9.9999600E+03; -8.5179865E-02;  0.0000000E+00;  8.0620544E-04;  3.1682201E+01;
  5.9986554E-02;  9.9999998E-03; -2.2000155E-01;1126; -8.2671652E-03;  0.0000000E+00; -9.4163208E-04;  1.0001660E+03;  4.0000001E-01;  1.3747757E+02;3; -3.9860039E+00;  0.0000000E+00; -4.7447670E-01;0; -9.0884797E-02;  1.0003438E+04;  0.0000000E+00;  1.6372780E-07;  1.0000000E+04;  0.0000000E+00;  9.9998818E+03; -9.3749374E-02;  0.0000000E+00;  2.8645755E-03;  6.8086113E+01;
  5.9985723E-02;  9.9999998E-03; -2.0000131E-01;1127; -8.7966900E-03;  0.0000000E+00; -8.1621238E-04;  1.0001741E+03;  4.0000001E-01;  1.4429219E+02;3; -4.1947885E+00;  0.0000000E+00; -4.2175376E-01;0; -9.5556743E-02;  1.0003646E+04;  0.0000000E+00;  2.3519424E-07;  1.0000000E+04;  0.0000000E+00;  9.9998389E+03; -9.9615164E-02;  0.0000000E+00;  4.0584202E-03;  8.8425049E+01;
  7.9991944E-02;  9.9999998E-03; -3.0000213E-01;1153; -4.8126457E-03;  0.0000000E+00; -1.2036153E-03;  1.0001102E+03;  4.0000001E-01;  9.1256668E+01;3; -2.9888391E+00;  0.0000000E+00; -7.2897243E-01;0; -5.8290143E-02;  1.0001918E+04;  0.0000000E+00; -1.5049396E-03;  1.0000000E+04;  0.0000000E+00;  1.0000283E+04; -5.0826475E-02;  0.0000000E+00; -7.4636680E-03;  1.2226993E+02;
  7.9988852E-02;  9.9999998E-03; -2.8000194E-01;1154; -6.6992305E-03;  0.0000000E+00; -1.0848070E-03;  1.0001369E+03;  4.0000001E-01;  1.1337949E+02;3; -3.7185745E+00;  0.0000000E+00; -5.7388783E-01;0; -7.2637491E-02;  1.0002555E+04;  0.0000000E+00; -8.4348558E-04;  1.0000000E+04;  0.0000000E+00;  1.0000184E+04; -6.7630634E-02;  0.0000000E+00; -5.0068581E-03;  7.4680077E+01;
  7.9986297E-02;  9.9999998E-03; -2.6000190E-01;1155; -8.2660066E-03;  0.0000000E+00; -1.0686959E-03;  1.0001591E+03;  4.0000001E-01;  1.3174934E+02;3; -4.1722021E+00;  0.0000000E+00; -5.2071047E-01;0; -8.4724583E-02;  1.0003122E+04;  0.0000000E+00; -2.9334033E-04;  1.0000000E+04;  0.0000000E+00;  1.0000059E+04; -8.2847528E-02;  0.0000000E+00; -1.8770564E-03;  1.5295712E+01;
  7.9984285E-02;  9.9999998E-03; -2.4000177E-01;1156; -9.5135318E-03;  0.0000000E+00; -1.0157347E-03;  1.0001763E+03;  4.0000001E-01;  1.4606992E+02;3; -4.5025930E+00;  0.0000000E+00; -4.7805786E-01;0; -9.4096370E-02;  1.0003579E+04;  0.0000000E+00; -3.3196844E-05;  1.0000000E+04;  0.0000000E+00;  9.9999492E+03; -9.5077008E-02;  0.0000000E+00;  9.8064146E-04;  3.8555588E+01;
  7.9982817E-02;  9.9999998E-03; -2.2000158E-01;1157; -1.0427276E-02;  0.0000000E+00; -9.3123887E-04;  1.0001888E+03;  4.0000001E-01;  1.5644000E+02;3; -4.7718925E+00;  0.0000000E+00; -4.4232208E-01;0; -1.0089073E-01;  1.0003906E+04;  0.0000000E+00; -9.4345847E-07;  1.0000000E+04;  0.0000000E+00;  9.9998672E+03; -1.0394080E-01;  0.0000000E+00;  3.0500661E-03;  7.6862724E+01;
  7.9981834E-02;  9.9999998E-03; -2.0000134E-01;1158; -1.1052370E-02;  0.0000000E+00; -8.0966076E-04;  1.0001969E+03;  4.0000001E-01;  1.6315585E+02;3; -5.0030270E+00;  0.0000000E+00; -3.9892927E-01;0; -1.0556065E-01;  1.0004114E+04;  0.0000000E+00; -2.4257932E-07;  1.0000000E+04;  0.0000000E+00;  9.9998262E+03; -1.0977568E-01;  0.0000000E+00;  4.2150244E-03;  9.7448814E+01;
  9.9989668E-02;  9.9999998E-03; -3.0000231E-01;1184; -6.0883909E-03;  0.0000000E+00; -1.2471379E-03;  1.0001312E+03;  4.0000001E-01;  1.0863889E+02;3; -3.7063498E+00;  0.0000000E+00; -7.2302437E-01;0; -6.7788251E-02;  1.0002327E+04;  0.0000000E+00; -1.3400979E-02;  1.0000000E+04;  0.0000000E+00;  1.0000299E+04; -6.0215052E-02;  0.0000000E+00; -7.5731985E-03;  1.4620660E+02;
  9.9985816E-02;  9.9999998E-03; -2.8000200E-01;1185; -8.4016416E-03;  0.0000000E+00; -1.0425942E-03;  1.0001613E+03;  4.0000001E-01;  1.3362582E+02;3; -4.5459318E+00;  0.0000000E+00; -5.1585102E-01;0; -8.3379157E-02;  1.0003033E+04;  0.0000000E+00; -8.4786424E-03;  1.0000000E+04;  0.0000000E+00;  1.0000189E+04; -7.8432411E-02;  0.0000000E+00; -4.9467492E-03;  8.7254211E+01;
  9.9982716E-02;  9.9999998E-03; -2.6000190E-01;1186; -1.0274928E-02;  0.0000000E+00; -1.0078507E-03;  1.0001854E+03;  4.0000001E-01;  1.5357588E+02;3; -5.0328636E+00;  0.0000000E+00; -4.5809317E-01;0; -9.6153639E-02;  1.0003655E+04;  0.0000000E+00; -3.9045305E-03;  1.0000000E+04;  0.0000000E+00;  1.0000054E+04; -9.4438344E-02;  0.0000000E+00; -1.7152920E-03;  2.3030159E+01;
  9.9980310E-02;  9.9999998E-03; -2.4000175E-01;1187; -1.1738077E-02;  0.0000000E+00; -9.5659227E-04;  1.0002035E+03;  4.0000001E-01;  1.6858780E+02;3; -5.3778253E+00;  0.0000000E+00; -4.2341614E-01;0; -1.0587211E-01;  1.0004137E+04;  0.0000000E+00; -1.0739050E-03;  1.0000000E+04;  0.0000000E+00;  9.9999375E+03; -1.0699980E-01;  0.0000000E+00;  1.1276910E-03;  4.6379616E+01;
  9.9978603E-02;  9.9999998E-03; -2.2000156E-01;1188; -1.2790530E-02;  0.0000000E+00; -8.8440953E-04;  1.0002164E+03;  4.0000001E-01;  1.7935292E+02;3; -5.6629634E+00;  0.0000000E+00; -4.0051651E-01;0; -1.1280217E-01;  1.0004470E+04;  0.0000000E+00; -1.2053944E-04;  1.0000000E+04;  0.0000000E+00;  9.9998564E+03; -1.1591867E-01;  0.0000000E+00;  3.1164954E-03;  8.5091003E+01;
  9.9977478E-02;  9.9999998E-03; -2.0000133E-01;1189; -1.3496731E-02;  0.0000000E+00; -7.7365915E-04;  1.0002247E+03;  4.0000001E-01;  1.8616754E+02;3; -5.9122467E+00;  0.0000000E+00; -3.6971608E-01;0; -1.1741810E-01;  1.0004683E+04;  0.0000000E+00; -1.0536821E-06;  1.0000000E+04;  0.0000000E+00;  9.9998145E+03; -1.2161723E-01;  0.0000000E+00;  4.1991258E-03;  1.0518227E+02;
  1.1998691E-01;  9.9999998E-03; -3.0000257E-01;1215; -7.5895386E-03;  0.0000000E+00; -1.3421330E-03;  1.0001647E+03;  4.0000001E-01;  1.3648994E+02;3; -4.5471544E+00;  0.0000000E+00; -7.5635624E-01;0; -8.3053768E-02;  1.0002981E+04;  0.0000000E+00; -5.6763891E-02;  1.0000000E+04;  0.0000000E+00;  1.0000313E+04; -7.5443022E-02;  0.0000000E+00; -7.6107495E-03;  3.2603461E+02;
  1.1998221E-01;  9.9999998E-03; -2.8000206E-01;1216; -1.0370231E-02;  0.0000000E+00; -1.0075374E-03;  1.0001967E+03;  4.0000001E-01;  1.6295833E+02;3; -5.5054317E+00;  0.0000000E+00; -4.6760654E-01;0; -9.9378958E-02;  1.0003744E+04;  0.0000000E+00; -3.8837168E-02;  1.0000000E+04;  0.0000000E+00;  1.0000190E+04; -9.4523609E-02;  0.0000000E+00; -4.8553478E-03;  2.1672586E+02;
  1.1997852E-01;  9.9999998E-03; -2.6000187E-01;1217; -1.2555968E-02;  0.0000000E+00; -9.3239016E-04;  1.0002211E+03;  4.0000001E-01;  1.8310591E+02;3; -6.0178475E+00;  0.0000000E+00; -3.9293528E-01;0; -1.1174776E-01;  1.0004370E+04;  0.0000000E+00; -1.9506732E-02;  1.0000000E+04;  0.0000000E+00;  1.0000045E+04; -1.1021999E-01;  0.0000000E+00; -1.5277697E-03;  1.0233417E+02;
  1.1997573E-01;  9.9999998E-03; -2.4000172E-01;1218; -1.4227701E-02;  0.0000000E+00; -8.7930879E-04;  1.0002382E+03;  4.0000001E-01;  1.9732773E+02;3; -6.3678246E+00;  0.0000000E+00; -3.6510015E-01;0; -1.2085135E-01;  1.0004841E+04;  0.0000000E+00; -6.7646699E-03;  1.0000000E+04;  0.0000000E+00;  9.9999238E+03; -1.2211750E-01;  0.0000000E+00;  1.2661449E-03;  6.5596909E+01;
  1.1997379E-01;  9.9999998E-03; -2.2000155E-01;1219; -1.5410469E-02;  0.0000000E+00; -8.2046096E-04;  1.0002502E+03;  4.0000001E-01;  2.0730275E+02;3; -6.6650877E+00;  0.0000000E+00; -3.5427308E-01;0; -1.2729430E-01;  1.0005166E+04;  0.0000000E+00; -1.3471876E-03;  1.0000000E+04;  0.0000000E+00;  9.9998418E+03; -1.3041942E-01;  0.0000000E+00;  3.1251118E-03;  9.4549942E+01;
  1.1997255E-01;  9.9999998E-03; -2.0000131E-01;1220; -1.6185816E-02;  0.0000000E+00; -7.2807400E-04;  1.0002584E+03;  4.0000001E-01;  2.1401860E+02;3; -6.9292035E+00;  0.0000000E+00; -3.3884957E-01;0; -1.3156134E-01;  1.0005361E+04;  0.0000000E+00; -9.5029223E-05;  1.0000000E+04;  0.0000000E+00;  9.9998027E+03; -1.3565639E-01;  0.0000000E+00;  4.0950538E-03;  1.1331613E+02;
  1.3998353E-01;  9.9999998E-03; -3.0000299E-01;1246; -9.3829334E-03;  0.0000000E+00; -1.5328454E-03;  1.0002183E+03;  4.0000001E-01;  1.8083437E+02;3; -5.5369949E+00;  0.0000000E+00; -8.5631466E-01;0; -1.0786860E-01;  1.0004034E+04;  0.0000000E+00; -1.6653523E-01;  1.0000000E+04;  0.0000000E+00;  1.0000335E+04; -1.0013759E-01;  0.0000000E+00; -7.7310028E-03;  8.8499176E+02;
  1.3997789E-01;  9.9999998E-03; -2.8000221E-01;1247; -1.2665206E-02;  0.0000000E+00; -1.0244547E-03;  1.0002500E+03;  4.0000001E-01;  2.0710522E+02;3; -6.6082673E+00;  0.0000000E+00; -4.5366192E-01;0; -1.2357808E-01;  1.0004802E+04;  0.0000000E+00; -1.1700768E-01;  1.0000000E+04;  0.0000000E+00;  1.0000200E+04; -1.1868235E-01;  0.0000000E+00; -4.8957234E-03;  6.1854712E+02;
  1.3997360E-01;  9.9999998E-03; -2.6000193E-01;1248; -1.5164148E-02;  0.0000000E+00; -8.8977267E-04;  1.0002696E+03;  4.0000001E-01;  2.2340106E+02;3; -7.1276426E+00;  0.0000000E+00; -3.4832907E-01;0; -1.3333131E-01;  1.0005360E+04;  0.0000000E+00; -6.1083112E-02;  1.0000000E+04;  0.0000000E+00;  1.0000035E+04; -1.3197775E-01;  0.0000000E+00; -1.3535663E-03;  3.2065594E+02;
  1.3997039E-01;  9.9999998E-03; -2.4000171E-01;1249; -1.7052146E-02;  0.0000000E+00; -8.1503415E-04;  1.0002828E+03;  4.0000001E-01;  2.3426494E+02;3; -7.4754715E+00;  0.0000000E+00; -3.1732893E-01;0; -1.3996305E-01;  1.0005753E+04;  0.0000000E+00; -2.3132611E-02;  1.0000000E+04;  0.0000000E+00;  9.9999033E+03; -1.4144036E-01;  0.0000000E+00;  1.4773225E-03;  1.3949857E+02;
  1.3996823E-01;  9.9999998E-03; -2.2000155E-01;1250; -1.8353049E-02;  0.0000000E+00; -7.7643874E-04;  1.0002919E+03;  4.0000001E-01;  2.4186966E+02;3; -7.7743988E+00;  0.0000000E+00; -3.1817842E-01;0; -1.4471866E-01;  1.0006016E+04;  0.0000000E+00; -5.7305219E-03;  1.0000000E+04;  0.0000000E+00;  9.9998213E+03; -1.4795151E-01;  0.0000000E+00;  3.2328572E-03;  1.1217308E+02;
  1.3996689E-01;  9.9999998E-03; -2.0000133E-01;1251; -1.9188998E-02;  0.0000000E+00; -7.0369599E-04;  1.0002979E+03;  4.0000001E-01;  2.4680780E+02;3; -8.0489817E+00;  0.0000000E+00; -3.1786305E-01;0; -1.4800857E-01;  1.0006176E+04;  0.0000000E+00; -7.2186929E-04;  1.0000000E+04;  0.0000000E+00;  9.9997861E+03; -1.5208997E-01;  0.0000000E+00;  4.0814043E-03;  1.2548395E+02;
  1.5997925E-01;  9.9999998E-03; -3.0000350E-01;1277; -1.1597216E-02;  0.0000000E+00; -1.7586433E-03;  1.0003001E+03;  4.0000001E-01;  2.4868428E+02;3; -6.7425499E+00;  0.0000000E+00; -9.7417831E-01;0; -1.4587641E-01;  1.0005640E+04;  0.0000000E+00; -3.8259807E-01;  1.0000000E+04;  0.0000000E+00;  1.0000364E+04; -1.3772143E-01;  0.0000000E+00; -8.1549771E-03;  2.0164873E+03;
  1.5997267E-01;  9.9999998E-03; -2.8000247E-01;1278; -1.5348159E-02;  0.0000000E+00; -1.1086097E-03;  1.0003258E+03;  4.0000001E-01;  2.6991824E+02;3; -7.8657036E+00;  0.0000000E+00; -4.7877312E-01;0; -1.5803884E-01;  1.0006302E+04;  0.0000000E+00; -2.6672414E-01;  1.0000000E+04;  0.0000000E+00;  1.0000210E+04; -1.5280716E-01;  0.0000000E+00; -5.2316748E-03;  1.4041316E+03;
  1.5996777E-01;  9.9999998E-03; -2.6000211E-01;1279; -1.8145029E-02;  0.0000000E+00; -9.2679082E-04;  1.0003342E+03;  4.0000001E-01;  2.7683163E+02;3; -8.3551550E+00;  0.0000000E+00; -3.4833002E-01;0; -1.6177022E-01;  1.0006672E+04;  0.0000000E+00; -1.4016150E-01;  1.0000000E+04;  0.0000000E+00;  1.0000015E+04; -1.6060083E-01;  0.0000000E+00; -1.1694045E-03;  7.3701996E+02;
  1.5996417E-01;  9.9999998E-03; -2.4000184E-01;1280; -2.0252457E-02;  0.0000000E+00; -8.2539045E-04;  1.0003381E+03;  4.0000001E-01;  2.8009079E+02;3; -8.6915960E+00;  0.0000000E+00; -3.0317116E-01;0; -1.6342108E-01;  1.0006895E+04;  0.0000000E+00; -5.4928549E-02;  1.0000000E+04;  0.0000000E+00;  9.9998643E+03; -1.6536495E-01;  0.0000000E+00;  1.9438674E-03;  3.0287811E+02;
  1.5996179E-01;  9.9999998E-03; -2.2000167E-01;1281; -2.1674693E-02;  0.0000000E+00; -7.9975568E-04;  1.0003411E+03;  4.0000001E-01;  2.8265863E+02;3; -8.9864092E+00;  0.0000000E+00; -3.1585014E-01;0; -1.6496204E-01;  1.0007046E+04;  0.0000000E+00; -1.5057330E-02;  1.0000000E+04;  0.0000000E+00;  9.9997764E+03; -1.6868012E-01;  0.0000000E+00;  3.7180719E-03;  1.5454570E+02;
  1.5996037E-01;  9.9999998E-03; -2.0000146E-01;1282; -2.2559594E-02;  0.0000000E+00; -7.4605306E-04;  1.0003441E+03;  4.0000001E-01;  2.8502893E+02;3; -9.2668657E+00;  0.0000000E+00; -3.2600188E-01;0; -1.6648751E-01;  1.0007132E+04;  0.0000000E+00; -2.4331119E-03;  1.0000000E+04;  0.0000000E+00;  9.9997451E+03; -1.7094401E-01;  0.0000000E+00;  4.4564893E-03;  1.4820573E+02;
  1.7997365E-01;  9.9999998E-03; -3.0000377E-01;1308; -1.4483288E-02;  0.0000000E+00; -1.7599373E-03;  1.0004141E+03;  4.0000001E-01;  3.4300259E+02;3; -8.3180885E+00;  0.0000000E+00; -9.2143631E-01;0; -1.9841610E-01;  1.0007839E+04;  0.0000000E+00; -7.0644087E-01;  1.0000000E+04;  0.0000000E+00;  1.0000443E+04; -1.8847342E-01;  0.0000000E+00; -9.9426862E-03;  3.7242832E+03;
  1.7996638E-01;  9.9999998E-03; -2.8000280E-01;1309; -1.8505597E-02;  0.0000000E+00; -1.2053113E-03;  1.0004230E+03;  4.0000001E-01;  3.5040979E+02;3; -9.3083506E+00;  0.0000000E+00; -5.0518036E-01;0; -2.0173430E-01;  1.0008230E+04;  0.0000000E+00; -4.8238415E-01;  1.0000000E+04;  0.0000000E+00;  1.0000233E+04; -1.9561860E-01;  0.0000000E+00; -6.1157108E-03;  2.5415081E+03;
  1.7996091E-01;  9.9999998E-03; -2.6000240E-01;1310; -2.1567244E-02;  0.0000000E+00; -1.0319586E-03;  1.0004128E+03;  4.0000001E-01;  3.4201495E+02;3; -9.7166224E+00;  0.0000000E+00; -3.8344860E-01;0; -1.9573115E-01;  1.0008282E+04;  0.0000000E+00; -2.5045970E-01;  1.0000000E+04;  0.0000000E+00;  9.9999775E+03; -1.9488832E-01;  0.0000000E+00; -8.4283110E-04;  1.3193776E+03;
  1.7995693E-01;  9.9999998E-03; -2.4000217E-01;1311; -2.3867069E-02;  0.0000000E+00; -9.5033157E-04;  1.0004025E+03;  4.0000001E-01;  3.3342261E+02;3; -1.0015871E+01;  0.0000000E+00; -3.3857059E-01;0; -1.9018964E-01;  1.0008264E+04;  0.0000000E+00; -9.8945931E-02;  1.0000000E+04;  0.0000000E+00;  9.9997861E+03; -1.9320303E-01;  0.0000000E+00;  3.0133941E-03;  5.3742291E+02;
  1.7995432E-01;  9.9999998E-03; -2.2000200E-01;1312; -2.5408698E-02;  0.0000000E+00; -9.4096328E-04;  1.0003972E+03;  4.0000001E-01;  3.2907706E+02;3; -1.0298070E+01;  0.0000000E+00; -3.6401141E-01;0; -1.8735620E-01;  1.0008254E+04;  0.0000000E+00; -2.8425191E-02;  1.0000000E+04;  0.0000000E+00;  9.9996943E+03; -1.9235131E-01;  0.0000000E+00;  4.9951137E-03;  2.3225023E+02;
  1.7995286E-01;  9.9999998E-03; -2.0000179E-01;1313; -2.6329547E-02;  0.0000000E+00; -9.0693909E-04;  1.0003956E+03;  4.0000001E-01;  3.2779315E+02;3; -1.0578073E+01;  0.0000000E+00; -3.8706559E-01;0; -1.8657325E-01;  1.0008242E+04;  0.0000000E+00; -5.1865377E-03;  1.0000000E+04;  0.0000000E+00;  9.9996699E+03; -1.9220145E-01;  0.0000000E+00;  5.6282002E-03;  1.9056064E+02;
  1.9996630E-01;  9.9999998E-03; -3.0000371E-01;1339; -1.8257713E-02;  0.0000000E+00; -1.5053485E-03;  1.0005490E+03;  4.0000001E-01;  4.5480188E+02;3; -1.0387772E+01;  0.0000000E+00; -6.8090057E-01;0; -2.5990871E-01;  1.0010351E+04;  0.0000000E+00; -1.0300102E+00;  1.0000000E+04;  0.0000000E+00;  1.0000626E+04; -2.4460958E-01;  0.0000000E+00; -1.5299139E-02;  5.4427642E+03;
  1.9995867E-01;  9.9999998E-03; -2.8000313E-01;1340; -2.2288457E-02;  0.0000000E+00; -1.2770856E-03;  1.0005313E+03;  4.0000001E-01;  4.4008624E+02;3; -1.1006852E+01;  0.0000000E+00; -5.0721931E-01;0; -2.4882236E-01;  1.0010354E+04;  0.0000000E+00; -6.9467479E-01;  1.0000000E+04;  0.0000000E+00;  1.0000276E+04; -2.4077003E-01;  0.0000000E+00; -8.0523379E-03;  3.6664702E+03;
  1.9995278E-01;  9.9999998E-03; -2.6000285E-01;1341; -2.5515825E-02;  0.0000000E+00; -1.1891633E-03;  1.0004977E+03;  4.0000001E-01;  4.1233395E+02;3; -1.1247753E+01;  0.0000000E+00; -4.3181515E-01;0; -2.3114932E-01;  1.0010063E+04;  0.0000000E+00; -3.5510430E-01;  1.0000000E+04;  0.0000000E+00;  9.9998975E+03; -2.3100954E-01;  0.0000000E+00; -1.3977801E-04;  1.8748003E+03;
  1.9994847E-01;  9.9999998E-03; -2.4000272E-01;1342; -2.7959688E-02;  0.0000000E+00; -1.2002630E-03;  1.0004719E+03;  4.0000001E-01;  3.9100122E+02;3; -1.1458037E+01;  0.0000000E+00; -4.3559790E-01;0; -2.1782044E-01;  1.0009797E+04;  0.0000000E+00; -1.3971215E-01;  1.0000000E+04;  0.0000000E+00;  9.9996504E+03; -2.2304167E-01;  0.0000000E+00;  5.2212314E-03;  7.6440515E+02;
  1.9994572E-01;  9.9999998E-03; -2.2000261E-01;1343; -2.9585458E-02;  0.0000000E+00; -1.2430892E-03;  1.0004579E+03;  4.0000001E-01;  3.7944601E+02;3; -1.1708467E+01;  0.0000000E+00; -4.7681093E-01;0; -2.1060336E-01;  1.0009623E+04;  0.0000000E+00; -4.0869053E-02;  1.0000000E+04;  0.0000000E+00;  9.9995391E+03; -2.1820287E-01;  0.0000000E+00;  7.5995242E-03;  3.3368808E+02;
  1.9994424E-01;  9.9999998E-03; -2.0000240E-01;1344; -3.0523602E-02;  0.0000000E+00; -1.2328337E-03;  1.0004523E+03;  4.0000001E-01;  3.7470538E+02;3; -1.1976004E+01;  0.0000000E+00; -5.1933432E-01;0; -2.0761229E-01;  1.0009516E+04;  0.0000000E+00; -7.8849187E-03;  1.0000000E+04;  0.0000000E+00;  9.9995313E+03; -2.1567939E-01;  0.0000000E+00;  8.0671012E-03;  2.6168683E+02;
  2.1995784E-01;  9.9999998E-03; -3.0000561E-01;1370; -2.2451010E-02;  0.0000000E+00; -2.2481310E-03;  1.0006584E+03;  4.0000001E-01;  5.4546594E+02;3; -1.2615589E+01;  0.0000000E+00; -1.0158367E+00;0; -3.0686662E-01;  1.0012509E+04;  0.0000000E+00; -1.1958858E+00;  1.0000000E+04;  0.0000000E+00;  1.0000659E+04; -2.8875011E-01;  0.0000000E+00; -1.8116517E-02;  6.3348330E+03;
  2.1994941E-01;  9.9999998E-03; -2.8000429E-01;1371; -2.6726458E-02;  0.0000000E+00; -1.7584573E-03;  1.0006291E+03;  4.0000001E-01;  5.2117035E+02;3; -1.2952110E+01;  0.0000000E+00; -7.1936417E-01;0; -2.8866935E-01;  1.0012328E+04;  0.0000000E+00; -7.9465711E-01;  1.0000000E+04;  0.0000000E+00;  1.0000254E+04; -2.7928486E-01;  0.0000000E+00; -9.3844915E-03;  4.2026372E+03;
  2.1994321E-01;  9.9999998E-03; -2.6000383E-01;1372; -3.0032493E-02;  0.0000000E+00; -1.6265868E-03;  1.0005783E+03;  4.0000001E-01;  4.7909750E+02;3; -1.2946554E+01;  0.0000000E+00; -6.0881519E-01;0; -2.6237470E-01;  1.0011831E+04;  0.0000000E+00; -4.0100369E-01;  1.0000000E+04;  0.0000000E+00;  9.9997354E+03; -2.6431990E-01;  0.0000000E+00;  1.9451929E-03;  2.1256946E+03;
  2.1993864E-01;  9.9999998E-03; -2.4000368E-01;1373; -3.2573823E-02;  0.0000000E+00; -1.6779380E-03;  1.0005411E+03;  4.0000001E-01;  4.4828354E+02;3; -1.3017340E+01;  0.0000000E+00; -6.3491106E-01;0; -2.4336953E-01;  1.0011419E+04;  0.0000000E+00; -1.5610419E-01;  1.0000000E+04;  0.0000000E+00;  9.9994082E+03; -2.5266367E-01;  0.0000000E+00;  9.2941420E-03;  8.8574463E+02;
  2.1993580E-01;  9.9999998E-03; -2.2000359E-01;1374; -3.4252439E-02;  0.0000000E+00; -1.7396049E-03;  1.0005214E+03;  4.0000001E-01;  4.3198773E+02;3; -1.3218524E+01;  0.0000000E+00; -6.7090380E-01;0; -2.3324491E-01;  1.0011136E+04;  0.0000000E+00; -4.5587812E-02;  1.0000000E+04;  0.0000000E+00;  9.9992969E+03; -2.4528836E-01;  0.0000000E+00;  1.2043443E-02;  4.4649286E+02;
  2.1993437E-01;  9.9999998E-03; -2.0000336E-01;1375; -3.5173025E-02;  0.0000000E+00; -1.7602372E-03;  1.0005130E+03;  4.0000001E-01;  4.2497559E+02;3; -1.3457782E+01;  0.0000000E+00; -7.2989988E-01;0; -2.2889361E-01;  1.0010946E+04;  0.0000000E+00; -8.8732401E-03;  1.0000000E+04;  0.0000000E+00;  9.9993164E+03; -2.4106133E-01;  0.0000000E+00;  1.2167722E-02;  3.6892648E+02;
  2.3994730E-01;  9.9999998E-03; -3.0001307E-01;1401; -2.7327038E-02;  0.0000000E+00; -5.9141354E-03;  1.0006824E+03;  4.0000001E-01;  5.6531726E+02;3; -1.5019106E+01;  0.0000000E+00; -2.9872456E+00;0; -3.0781963E-01;  1.0014192E+04;  0.0000000E+00; -1.1349164E+00;  1.0000000E+04;  0.0000000E+00;  9.9994619E+03; -3.1687546E-01;  0.0000000E+00;  9.0558156E-03;  6.0282534E+03;
  2.3993830E-01;  9.9999998E-03; -2.8000891E-01;1402; -3.1834241E-02;  0.0000000E+00; -4.1114516E-03;  1.0006848E+03;  4.0000001E-01;  5.6729254E+02;3; -1.5079013E+01;  0.0000000E+00; -1.8961887E+00;0; -3.0445668E-01;  1.0014032E+04;  0.0000000E+00; -7.3094797E-01;  1.0000000E+04;  0.0000000E+00;  9.9996650E+03; -3.0775201E-01;  0.0000000E+00;  3.2953378E-03;  3.8792048E+03;
  2.3993185E-01;  9.9999998E-03; -2.6000664E-01;1403; -3.5236720E-02;  0.0000000E+00; -3.0442278E-03;  1.0006428E+03;  4.0000001E-01;  5.3252808E+02;3; -1.4834869E+01;  0.0000000E+00; -1.2277889E+00;0; -2.8352255E-01;  1.0013541E+04;  0.0000000E+00; -3.6079374E-01;  1.0000000E+04;  0.0000000E+00;  9.9993232E+03; -2.9299349E-01;  0.0000000E+00;  9.4709266E-03;  1.9461133E+03;
  2.3992717E-01;  9.9999998E-03; -2.4000563E-01;1404; -3.7804641E-02;  0.0000000E+00; -2.6852728E-03;  1.0006062E+03;  4.0000001E-01;  5.0220795E+02;3; -1.4722853E+01;  0.0000000E+00; -1.0523391E+00;0; -2.6477408E-01;  1.0013103E+04;  0.0000000E+00; -1.3762417E-01;  1.0000000E+04;  0.0000000E+00;  9.9990254E+03; -2.8105399E-01;  0.0000000E+00;  1.6279908E-02;  8.9022797E+02;
  2.3992442E-01;  9.9999998E-03; -2.2000520E-01;1405; -3.9445184E-02;  0.0000000E+00; -2.6017202E-03;  1.0005861E+03;  4.0000001E-01;  4.8551706E+02;3; -1.4821531E+01;  0.0000000E+00; -1.0231613E+00;0; -2.5444144E-01;  1.0012781E+04;  0.0000000E+00; -3.9306026E-02;  1.0000000E+04;  0.0000000E+00;  9.9989463E+03; -2.7307296E-01;  0.0000000E+00;  1.8631527E-02;  5.8664227E+02;
  2.3992310E-01;  9.9999998E-03; -2.0000479E-01;1406; -4.0317394E-02;  0.0000000E+00; -2.5589566E-03;  1.0005775E+03;  4.0000001E-01;  4.7840616E+02;3; -1.5025118E+01;  0.0000000E+00; -1.0680654E+00;0; -2.5006539E-01;  1.0012546E+04;  0.0000000E+00; -7.3487977E-03;  1.0000000E+04;  0.0000000E+00;  9.9990107E+03; -2.6811260E-01;  0.0000000E+00;  1.8047217E-02;  5.1680695E+02;
  2.5993326E-01;  9.9999998E-03; -3.0002037E-01;1432; -3.3639610E-02;  0.0000000E+00; -9.1387499E-03;  1.0006825E+03;  4.0000001E-01;  5.6541595E+02;3; -1.8046207E+01;  0.0000000E+00; -4.5824051E+00;0; -2.9745173E-01;  1.0015784E+04;  0.0000000E+00; -8.2914054E-01;  1.0000000E+04;  0.0000000E+00;  9.9978730E+03; -3.3883029E-01;  0.0000000E+00;  4.1378543E-02;  4.5353594E+03;
  2.5992453E-01;  9.9999998E-03; -2.8001514E-01;1433; -3.7972264E-02;  0.0000000E+00; -7.1325055E-03;  1.0007089E+03;  4.0000001E-01;  5.8734131E+02;3; -1.7563992E+01;  0.0000000E+00; -3.2740545E+00;0; -3.0299425E-01;  1.0015652E+04;  0.0000000E+00; -5.2781016E-01;  1.0000000E+04;  0.0000000E+00;  9.9985303E+03; -3.3065742E-01;  0.0000000E+00;  2.7663186E-02;  2.9024917E+03;
  2.5991818E-01;  9.9999998E-03; -2.6001111E-01;1434; -4.1288737E-02;  0.0000000E+00; -5.3451797E-03;  1.0006932E+03;  4.0000001E-01;  5.7430463E+02;3; -1.6924379E+01;  0.0000000E+00; -2.2566895E+00;0; -2.9469842E-01;  1.0015264E+04;  0.0000000E+00; -2.5487575E-01;  1.0000000E+04;  0.0000000E+00;  9.9986055E+03; -3.1872267E-01;  0.0000000E+00;  2.4024241E-02;  1.5301735E+03;
  2.5991377E-01;  9.9999998E-03; -2.4000885E-01;1435; -4.3722596E-02;  0.0000000E+00; -4.3689273E-03;  1.0006680E+03;  4.0000001E-01;  5.5346570E+02;3; -1.6569180E+01;  0.0000000E+00; -1.7496564E+00;0; -2.8225213E-01;  1.0014887E+04;  0.0000000E+00; -9.4139330E-02;  1.0000000E+04;  0.0000000E+00;  9.9984805E+03; -3.0873123E-01;  0.0000000E+00;  2.6479091E-02;  9.2146796E+02;
  2.5991130E-01;  9.9999998E-03; -2.2000772E-01;1436; -4.5225807E-02;  0.0000000E+00; -3.9517656E-03;  1.0006530E+03;  4.0000001E-01;  5.4102161E+02;3; -1.6522285E+01;  0.0000000E+00; -1.5704613E+00;0; -2.7452511E-01;  1.0014578E+04;  0.0000000E+00; -2.5527149E-02;  1.0000000E+04;  0.0000000E+00;  9.9984922E+03; -3.0161405E-01;  0.0000000E+00;  2.7088929E-02;  7.8053986E+02;
  2.5991023E-01;  9.9999998E-03; -2.0000683E-01;1437; -4.6021663E-02;  0.0000000E+00; -3.6698135E-03;  1.0006470E+03;  4.0000001E-01;  5.3598474E+02;3; -1.6686140E+01;  0.0000000E+00; -1.5031160E+00;0; -2.7137837E-01;  1.0014317E+04;  0.0000000E+00; -4.2665349E-03;  1.0000000E+04;  0.0000000E+00;  9.9986260E+03; -2.9676017E-01;  0.0000000E+00;  2.5381807E-02;  7.0315167E+02;
  2.7991617E-01;  9.9999998E-03; -3.0002588E-01;1463; -4.1136932E-02;  0.0000000E+00; -1.1339365E-02;  1.0007106E+03;  4.0000001E-01;  5.8872394E+02;3; -2.1547703E+01;  0.0000000E+00; -5.6054034E+00;0; -2.9826435E-01;  1.0017507E+04;  0.0000000E+00; -4.6304321E-01;  1.0000000E+04;  0.0000000E+00;  9.9967148E+03; -3.5934994E-01;  0.0000000E+00;  6.1085582E-02;  2.9507300E+03;
  2.7990809E-01;  9.9999998E-03; -2.8002077E-01;1464; -4.5116693E-02;  0.0000000E+00; -9.5797777E-03;  1.0007402E+03;  4.0000001E-01;  6.1321710E+02;3; -2.0379631E+01;  0.0000000E+00; -4.2802315E+00;0; -3.0406183E-01;  1.0017399E+04;  0.0000000E+00; -2.9232836E-01;  1.0000000E+04;  0.0000000E+00;  9.9974160E+03; -3.5255474E-01;  0.0000000E+00;  4.8492905E-02;  2.0170393E+03;
  2.7990225E-01;  9.9999998E-03; -2.6001608E-01;1465; -4.8139755E-02;  0.0000000E+00; -7.7535575E-03;  1.0007444E+03;  4.0000001E-01;  6.1667377E+02;3; -1.9219208E+01;  0.0000000E+00; -3.2364986E+00;0; -3.0393246E-01;  1.0017120E+04;  0.0000000E+00; -1.3761993E-01;  1.0000000E+04;  0.0000000E+00;  9.9977734E+03; -3.4406868E-01;  0.0000000E+00;  4.0136229E-02;  1.3349001E+03;
  2.7989835E-01;  9.9999998E-03; -2.4001294E-01;1466; -5.0302915E-02;  0.0000000E+00; -6.4581828E-03;  1.0007335E+03;  4.0000001E-01;  6.0768640E+02;3; -1.8520014E+01;  0.0000000E+00; -2.5891819E+00;0; -2.9870176E-01;  1.0016827E+04;  0.0000000E+00; -4.8133217E-02;  1.0000000E+04;  0.0000000E+00;  9.9978525E+03; -3.3681324E-01;  0.0000000E+00;  3.8111471E-02;  1.1093375E+03;
  2.7989626E-01;  9.9999998E-03; -2.2001095E-01;1467; -5.1636085E-02;  0.0000000E+00; -5.6729051E-03;  1.0007262E+03;  4.0000001E-01;  6.0166187E+02;3; -1.8314251E+01;  0.0000000E+00; -2.2488818E+00;0; -2.9489270E-01;  1.0016548E+04;  0.0000000E+00; -1.1715304E-02;  1.0000000E+04;  0.0000000E+00;  9.9979785E+03; -3.3125463E-01;  0.0000000E+00;  3.6361944E-02;  1.0202800E+03;
  2.7989548E-01;  9.9999998E-03; -2.0000939E-01;1468; -5.2330095E-02;  0.0000000E+00; -5.0736046E-03;  1.0007232E+03;  4.0000001E-01;  5.9919281E+02;3; -1.8430815E+01;  0.0000000E+00; -2.0678489E+00;0; -2.9354030E-01;  1.0016279E+04;  0.0000000E+00; -1.5200570E-03;  1.0000000E+04;  0.0000000E+00;  9.9981885E+03; -3.2701674E-01;  0.0000000E+00;  3.3476450E-02;  9.1747577E+02;
  2.9989704E-01;  9.9999998E-03; -3.0003071E-01;1494; -4.9178932E-02;  0.0000000E+00; -1.3149153E-02;  1.0007719E+03;  4.0000001E-01;  6.3948785E+02;3; -2.5197124E+01;  0.0000000E+00; -6.4051733E+00;0; -3.1023824E-01;  1.0019459E+04;  0.0000000E+00; -1.9657235E-01;  1.0000000E+04;  0.0000000E+00;  9.9959912E+03; -3.8057384E-01;  0.0000000E+00;  7.0335612E-02;  2.2310317E+03;
  2.9988962E-01;  9.9999998E-03; -2.8002578E-01;1495; -5.2760098E-02;  0.0000000E+00; -1.1630452E-02;  1.0007979E+03;  4.0000001E-01;  6.6101807E+02;3; -2.3232399E+01;  0.0000000E+00; -5.0908909E+00;0; -3.1418407E-01;  1.0019379E+04;  0.0000000E+00; -1.2110904E-01;  1.0000000E+04;  0.0000000E+00;  9.9965850E+03; -3.7593269E-01;  0.0000000E+00;  6.1748613E-02;  1.8042162E+03;
  2.9988432E-01;  9.9999998E-03; -2.6002097E-01;1496; -5.5516683E-02;  0.0000000E+00; -9.9691451E-03;  1.0008102E+03;  4.0000001E-01;  6.7128943E+02;3; -2.1543844E+01;  0.0000000E+00; -4.0675554E+00;0; -3.1768012E-01;  1.0019198E+04;  0.0000000E+00; -5.3836204E-02;  1.0000000E+04;  0.0000000E+00;  9.9970205E+03; -3.7077260E-01;  0.0000000E+00;  5.3092480E-02;  1.5084573E+03;
  2.9988089E-01;  9.9999998E-03; -2.4001729E-01;1497; -5.7469856E-02;  0.0000000E+00; -8.5740695E-03;  1.0008097E+03;  4.0000001E-01;  6.7079559E+02;3; -2.0528986E+01;  0.0000000E+00; -3.3725443E+00;0; -3.1763166E-01;  1.0018972E+04;  0.0000000E+00; -1.6869375E-02;  1.0000000E+04;  0.0000000E+00;  9.9972344E+03; -3.6618707E-01;  0.0000000E+00;  4.8555419E-02;  1.3836022E+03;
  2.9987916E-01;  9.9999998E-03; -2.2001459E-01;1498; -5.8671515E-02;  0.0000000E+00; -7.5207874E-03;  1.0008083E+03;  4.0000001E-01;  6.6970923E+02;3; -2.0180189E+01;  0.0000000E+00; -2.9467030E+00;0; -3.1713730E-01;  1.0018723E+04;  0.0000000E+00; -3.2410852E-03;  1.0000000E+04;  0.0000000E+00;  9.9974570E+03; -3.6229730E-01;  0.0000000E+00;  4.5159988E-02;  1.2760204E+03;
  2.9987872E-01;  9.9999998E-03; -2.0001239E-01;1499; -5.9280593E-02;  0.0000000E+00; -6.6674044E-03;  1.0008082E+03;  4.0000001E-01;  6.6951166E+02;3; -2.0260435E+01;  0.0000000E+00; -2.6713669E+00;0; -3.1734595E-01;  1.0018452E+04;  0.0000000E+00; -2.1908224E-04;  1.0000000E+04;  0.0000000E+00;  9.9977207E+03; -3.5891733E-01;  0.0000000E+00;  4.1571382E-02;  1.1474016E+03;
  3.1987667E-01;  9.9999998E-03; -3.0003551E-01;1525; -5.7336815E-02;  0.0000000E+00; -1.4873963E-02;  1.0008615E+03;  4.0000001E-01;  7.1365857E+02;3; -2.8723970E+01;  0.0000000E+00; -7.1555195E+00;0; -3.3044237E-01;  1.0021709E+04;  0.0000000E+00; -5.8965709E-02;  1.0000000E+04;  0.0000000E+00;  9.9955361E+03; -4.0438312E-01;  0.0000000E+00;  7.3940769E-02;  2.2199761E+03;
  3.1986955E-01;  9.9999998E-03; -2.8003052E-01;1526; -6.0690537E-02;  0.0000000E+00; -1.3472904E-02;  1.0008832E+03;  4.0000001E-01;  7.3173212E+02;3; -2.6036730E+01;  0.0000000E+00; -5.7963824E+00;0; -3.3357826E-01;  1.0021654E+04;  0.0000000E+00; -3.3588994E-02;  1.0000000E+04;  0.0000000E+00;  9.9960166E+03; -4.0214798E-01;  0.0000000E+00;  6.8569727E-02;  1.9742229E+03;
  3.1986448E-01;  9.9999998E-03; -2.6002565E-01;1527; -6.3319050E-02;  0.0000000E+00; -1.1962405E-02;  1.0008969E+03;  4.0000001E-01;  7.4299103E+02;3; -2.3858763E+01;  0.0000000E+00; -4.7787623E+00;0; -3.3812708E-01;  1.0021533E+04;  0.0000000E+00; -1.3091601E-02;  1.0000000E+04;  0.0000000E+00;  9.9964180E+03; -3.9970368E-01;  0.0000000E+00;  6.1576597E-02;  1.7783195E+03;
  3.1986129E-01;  9.9999998E-03; -2.4002165E-01;1528; -6.5194681E-02;  0.0000000E+00; -1.0565240E-02;  1.0009006E+03;  4.0000001E-01;  7.4615143E+02;3; -2.2564007E+01;  0.0000000E+00; -4.0532899E+00;0; -3.4061414E-01;  1.0021355E+04;  0.0000000E+00; -3.1210000E-03;  1.0000000E+04;  0.0000000E+00;  9.9966719E+03; -3.9730424E-01;  0.0000000E+00;  5.6690093E-02;  1.6570443E+03;
  3.1985980E-01;  9.9999998E-03; -2.2001839E-01;1529; -6.6352509E-02;  0.0000000E+00; -9.3621071E-03;  1.0009026E+03;  4.0000001E-01;  7.4783044E+02;3; -2.2099167E+01;  0.0000000E+00; -3.5907457E+00;0; -3.4209383E-01;  1.0021130E+04;  0.0000000E+00; -2.9131118E-04;  1.0000000E+04;  0.0000000E+00;  9.9969375E+03; -3.9494166E-01;  0.0000000E+00;  5.2847836E-02;  1.5307645E+03;
  3.1985968E-01;  9.9999998E-03; -2.0001565E-01;1530; -6.6902995E-02;  0.0000000E+00; -8.3271991E-03;  1.0009041E+03;  4.0000001E-01;  7.4901556E+02;3; -2.2159952E+01;  0.0000000E+00; -3.2565281E+00;0; -3.4336373E-01;  1.0020856E+04;  0.0000000E+00;  1.4788237E-05;  1.0000000E+04;  0.0000000E+00;  9.9972402E+03; -3.9254206E-01;  0.0000000E+00;  4.9178325E-02;  1.3855637E+03;
  3.3985510E-01;  9.9999998E-03; -3.0004063E-01;1556; -6.5494694E-02;  0.0000000E+00; -1.6628671E-02;  1.0009717E+03;  4.0000001E-01;  8.0501392E+02;3; -3.2072414E+01;  0.0000000E+00; -7.8705754E+00;0; -3.5657796E-01;  1.0024269E+04;  0.0000000E+00; -8.8843899E-03;  1.0000000E+04;  0.0000000E+00;  9.9951826E+03; -4.3189359E-01;  0.0000000E+00;  7.5315632E-02;  2.3802014E+03;
  3.3984774E-01;  9.9999998E-03; -2.8003535E-01;1557; -6.8910785E-02;  0.0000000E+00; -1.5255489E-02;  1.0009902E+03;  4.0000001E-01;  8.2032208E+02;3; -2.8788300E+01;  0.0000000E+00; -6.4376602E+00;0; -3.5963637E-01;  1.0024231E+04;  0.0000000E+00; -4.1506812E-03;  1.0000000E+04;  0.0000000E+00;  9.9955879E+03; -4.3156642E-01;  0.0000000E+00;  7.1930058E-02;  2.1865664E+03;
  3.3984247E-01;  9.9999998E-03; -2.6003027E-01;1558; -7.1603239E-02;  0.0000000E+00; -1.3807433E-02;  1.0010025E+03;  4.0000001E-01;  8.3059344E+02;3; -2.6174025E+01;  0.0000000E+00; -5.3878932E+00;0; -3.6419329E-01;  1.0024147E+04;  0.0000000E+00; -1.0181986E-03;  1.0000000E+04;  0.0000000E+00;  9.9959219E+03; -4.3108714E-01;  0.0000000E+00;  6.6893853E-02;  2.0276985E+03;
  3.3983931E-01;  9.9999998E-03; -2.4002600E-01;1559; -7.3526837E-02;  0.0000000E+00; -1.2425304E-02;  1.0010070E+03;  4.0000001E-01;  8.3424762E+02;3; -2.4631538E+01;  0.0000000E+00; -4.6388574E+00;0; -3.6750525E-01;  1.0024000E+04;  0.0000000E+00;  7.8020921E-06;  1.0000000E+04;  0.0000000E+00;  9.9961582E+03; -4.3039852E-01;  0.0000000E+00;  6.2893286E-02;  1.9167963E+03;
  3.3983797E-01;  9.9999998E-03; -2.2002229E-01;1560; -7.4706100E-02;  0.0000000E+00; -1.1148794E-02;  1.0010101E+03;  4.0000001E-01;  8.3691425E+02;3; -2.4070786E+01;  0.0000000E+00; -4.1525993E+00;0; -3.6995283E-01;  1.0023791E+04;  0.0000000E+00;  5.0142986E-05;  1.0000000E+04;  0.0000000E+00;  9.9964297E+03; -4.2942020E-01;  0.0000000E+00;  5.9467364E-02;  1.7854998E+03;
  3.3983812E-01;  9.9999998E-03; -2.0001908E-01;1561; -7.5236194E-02;  0.0000000E+00; -9.9905711E-03;  1.0010126E+03;  4.0000001E-01;  8.3898822E+02;3; -2.4125301E+01;  0.0000000E+00; -3.7912529E+00;0; -3.7193626E-01;  1.0023517E+04;  0.0000000E+00;  1.3434151E-05;  1.0000000E+04;  0.0000000E+00;  9.9967432E+03; -4.2810676E-01;  0.0000000E+00;  5.6170508E-02;  1.6308944E+03;
  3.5983172E-01;  9.9999998E-03; -3.0004624E-01;1587; -7.3895372E-02;  0.0000000E+00; -1.8458847E-02;  1.0010964E+03;  4.0000001E-01;  9.0841827E+02;3; -3.5349316E+01;  0.0000000E+00; -8.5766964E+00;0; -3.8599074E-01;  1.0027146E+04;  0.0000000E+00;  7.4688418E-05;  1.0000000E+04;  0.0000000E+00;  9.9948057E+03; -4.6302402E-01;  0.0000000E+00;  7.7033274E-02;  2.5764358E+03;
  3.5982358E-01;  9.9999998E-03; -2.8004053E-01;1588; -7.7601619E-02;  0.0000000E+00; -1.7061604E-02;  1.0011138E+03;  4.0000001E-01;  9.2273883E+02;3; -3.1549831E+01;  0.0000000E+00; -7.0335870E+00;0; -3.8942790E-01;  1.0027137E+04;  0.0000000E+00;  2.8974985E-04;  1.0000000E+04;  0.0000000E+00;  9.9951650E+03; -4.6407071E-01;  0.0000000E+00;  7.4642822E-02;  2.4032429E+03;
  3.5981789E-01;  9.9999998E-03; -2.6003504E-01;1589; -8.0504708E-02;  0.0000000E+00; -1.5585802E-02;  1.0011249E+03;  4.0000001E-01;  9.3202252E+02;3; -2.8529158E+01;  0.0000000E+00; -5.9208655E+00;0; -3.9414170E-01;  1.0027078E+04;  0.0000000E+00;  2.4554774E-04;  1.0000000E+04;  0.0000000E+00;  9.9954395E+03; -4.6505851E-01;  0.0000000E+00;  7.0916794E-02;  2.2729729E+03;
  3.5981458E-01;  9.9999998E-03; -2.4003045E-01;1590; -8.2551777E-02;  0.0000000E+00; -1.4202614E-02;  1.0011288E+03;  4.0000001E-01;  9.3518292E+02;3; -2.6745367E+01;  0.0000000E+00; -5.1358380E+00;0; -3.9767405E-01;  1.0026959E+04;  0.0000000E+00;  1.3245034E-04;  1.0000000E+04;  0.0000000E+00;  9.9956357E+03; -4.6578982E-01;  0.0000000E+00;  6.8115771E-02;  2.1797759E+03;
  3.5981336E-01;  9.9999998E-03; -2.2002633E-01;1591; -8.3788380E-02;  0.0000000E+00; -1.2878446E-02;  1.0011324E+03;  4.0000001E-01;  9.3814581E+02;3; -2.6094959E+01;  0.0000000E+00; -4.6342421E+00;0; -4.0070200E-01;  1.0026758E+04;  0.0000000E+00;  5.1263727E-05;  1.0000000E+04;  0.0000000E+00;  9.9959082E+03; -4.6611369E-01;  0.0000000E+00;  6.5411672E-02;  2.0486067E+03;
  3.5981378E-01;  9.9999998E-03; -2.0002261E-01;1592; -8.4318601E-02;  0.0000000E+00; -1.1620266E-02;  1.0011350E+03;  4.0000001E-01;  9.4031860E+02;3; -2.6146090E+01;  0.0000000E+00; -4.2668152E+00;0; -4.0327322E-01;  1.0026480E+04;  0.0000000E+00;  1.2655647E-05;  1.0000000E+04;  0.0000000E+00;  9.9962402E+03; -4.6593907E-01;  0.0000000E+00;  6.2665857E-02;  1.8862842E+03;
  3.7980562E-01;  9.9999998E-03; -3.0005243E-01;1618; -8.2873218E-02;  0.0000000E+00; -2.0357383E-02;  1.0012365E+03;  4.0000001E-01;  1.0244641E+03;3; -3.8715324E+01;  0.0000000E+00; -9.2468290E+00;0; -4.1764256E-01;  1.0030425E+04;  0.0000000E+00;  2.6044800E-04;  1.0000000E+04;  0.0000000E+00;  9.9943330E+03; -4.9771461E-01;  0.0000000E+00;  8.0072038E-02;  2.8211187E+03;
  3.7979650E-01;  9.9999998E-03; -2.8004614E-01;1619; -8.6963296E-02;  0.0000000E+00; -1.8893985E-02;  1.0012546E+03;  4.0000001E-01;  1.0393772E+03;3; -3.4387402E+01;  0.0000000E+00; -7.5925136E+00;0; -4.2194495E-01;  1.0030439E+04;  0.0000000E+00;  3.7857323E-04;  1.0000000E+04;  0.0000000E+00;  9.9946797E+03; -4.9984932E-01;  0.0000000E+00;  7.7904373E-02;  2.6527463E+03;
  3.7979022E-01;  9.9999998E-03; -2.6004013E-01;1620; -9.0133026E-02;  0.0000000E+00; -1.7349282E-02;  1.0012645E+03;  4.0000001E-01;  1.0475745E+03;3; -3.0947899E+01;  0.0000000E+00; -6.3847327E+00;0; -4.2711872E-01;  1.0030403E+04;  0.0000000E+00;  2.8601420E-04;  1.0000000E+04;  0.0000000E+00;  9.9949141E+03; -5.0201505E-01;  0.0000000E+00;  7.4896336E-02;  2.5416765E+03;
  3.7978673E-01;  9.9999998E-03; -2.4003513E-01;1621; -9.2336603E-02;  0.0000000E+00; -1.5939843E-02;  1.0012672E+03;  4.0000001E-01;  1.0498461E+03;3; -2.8904991E+01;  0.0000000E+00; -5.5569687E+00;0; -4.3084720E-01;  1.0030288E+04;  0.0000000E+00;  1.4941803E-04;  1.0000000E+04;  0.0000000E+00;  9.9950801E+03; -5.0395077E-01;  0.0000000E+00;  7.3103577E-02;  2.4618755E+03;
  3.7978563E-01;  9.9999998E-03; -2.2003055E-01;1622; -9.3645111E-02;  0.0000000E+00; -1.4568303E-02;  1.0012707E+03;  4.0000001E-01;  1.0527102E+03;3; -2.8164759E+01;  0.0000000E+00; -5.0357885E+00;0; -4.3433979E-01;  1.0030081E+04;  0.0000000E+00;  5.5138054E-05;  1.0000000E+04;  0.0000000E+00;  9.9953564E+03; -5.0543791E-01;  0.0000000E+00;  7.1098112E-02;  2.3283450E+03;
  3.7978637E-01;  9.9999998E-03; -2.0002630E-01;1623; -9.4192930E-02;  0.0000000E+00; -1.3212188E-02;  1.0012731E+03;  4.0000001E-01;  1.0547842E+03;3; -2.8214870E+01;  0.0000000E+00; -4.6760406E+00;0; -4.3739876E-01;  1.0029780E+04;  0.0000000E+00;  1.2341134E-05;  1.0000000E+04;  0.0000000E+00;  9.9957051E+03; -5.0631350E-01;  0.0000000E+00;  6.8914741E-02;  2.1562288E+03;
  3.9977622E-01;  9.9999998E-03; -3.0005935E-01;1649; -9.2572741E-02;  0.0000000E+00; -2.2305582E-02;  1.0013954E+03;  4.0000001E-01;  1.1560155E+03;3; -4.2214382E+01;  0.0000000E+00; -9.8558750E+00;0; -4.5224178E-01;  1.0034206E+04;  0.0000000E+00;  3.2057206E-04;  1.0000000E+04;  0.0000000E+00;  9.9937344E+03; -5.3645337E-01;  0.0000000E+00;  8.4211603E-02;  3.1247622E+03;
  3.9976600E-01;  9.9999998E-03; -2.8005233E-01;1650; -9.7073346E-02;  0.0000000E+00; -2.0759789E-02;  1.0014143E+03;  4.0000001E-01;  1.1717188E+03;3; -3.7311962E+01;  0.0000000E+00; -8.0872211E+00;0; -4.5733571E-01;  1.0034218E+04;  0.0000000E+00;  4.6265754E-04;  1.0000000E+04;  0.0000000E+00;  9.9940967E+03; -5.3936678E-01;  0.0000000E+00;  8.2031079E-02;  2.9503660E+03;
  3.9975911E-01;  9.9999998E-03; -2.6004571E-01;1651; -1.0053834E-01;  0.0000000E+00; -1.9129772E-02;  1.0014227E+03;  4.0000001E-01;  1.1787310E+03;3; -3.3426903E+01;  0.0000000E+00; -6.7711515E+00;0; -4.6296999E-01;  1.0034176E+04;  0.0000000E+00;  3.4291833E-04;  1.0000000E+04;  0.0000000E+00;  9.9943145E+03; -5.4239315E-01;  0.0000000E+00;  7.9423167E-02;  2.8481565E+03;
  3.9975542E-01;  9.9999998E-03; -2.4004015E-01;1652; -1.0292313E-01;  0.0000000E+00; -1.7675404E-02;  1.0014239E+03;  4.0000001E-01;  1.1796198E+03;3; -3.1119490E+01;  0.0000000E+00; -5.8783636E+00;0; -4.6686727E-01;  1.0034040E+04;  0.0000000E+00;  1.7413805E-04;  1.0000000E+04;  0.0000000E+00;  9.9944697E+03; -5.4523951E-01;  0.0000000E+00;  7.8372240E-02;  2.7728262E+03;
  3.9975443E-01;  9.9999998E-03; -2.2003502E-01;1653; -1.0431970E-01;  0.0000000E+00; -1.6242759E-02;  1.0014266E+03;  4.0000001E-01;  1.1818914E+03;3; -3.0270590E+01;  0.0000000E+00; -5.3566394E+00;0; -4.7075930E-01;  1.0033802E+04;  0.0000000E+00;  6.1154009E-05;  1.0000000E+04;  0.0000000E+00;  9.9947607E+03; -5.4763812E-01;  0.0000000E+00;  7.6878823E-02;  2.6306326E+03;
  3.9975551E-01;  9.9999998E-03; -2.0003018E-01;1654; -1.0490271E-01;  0.0000000E+00; -1.4777608E-02;  1.0014281E+03;  4.0000001E-01;  1.1831753E+03;3; -3.0332125E+01;  0.0000000E+00; -4.9896984E+00;0; -4.7420925E-01;  1.0033452E+04;  0.0000000E+00;  1.2176705E-05;  1.0000000E+04;  0.0000000E+00;  9.9951426E+03; -5.4937297E-01;  0.0000000E+00;  7.5163715E-02;  2.4439570E+03;
  4.1974309E-01;  9.9999998E-03; -3.0006716E-01;1680; -1.0302766E-01;  0.0000000E+00; -2.4310116E-02;  1.0015771E+03;  4.0000001E-01;  1.3066281E+03;3; -4.5839073E+01;  0.0000000E+00; -1.0371402E+01;0; -4.9010417E-01;  1.0038564E+04;  0.0000000E+00;  3.8108201E-04;  1.0000000E+04;  0.0000000E+00;  9.9930205E+03; -5.7958966E-01;  0.0000000E+00;  8.9485496E-02;  3.4919287E+03;
  4.1973168E-01;  9.9999998E-03; -2.8005925E-01;1681; -1.0797287E-01;  0.0000000E+00; -2.2667432E-02;  1.0015956E+03;  4.0000001E-01;  1.3219363E+03;3; -4.0311501E+01;  0.0000000E+00; -8.4988222E+00;0; -4.9576259E-01;  1.0038545E+04;  0.0000000E+00;  5.6652981E-04;  1.0000000E+04;  0.0000000E+00;  9.9934102E+03; -5.8290690E-01;  0.0000000E+00;  8.7144315E-02;  3.3031270E+03;
  4.1972417E-01;  9.9999998E-03; -2.6005182E-01;1682; -1.1175994E-01;  0.0000000E+00; -2.0950804E-02;  1.0016019E+03;  4.0000001E-01;  1.3271707E+03;3; -3.5952599E+01;  0.0000000E+00; -7.0695472E+00;0; -5.0160837E-01;  1.0038448E+04;  0.0000000E+00;  4.1644511E-04;  1.0000000E+04;  0.0000000E+00;  9.9936328E+03; -5.8641016E-01;  0.0000000E+00;  8.4801808E-02;  3.1976726E+03;
  4.1972026E-01;  9.9999998E-03; -2.4004559E-01;1683; -1.1434844E-01;  0.0000000E+00; -1.9435968E-02;  1.0016006E+03;  4.0000001E-01;  1.3260842E+03;3; -3.3357204E+01;  0.0000000E+00; -6.1336570E+00;0; -5.0563663E-01;  1.0038259E+04;  0.0000000E+00;  2.0690991E-04;  1.0000000E+04;  0.0000000E+00;  9.9937998E+03; -5.8979446E-01;  0.0000000E+00;  8.4157817E-02;  3.1151565E+03;
  4.1971943E-01;  9.9999998E-03; -2.2003978E-01;1684; -1.1585648E-01;  0.0000000E+00; -1.7914932E-02;  1.0016014E+03;  4.0000001E-01;  1.3267756E+03;3; -3.2401649E+01;  0.0000000E+00; -5.5893493E+00;0; -5.0984091E-01;  1.0037943E+04;  0.0000000E+00;  6.9753558E-05;  1.0000000E+04;  0.0000000E+00;  9.9941250E+03; -5.9277397E-01;  0.0000000E+00;  8.2933076E-02;  2.9564167E+03;
  4.1972089E-01;  9.9999998E-03; -2.0003429E-01;1685; -1.1649124E-01;  0.0000000E+00; -1.6325286E-02;  1.0016010E+03;  4.0000001E-01;  1.3263805E+03;3; -3.2476074E+01;  0.0000000E+00; -5.2089128E+00;0; -5.1355922E-01;  1.0037518E+04;  0.0000000E+00;  1.2517623E-05;  1.0000000E+04;  0.0000000E+00;  9.9945430E+03; -5.9510469E-01;  0.0000000E+00;  8.1545457E-02;  2.7493662E+03;
  4.3970567E-01;  9.9999998E-03; -3.0007598E-01;1711; -1.1427629E-01;  0.0000000E+00; -2.6381349E-02;  1.0017838E+03;  4.0000001E-01;  1.4778817E+03;3; -4.9556881E+01;  0.0000000E+00; -1.0805905E+01;0; -5.3152448E-01;  1.0043559E+04;  0.0000000E+00;  4.2685849E-04;  1.0000000E+04;  0.0000000E+00;  9.9921680E+03; -6.2731016E-01;  0.0000000E+00;  9.5785655E-02;  3.9244521E+03;
  4.3969300E-01;  9.9999998E-03; -2.8006706E-01;1712; -1.1970924E-01;  0.0000000E+00; -2.4623618E-02;  1.0018007E+03;  4.0000001E-01;  1.4918071E+03;3; -4.3372742E+01;  0.0000000E+00; -8.8038673E+00;0; -5.3731406E-01;  1.0043457E+04;  0.0000000E+00;  6.8998284E-04;  1.0000000E+04;  0.0000000E+00;  9.9926104E+03; -6.3056123E-01;  0.0000000E+00;  9.3247168E-02;  3.7108999E+03;
  4.3968484E-01;  9.9999998E-03; -2.6005861E-01;1713; -1.2384515E-01;  0.0000000E+00; -2.2818787E-02;  1.0018044E+03;  4.0000001E-01;  1.4948688E+03;3; -3.8504921E+01;  0.0000000E+00; -7.2748270E+00;0; -5.4303038E-01;  1.0043262E+04;  0.0000000E+00;  5.1052868E-04;  1.0000000E+04;  0.0000000E+00;  9.9928740E+03; -6.3405782E-01;  0.0000000E+00;  9.1027461E-02;  3.5835623E+03;
  4.3968076E-01;  9.9999998E-03; -2.4005149E-01;1714; -1.2666450E-01;  0.0000000E+00; -2.1210153E-02;  1.0017992E+03;  4.0000001E-01;  1.4906221E+03;3; -3.5609615E+01;  0.0000000E+00; -6.2856960E+00;0; -5.4711145E-01;  1.0042956E+04;  0.0000000E+00;  2.5142971E-04;  1.0000000E+04;  0.0000000E+00;  9.9930811E+03; -6.3751078E-01;  0.0000000E+00;  9.0399347E-02;  3.4823833E+03;
  4.3968013E-01;  9.9999998E-03; -2.2004494E-01;1715; -1.2830622E-01;  0.0000000E+00; -1.9576173E-02;  1.0017963E+03;  4.0000001E-01;  1.4881530E+03;3; -3.4545925E+01;  0.0000000E+00; -5.7193170E+00;0; -5.5143446E-01;  1.0042524E+04;  0.0000000E+00;  8.3409082E-05;  1.0000000E+04;  0.0000000E+00;  9.9934502E+03; -6.4065200E-01;  0.0000000E+00;  8.9217566E-02;  3.3007993E+03;
  4.3968213E-01;  9.9999998E-03; -2.0003876E-01;1716; -1.2901019E-01;  0.0000000E+00; -1.7847586E-02;  1.0017921E+03;  4.0000001E-01;  1.4846963E+03;3; -3.4637150E+01;  0.0000000E+00; -5.3249493E+00;0; -5.5521685E-01;  1.0041978E+04;  0.0000000E+00;  1.4864224E-05;  1.0000000E+04;  0.0000000E+00;  9.9939189E+03; -6.4324927E-01;  0.0000000E+00;  8.8032424E-02;  3.0689019E+03;
  4.5966327E-01;  9.9999998E-03; -3.0008614E-01;1742; -1.2639052E-01;  0.0000000E+00; -2.8523741E-02;  1.0020181E+03;  4.0000072E-01;  1.6719490E+03;3; -5.3366814E+01;  0.0000000E+00; -1.1124740E+01;0; -5.7644886E-01;  1.0049200E+04;  0.0000000E+00;  4.4175304E-04;  1.0000000E+04;  0.0000000E+00;  9.9911904E+03; -6.7942154E-01;  0.0000000E+00;  1.0297268E-01;  4.4233618E+03;
  4.5964932E-01;  9.9999998E-03; -2.8007591E-01;1743; -1.3235120E-01;  0.0000000E+00; -2.6637521E-02;  1.0020321E+03;  4.0000084E-01;  1.6836029E+03;3; -4.6485390E+01;  0.0000000E+00; -8.9784031E+00;0; -5.8178252E-01;  1.0048945E+04;  0.0000000E+00;  8.3957723E-04;  1.0000000E+04;  0.0000000E+00;  9.9917266E+03; -6.8198144E-01;  0.0000000E+00;  1.0019893E-01;  4.1616743E+03;
  4.5964053E-01;  9.9999998E-03; -2.6006615E-01;1744; -1.3686195E-01;  0.0000000E+00; -2.4716837E-02;  1.0020324E+03;  4.0000084E-01;  1.6838004E+03;3; -4.1075470E+01;  0.0000000E+00; -7.3498979E+00;0; -5.8709955E-01;  1.0048591E+04;  0.0000000E+00;  6.3663936E-04;  1.0000000E+04;  0.0000000E+00;  9.9920889E+03; -6.8484062E-01;  0.0000000E+00;  9.7741067E-02;  3.9860449E+03;
  4.5963633E-01;  9.9999998E-03; -2.4005792E-01;1745; -1.3993849E-01;  0.0000000E+00; -2.2967227E-02;  1.0020212E+03;  4.0000072E-01;  1.6745167E+03;3; -3.7864792E+01;  0.0000000E+00; -6.3038311E+00;0; -5.9099722E-01;  1.0048107E+04;  0.0000000E+00;  3.1731534E-04;  1.0000000E+04;  0.0000000E+00;  9.9923457E+03; -6.8776250E-01;  0.0000000E+00;  9.6765265E-02;  3.8604182E+03;
  4.5963606E-01;  9.9999998E-03; -2.2005059E-01;1746; -1.4173290E-01;  0.0000000E+00; -2.1204181E-02;  1.0020115E+03;  4.0000081E-01;  1.6665170E+03;3; -3.6689087E+01;  0.0000000E+00; -5.7138543E+00;0; -5.9504205E-01;  1.0047501E+04;  0.0000000E+00;  1.0827745E-04;  1.0000000E+04;  0.0000000E+00;  9.9927607E+03; -6.9054496E-01;  0.0000000E+00;  9.5502935E-02;  3.6552876E+03;
  4.5963868E-01;  9.9999998E-03; -2.0004375E-01;1747; -1.4251962E-01;  0.0000000E+00; -1.9334620E-02;  1.0020018E+03;  4.0000084E-01;  1.6584185E+03;3; -3.6806145E+01;  0.0000000E+00; -5.3154678E+00;0; -5.9854025E-01;  1.0046787E+04;  0.0000000E+00;  2.2448305E-05;  1.0000000E+04;  0.0000000E+00;  9.9932793E+03; -6.9300675E-01;  0.0000000E+00;  9.4466485E-02;  3.3980410E+03;
  4.7961491E-01;  9.9999998E-03; -3.0009797E-01;1773; -1.3950039E-01;  0.0000000E+00; -3.0757248E-02;  1.0022762E+03;  4.0000227E-01;  1.8857682E+03;3; -5.7283047E+01;  0.0000000E+00; -1.1304623E+01;0; -6.2383860E-01;  1.0055383E+04;  0.0000000E+00;  4.1509970E-04;  1.0000000E+04;  0.0000000E+00;  9.9901113E+03; -7.3459554E-01;  0.0000000E+00;  1.1075693E-01;  4.9730688E+03;
  4.7959977E-01;  9.9999998E-03; -2.8008607E-01;1774; -1.4600866E-01;  0.0000000E+00; -2.8711552E-02;  1.0022877E+03;  4.0000224E-01;  1.8952493E+03;3; -4.9649891E+01;  0.0000000E+00; -8.9861851E+00;0; -6.2818658E-01;  1.0054902E+04;  0.0000000E+00;  1.0352805E-03;  1.0000000E+04;  0.0000000E+00;  9.9908232E+03; -7.3568267E-01;  0.0000000E+00;  1.0749608E-01;  4.6250210E+03;
  4.7959051E-01;  9.9999998E-03; -2.6007444E-01;1775; -1.5090613E-01;  0.0000000E+00; -2.6609622E-02;  1.0022836E+03;  4.0000236E-01;  1.8918914E+03;3; -4.3659565E+01;  0.0000000E+00; -7.2537355E+00;0; -6.3290983E-01;  1.0054304E+04;  0.0000000E+00;  8.2026090E-04;  1.0000000E+04;  0.0000000E+00;  9.9913408E+03; -7.3712766E-01;  0.0000000E+00;  1.0421785E-01;  4.3729507E+03;
  4.7958639E-01;  9.9999998E-03; -2.4006496E-01;1776; -1.5425722E-01;  0.0000000E+00; -2.4661748E-02;  1.0022614E+03;  4.0000218E-01;  1.8735216E+03;3; -4.0116821E+01;  0.0000000E+00; -6.1448250E+00;0; -6.3606828E-01;  1.0053574E+04;  0.0000000E+00;  4.2290849E-04;  1.0000000E+04;  0.0000000E+00;  9.9916230E+03; -7.3880196E-01;  0.0000000E+00;  1.0273369E-01;  4.2329238E+03;
  4.7958663E-01;  9.9999998E-03; -2.2005694E-01;1777; -1.5621057E-01;  0.0000000E+00; -2.2781996E-02;  1.0022413E+03;  4.0000230E-01;  1.8569296E+03;3; -3.8823715E+01;  0.0000000E+00; -5.5371175E+00;0; -6.3913316E-01;  1.0052729E+04;  0.0000000E+00;  1.5506717E-04;  1.0000000E+04;  0.0000000E+00;  9.9920645E+03; -7.4062413E-01;  0.0000000E+00;  1.0149095E-01;  4.0142053E+03;
  4.7959009E-01;  9.9999998E-03; -2.0004964E-01;1778; -1.5708478E-01;  0.0000000E+00; -2.0795131E-02;  1.0022232E+03;  4.0000227E-01;  1.8419176E+03;3; -3.8971935E+01;  0.0000000E+00; -5.1352425E+00;0; -6.4182329E-01;  1.0051806E+04;  0.0000000E+00;  4.1140607E-05;  1.0000000E+04;  0.0000000E+00;  9.9926182E+03; -7.4249649E-01;  0.0000000E+00;  1.0067320E-01;  3.7370178E+03;
  4.9955916E-01;  9.9999998E-03; -3.0011192E-01;1804; -1.5384179E-01;  0.0000000E+00; -3.3112291E-02;  1.0025471E+03;  4.0000534E-01;  2.1102529E+03;3; -6.1356972E+01;  0.0000000E+00; -1.1324205E+01;0; -6.7081267E-01;  1.0061769E+04;  0.0000000E+00;  3.5166036E-04;  1.0000000E+04;  0.0000000E+00;  9.9890078E+03; -7.8925061E-01;  0.0000000E+00;  1.1843797E-01;  5.5360396E+03;
  4.9954334E-01;  9.9999998E-03; -2.8009781E-01;1805; -1.6084842E-01;  0.0000000E+00; -3.0850742E-02;  1.0025573E+03;  4.0000543E-01;  2.1186477E+03;3; -5.2887688E+01;  0.0000000E+00; -8.7892866E+00;0; -6.7382169E-01;  1.0060986E+04;  0.0000000E+00;  1.3225587E-03;  1.0000000E+04;  0.0000000E+00;  9.9899932E+03; -7.8805357E-01;  0.0000000E+00;  1.1423190E-01;  5.0512188E+03;
  4.9953398E-01;  9.9999998E-03; -2.6008371E-01;1806; -1.6610189E-01;  0.0000000E+00; -2.8454073E-02;  1.0025465E+03;  4.0000537E-01;  2.1097593E+03;3; -4.6263569E+01;  0.0000000E+00; -6.9368844E+00;0; -6.7778790E-01;  1.0060073E+04;  0.0000000E+00;  1.1108540E-03;  1.0000000E+04;  0.0000000E+00;  9.9906963E+03; -7.8727752E-01;  0.0000000E+00;  1.0948963E-01;  4.7100605E+03;
  4.9953032E-01;  9.9999998E-03; -2.4007297E-01;1807; -1.6971448E-01;  0.0000000E+00; -2.6269283E-02;  1.0025065E+03;  4.0000540E-01;  2.0765752E+03;3; -4.2370567E+01;  0.0000000E+00; -5.7515373E+00;0; -6.7911541E-01;  1.0059037E+04;  0.0000000E+00;  6.0124928E-04;  1.0000000E+04;  0.0000000E+00;  9.9909238E+03; -7.8698796E-01;  0.0000000E+00;  1.0787255E-01;  4.5960801E+03;
  4.9953139E-01;  9.9999998E-03; -2.2006455E-01;1808; -1.7181027E-01;  0.0000000E+00; -2.4336426E-02;  1.0024712E+03;  4.0000534E-01;  2.0473414E+03;3; -4.0946438E+01;  0.0000000E+00; -5.1444235E+00;0; -6.8019587E-01;  1.0057906E+04;  0.0000000E+00;  2.4068741E-04;  1.0000000E+04;  0.0000000E+00;  9.9913398E+03; -7.8726453E-01;  0.0000000E+00;  1.0706867E-01;  4.3870059E+03;
  4.9953592E-01;  9.9999998E-03; -2.0005707E-01;1809; -1.7276545E-01;  0.0000000E+00; -2.2296691E-02;  1.0024417E+03;  4.0000546E-01;  2.0228484E+03;3; -4.1135487E+01;  0.0000000E+00; -4.7734923E+00;0; -6.8145591E-01;  1.0056740E+04;  0.0000000E+00;  7.9269616E-05;  1.0000000E+04;  0.0000000E+00;  9.9919141E+03; -7.8812343E-01;  0.0000000E+00;  1.0666753E-01;  4.1003032E+03;
  5.1949424E-01;  9.9999998E-03; -3.0012861E-01;1835; -1.6976318E-01;  0.0000000E+00; -3.5642430E-02;  1.0028165E+03;  4.0001476E-01;  2.3333538E+03;3; -6.5686684E+01;  0.0000000E+00; -1.1173019E+01;0; -7.1158230E-01;  1.0067712E+04;  0.0000000E+00;  2.8519126E-04;  1.0000000E+04;  0.0000000E+00;  9.9879883E+03; -8.3648670E-01;  0.0000000E+00;  1.2490442E-01;  6.0566338E+03;
  5.1947886E-01;  9.9999998E-03; -2.8011158E-01;1836; -1.7707093E-01;  0.0000000E+00; -3.3080090E-02;  1.0028278E+03;  4.0001476E-01;  2.3427361E+03;3; -5.6237545E+01;  0.0000000E+00; -8.3505163E+00;0; -7.1314156E-01;  1.0066584E+04;  0.0000000E+00;  1.7890012E-03;  1.0000000E+04;  0.0000000E+00;  9.9893340E+03; -8.3242905E-01;  0.0000000E+00;  1.1928749E-01;  5.3926904E+03;
  5.1947033E-01;  9.9999998E-03; -2.6009437E-01;1837; -1.8256582E-01;  0.0000000E+00; -3.0242300E-02;  1.0028055E+03;  4.0001458E-01;  2.3243665E+03;3; -4.8903332E+01;  0.0000000E+00; -6.3424544E+00;0; -7.1605051E-01;  1.0065311E+04;  0.0000000E+00;  1.6041134E-03;  1.0000000E+04;  0.0000000E+00;  9.9901631E+03; -8.2886237E-01;  0.0000000E+00;  1.1281189E-01;  4.9900264E+03;
  5.1946771E-01;  9.9999998E-03; -2.4008273E-01;1838; -1.8636625E-01;  0.0000000E+00; -2.7838726E-02;  1.0027374E+03;  4.0001473E-01;  2.2678745E+03;3; -4.4615448E+01;  0.0000000E+00; -5.0805006E+00;0; -7.1386790E-01;  1.0063940E+04;  0.0000000E+00;  9.1397291E-04;  1.0000000E+04;  0.0000000E+00;  9.9901768E+03; -8.2613134E-01;  0.0000000E+00;  1.1226347E-01;  4.9815083E+03;
  5.1947004E-01;  9.9999998E-03; -2.2007440E-01;1839; -1.8856733E-01;  0.0000000E+00; -2.5961474E-02;  1.0026828E+03;  4.0001467E-01;  2.2226414E+03;3; -4.3049198E+01;  0.0000000E+00; -4.4939213E+00;0; -7.1184391E-01;  1.0062513E+04;  0.0000000E+00;  3.9152283E-04;  1.0000000E+04;  0.0000000E+00;  9.9905059E+03; -8.2450891E-01;  0.0000000E+00;  1.1266500E-01;  4.8156519E+03;
  5.1947588E-01;  9.9999998E-03; -2.0006707E-01;1840; -1.8957528E-01;  0.0000000E+00; -2.3979871E-02;  1.0026412E+03;  4.0001470E-01;  2.1881736E+03;3; -4.3274456E+01;  0.0000000E+00; -4.1595640E+00;0; -7.1115607E-01;  1.0061105E+04;  0.0000000E+00;  1.4451383E-04;  1.0000000E+04;  0.0000000E+00;  9.9910654E+03; -8.2411718E-01;  0.0000000E+00;  1.1296109E-01;  4.5297495E+03;
  5.3941840E-01;  9.9999998E-03; -3.0014887E-01;1866; -1.8759583E-01;  0.0000000E+00; -3.8431734E-02;  1.0030636E+03;  4.0003961E-01;  2.5380828E+03;3; -7.0371346E+01;  0.0000000E+00; -1.0841108E+01;0; -7.3686910E-01;  1.0072187E+04;  0.0000000E+00;  2.7770951E-04;  1.0000000E+04;  0.0000000E+00;  9.9871836E+03; -8.6551207E-01;  0.0000000E+00;  1.2864301E-01;  6.4680122E+03;
  5.3940582E-01;  9.9999998E-03; -2.8012821E-01;1867; -1.9478957E-01;  0.0000000E+00; -3.5470769E-02;  1.0030768E+03;  4.0003958E-01;  2.5490454E+03;3; -5.9728569E+01;  0.0000000E+00; -7.6370397E+00;0; -7.3700130E-01;  1.0070734E+04;  0.0000000E+00;  2.5733116E-03;  1.0000000E+04;  0.0000000E+00;  9.9889033E+03; -8.5864794E-01;  0.0000000E+00;  1.2164663E-01;  5.6211792E+03;
  5.3939956E-01;  9.9999998E-03; -2.6010764E-01;1868; -2.0028298E-01;  0.0000000E+00; -3.2049965E-02;  1.0030343E+03;  4.0003964E-01;  2.5138862E+03;3; -5.1585030E+01;  0.0000000E+00; -5.4205465E+00;0; -7.3818958E-01;  1.0069138E+04;  0.0000000E+00;  2.4690444E-03;  1.0000000E+04;  0.0000000E+00;  9.9896475E+03; -8.5236615E-01;  0.0000000E+00;  1.1417654E-01;  5.2589409E+03;
  5.3939885E-01;  9.9999998E-03; -2.4009563E-01;1869; -2.0413458E-01;  0.0000000E+00; -2.9537385E-02;  1.0029284E+03;  4.0003964E-01;  2.4260869E+03;3; -4.6853024E+01;  0.0000000E+00; -4.0903454E+00;0; -7.3034537E-01;  1.0067466E+04;  0.0000000E+00;  1.4760544E-03;  1.0000000E+04;  0.0000000E+00;  9.9892070E+03; -8.4733009E-01;  0.0000000E+00;  1.1698470E-01;  5.4709688E+03;
  5.3940290E-01;  9.9999998E-03; -2.2008801E-01;1870; -2.0636585E-01;  0.0000000E+00; -2.7877139E-02;  1.0028526E+03;  4.0003973E-01;  2.3632742E+03;3; -4.5135483E+01;  0.0000000E+00; -3.5245967E+00;0; -7.2435272E-01;  1.0065793E+04;  0.0000000E+00;  6.5420277E-04;  1.0000000E+04;  0.0000000E+00;  9.9893584E+03; -8.4398514E-01;  0.0000000E+00;  1.1963239E-01;  5.3874658E+03;
  5.3941035E-01;  9.9999998E-03; -2.0008102E-01;1871; -2.0739684E-01;  0.0000000E+00; -2.6064834E-02;  1.0028006E+03;  4.0003970E-01;  2.3202141E+03;3; -4.5379066E+01;  0.0000000E+00; -3.2836549E+00;0; -7.2166491E-01;  1.0064188E+04;  0.0000000E+00;  2.4056379E-04;  1.0000000E+04;  0.0000000E+00;  9.9899121E+03; -8.4251690E-01;  0.0000000E+00;  1.2085199E-01;  5.1062246E+03;
  5.5933172E-01;  9.9999998E-03; -3.0017403E-01;1897; -2.0731395E-01;  0.0000000E+00; -4.1633721E-02;  1.0032875E+03;  4.0010655E-01;  2.7235515E+03;3; -7.5417419E+01;  0.0000000E+00; -1.0319348E+01;0; -7.3276341E-01;  1.0073803E+04;  0.0000000E+00;  4.1399882E-04;  1.0000000E+04;  0.0000000E+00;  9.9866494E+03; -8.6126012E-01;  0.0000000E+00;  1.2849668E-01;  6.7394917E+03;
  5.5932510E-01;  9.9999998E-03; -2.8014931E-01;1898; -2.1377632E-01;  0.0000000E+00; -3.8194239E-02;  1.0033016E+03;  4.0010661E-01;  2.7353040E+03;3; -6.3321957E+01;  0.0000000E+00; -6.6361375E+00;0; -7.3190987E-01;  1.0072154E+04;  0.0000000E+00;  3.8521260E-03;  1.0000000E+04;  0.0000000E+00;  9.9885840E+03; -8.5283935E-01;  0.0000000E+00;  1.2092946E-01;  5.7858374E+03;
  5.5932295E-01;  9.9999998E-03; -2.6012534E-01;1899; -2.1892259E-01;  0.0000000E+00; -3.4155127E-02;  1.0032284E+03;  4.0010658E-01;  2.6746643E+03;3; -5.4253437E+01;  0.0000000E+00; -4.2026529E+00;0; -7.3024678E-01;  1.0070373E+04;  0.0000000E+00;  3.9485418E-03;  1.0000000E+04;  0.0000000E+00;  9.9889033E+03; -8.4518850E-01;  0.0000000E+00;  1.1494173E-01;  5.6324849E+03;
  5.5932528E-01;  9.9999998E-03; -2.4011368E-01;1900; -2.2258539E-01;  0.0000000E+00; -3.1746898E-02;  1.0030793E+03;  4.0010661E-01;  2.5511135E+03;3; -4.9026489E+01;  0.0000000E+00; -2.8007567E+00;0; -7.1491277E-01;  1.0068560E+04;  0.0000000E+00;  2.4645808E-03;  1.0000000E+04;  0.0000000E+00;  9.9877441E+03; -8.3916551E-01;  0.0000000E+00;  1.2425273E-01;  6.1924185E+03;
  5.5933154E-01;  9.9999998E-03; -2.2010717E-01;1901; -2.2476937E-01;  0.0000000E+00; -3.0454308E-02;  1.0029855E+03;  4.0010682E-01;  2.4733879E+03;3; -4.7140251E+01;  0.0000000E+00; -2.2585623E+00;0; -7.0500845E-01;  1.0066775E+04;  0.0000000E+00;  1.1063770E-03;  1.0000000E+04;  0.0000000E+00;  9.9876475E+03; -8.3522528E-01;  0.0000000E+00;  1.3021682E-01;  6.2288110E+03;
  5.5934066E-01;  9.9999998E-03; -2.0010027E-01;1902; -2.2583057E-01;  0.0000000E+00; -2.8819475E-02;  1.0029301E+03;  4.0010673E-01;  2.4275625E+03;3; -4.7391178E+01;  0.0000000E+00; -2.1512728E+00;0; -7.0108604E-01;  1.0065104E+04;  0.0000000E+00;  3.7027177E-04;  1.0000000E+04;  0.0000000E+00;  9.9882002E+03; -8.3353049E-01;  0.0000000E+00;  1.3244446E-01;  5.9460767E+03;
  5.7923764E-01;  9.9999998E-03; -3.0020621E-01;1928; -2.2807506E-01;  0.0000000E+00; -4.5535963E-02;  1.0035574E+03;  4.0028414E-01;  2.9471384E+03;3; -8.0572891E+01;  0.0000000E+00; -9.6177750E+00;0; -6.7812574E-01;  1.0070722E+04;  0.0000000E+00;  8.6109038E-04;  1.0000000E+04;  0.0000000E+00;  9.9861855E+03; -8.0281347E-01;  0.0000000E+00;  1.2468772E-01;  6.9567881E+03;
  5.7924038E-01;  9.9999998E-03; -2.8017762E-01;1929; -2.3316231E-01;  0.0000000E+00; -4.1608933E-02;  1.0035692E+03;  4.0028432E-01;  2.9570144E+03;3; -6.6863213E+01;  0.0000000E+00; -5.3709221E+00;0; -6.7750186E-01;  1.0069155E+04;  0.0000000E+00;  5.8907266E-03;  1.0000000E+04;  0.0000000E+00;  9.9879893E+03; -7.9583186E-01;  0.0000000E+00;  1.1833002E-01;  6.0683252E+03;
  5.7924420E-01;  9.9999998E-03; -2.6015061E-01;1930; -2.3760648E-01;  0.0000000E+00; -3.7019927E-02;  1.0034626E+03;  4.0028438E-01;  2.8687217E+03;3; -5.6784481E+01;  0.0000000E+00; -2.6129117E+00;0; -6.7240542E-01;  1.0067499E+04;  0.0000000E+00;  6.3641267E-03;  1.0000000E+04;  0.0000000E+00;  9.9875264E+03; -7.9012758E-01;  0.0000000E+00;  1.1772214E-01;  6.2986851E+03;
  5.7925034E-01;  9.9999998E-03; -2.4013907E-01;1931; -2.4086845E-01;  0.0000000E+00; -3.4896210E-02;  1.0032778E+03;  4.0028441E-01;  2.7155430E+03;3; -5.1014759E+01;  0.0000000E+00; -1.1792638E+00;0; -6.4998984E-01;  1.0065847E+04;  0.0000000E+00;  4.0942747E-03;  1.0000000E+04;  0.0000000E+00;  9.9854932E+03; -7.8641379E-01;  0.0000000E+00;  1.3642392E-01;  7.2813047E+03;
  5.7925916E-01;  9.9999998E-03; -2.2013320E-01;1932; -2.4284451E-01;  0.0000000E+00; -3.4026209E-02;  1.0031779E+03;  4.0028447E-01;  2.6327808E+03;3; -4.8867561E+01;  0.0000000E+00; -8.3828902E-01;0; -6.3819921E-01;  1.0064240E+04;  0.0000000E+00;  1.8334877E-03;  1.0000000E+04;  0.0000000E+00;  9.9851025E+03; -7.8475410E-01;  0.0000000E+00;  1.4655489E-01;  7.4599897E+03;
  5.7926989E-01;  9.9999998E-03; -2.0012577E-01;1933; -2.4400683E-01;  0.0000000E+00; -3.2464281E-02;  1.0031305E+03;  4.0028465E-01;  2.5934739E+03;3; -4.9167850E+01;  0.0000000E+00; -8.0587333E-01;0; -6.3498282E-01;  1.0062726E+04;  0.0000000E+00;  5.3498149E-04;  1.0000000E+04;  0.0000000E+00;  9.9856680E+03; -7.8498644E-01;  0.0000000E+00;  1.5000360E-01;  7.1711816E+03;
  5.9914422E-01;  9.9999998E-03; -3.0024883E-01;1959; -2.4825791E-01;  0.0000000E+00; -5.0658587E-02;  1.0041319E+03;  4.0073517E-01;  3.4231528E+03;3; -8.5519180E+01;  0.0000000E+00; -8.9522896E+00;0; -5.4148841E-01;  1.0060721E+04;  0.0000000E+00;  1.8564587E-03;  1.0000000E+04;  0.0000000E+00;  9.9850928E+03; -6.6249895E-01;  0.0000000E+00;  1.2101056E-01;  7.4595044E+03;
  5.9915799E-01;  9.9999998E-03; -2.8021762E-01;1960; -2.5151363E-01;  0.0000000E+00; -4.6336900E-02;  1.0041394E+03;  4.0073544E-01;  3.4293750E+03;3; -7.0068649E+01;  0.0000000E+00; -3.9389997E+00;0; -5.4414648E-01;  1.0059647E+04;  0.0000000E+00;  9.1014905E-03;  1.0000000E+04;  0.0000000E+00;  9.9863115E+03; -6.6166800E-01;  0.0000000E+00;  1.1752155E-01;  6.8630786E+03;
  5.9916866E-01;  9.9999998E-03; -2.6018786E-01;1961; -2.5490010E-01;  0.0000000E+00; -4.1621998E-02;  1.0040195E+03;  4.0073574E-01;  3.3300215E+03;3; -5.8982452E+01;  0.0000000E+00; -6.7432308E-01;0; -5.3556573E-01;  1.0058559E+04;  0.0000000E+00;  1.0155100E-02;  1.0000000E+04;  0.0000000E+00;  9.9850166E+03; -6.6292179E-01;  0.0000000E+00;  1.2735605E-01;  7.4966094E+03;
  5.9917849E-01;  9.9999998E-03; -2.4017353E-01;1962; -2.5773284E-01;  0.0000000E+00; -3.9358746E-02;  1.0038319E+03;  4.0073606E-01;  3.1745718E+03;3; -5.2590984E+01;  0.0000000E+00;  5.9274805E-01;0; -5.1274854E-01;  1.0057508E+04;  0.0000000E+00;  6.6500297E-03;  1.0000000E+04;  0.0000000E+00;  9.9823369E+03; -6.6653156E-01;  0.0000000E+00;  1.5378301E-01;  8.7913594E+03;
  5.9918940E-01;  9.9999998E-03; -2.2016592E-01;1963; -2.5976777E-01;  0.0000000E+00; -3.8289491E-02;  1.0037451E+03;  4.0073642E-01;  3.1026736E+03;3; -5.0262981E+01;  0.0000000E+00;  9.4742543E-01;0; -5.0301611E-01;  1.0056485E+04;  0.0000000E+00;  2.9488674E-03;  1.0000000E+04;  0.0000000E+00;  9.9816172E+03; -6.7182744E-01;  0.0000000E+00;  1.6881134E-01;  9.1289639E+03;
  5.9920150E-01;  9.9999998E-03; -2.0015652E-01;1964; -2.6103866E-01;  0.0000000E+00; -3.6609087E-02;  1.0037224E+03;  4.0073636E-01;  3.0838103E+03;3; -5.0576912E+01;  0.0000000E+00;  8.3579820E-01;0; -5.0332975E-01;  1.0055479E+04;  0.0000000E+00;  7.3686504E-04;  1.0000000E+04;  0.0000000E+00;  9.9821602E+03; -6.7789084E-01;  0.0000000E+00;  1.7456105E-01;  8.8515820E+03;
  6.1906195E-01;  9.9999998E-03; -3.0030704E-01;1990; -2.6557535E-01;  0.0000000E+00; -5.7617016E-02;  1.0055922E+03;  4.0177003E-01;  4.6329468E+03;3; -8.9494774E+01;  0.0000000E+00; -8.3066635E+00;0; -2.8536880E-01;  1.0041597E+04;  0.0000000E+00;  3.4785264E-03;  1.0000000E+04;  0.0000000E+00;  9.9817471E+03; -4.0998074E-01;  0.0000000E+00;  1.2461193E-01;  9.0316309E+03;
  6.1908489E-01;  9.9999998E-03; -2.8027594E-01;1991; -2.6721725E-01;  0.0000000E+00; -5.3544689E-02;  1.0056040E+03;  4.0177086E-01;  4.6427241E+03;3; -7.2804710E+01;  0.0000000E+00; -2.2437425E+00;0; -2.9114121E-01;  1.0041464E+04;  0.0000000E+00;  1.3624849E-02;  1.0000000E+04;  0.0000000E+00;  9.9820732E+03; -4.2055255E-01;  0.0000000E+00;  1.2941135E-01;  8.8753428E+03;
  6.1909926E-01;  9.9999998E-03; -2.6024047E-01;1992; -2.7015251E-01;  0.0000000E+00; -4.8637513E-02;  1.0055519E+03;  4.0177161E-01;  4.5995654E+03;3; -6.0708752E+01;  0.0000000E+00;  1.1085576E+00;0; -2.9016423E-01;  1.0041390E+04;  0.0000000E+00;  1.5414287E-02;  1.0000000E+04;  0.0000000E+00;  9.9811143E+03; -4.3392015E-01;  0.0000000E+00;  1.4375590E-01;  9.3418760E+03;
  6.1911207E-01;  9.9999998E-03; -2.4021834E-01;1993; -2.7286923E-01;  0.0000000E+00; -4.5029294E-02;  1.0054143E+03;  4.0177220E-01;  4.4854971E+03;3; -5.3819485E+01;  0.0000000E+00;  2.6345720E+00;0; -2.7685097E-01;  1.0041389E+04;  0.0000000E+00;  1.0359176E-02;  1.0000000E+04;  0.0000000E+00;  9.9783750E+03; -4.4986579E-01;  0.0000000E+00;  1.7301482E-01;  1.0669542E+04;
  6.1912549E-01;  9.9999998E-03; -2.2020529E-01;1994; -2.7473551E-01;  0.0000000E+00; -4.3331224E-02;  1.0053614E+03;  4.0177280E-01;  4.4417466E+03;3; -5.1319527E+01;  0.0000000E+00;  3.0540760E+00;0; -2.7194795E-01;  1.0041392E+04;  0.0000000E+00;  4.6414440E-03;  1.0000000E+04;  0.0000000E+00;  9.9773135E+03; -4.6693444E-01;  0.0000000E+00;  1.9498649E-01;  1.1172482E+04;
  6.1913902E-01;  9.9999998E-03; -2.0019154E-01;1995; -2.7610028E-01;  0.0000000E+00; -4.0955655E-02;  1.0053777E+03;  4.0177307E-01;  4.4551777E+03;3; -5.1668503E+01;  0.0000000E+00;  2.9071946E+00;0; -2.7811995E-01;  1.0041283E+04;  0.0000000E+00;  1.0662390E-03;  1.0000000E+04;  0.0000000E+00;  9.9777227E+03; -4.8323694E-01;  0.0000000E+00;  2.0511699E-01;  1.0959133E+04;
  6.3900131E-01;  9.9999998E-03; -3.0038425E-01;2021; -2.7811098E-01;  0.0000000E+00; -6.7004584E-02;  1.0085139E+03;  4.0367714E-01;  7.0533086E+03;3; -9.2592331E+01;  0.0000000E+00; -8.2512255E+00;0;  1.1964016E-01;  1.0012066E+04;  0.0000000E+00;  5.1286304E-03;  1.0000000E+04;  0.0000000E+00;  9.9746865E+03; -2.4362296E-02;  0.0000000E+00;  1.4400245E-01;  1.2382791E+04;
  6.3902658E-01;  9.9999998E-03; -2.8035635E-01;2022; -2.7970824E-01;  0.0000000E+00; -6.3840009E-02;  1.0085569E+03;  4.0367869E-01;  7.0889609E+03;3; -7.4934959E+01;  0.0000000E+00; -5.7667035E-01;0;  1.0892576E-01;  1.0013221E+04;  0.0000000E+00;  1.8123971E-02;  1.0000000E+04;  0.0000000E+00;  9.9743154E+03; -5.0130773E-02;  0.0000000E+00;  1.5905653E-01;  1.2572154E+04;
  6.3904250E-01;  9.9999998E-03; -2.6031896E-01;2023; -2.8268337E-01;  0.0000000E+00; -5.9244744E-02;  1.0086323E+03;  4.0367967E-01;  7.1514756E+03;3; -6.2098629E+01;  0.0000000E+00;  2.7778339E+00;0;  9.2640154E-02;  1.0014489E+04;  0.0000000E+00;  2.1195056E-02;  1.0000000E+04;  0.0000000E+00;  9.9745283E+03; -7.8862064E-02;  0.0000000E+00;  1.7150222E-01;  1.2465199E+04;
  6.3905579E-01;  9.9999998E-03; -2.4028119E-01;2024; -2.8543696E-01;  0.0000000E+00; -5.3505156E-02;  1.0086473E+03;  4.0368047E-01;  7.1639194E+03;3; -5.4747456E+01;  0.0000000E+00;  4.7639704E+00;0;  8.4107600E-02;  1.0015839E+04;  0.0000000E+00;  1.4883577E-02;  1.0000000E+04;  0.0000000E+00;  9.9734727E+03; -1.0991240E-01;  0.0000000E+00;  1.9402000E-01;  1.2972620E+04;
  6.3907015E-01;  9.9999998E-03; -2.2025259E-01;2025; -2.8724945E-01;  0.0000000E+00; -4.9207233E-02;  1.0086667E+03;  4.0368131E-01;  7.1799185E+03;3; -5.2101318E+01;  0.0000000E+00;  5.2888346E+00;0;  7.9239771E-02;  1.0017142E+04;  0.0000000E+00;  7.0174360E-03;  1.0000000E+04;  0.0000000E+00;  9.9725322E+03; -1.4126755E-01;  0.0000000E+00;  2.2050732E-01;  1.3415572E+04;
  6.3908589E-01;  9.9999998E-03; -2.0023149E-01;2026; -2.8834701E-01;  0.0000000E+00; -4.5596734E-02;  1.0087284E+03;  4.0368184E-01;  7.2310757E+03;3; -5.2349945E+01;  0.0000000E+00;  5.3016071E+00;0;  6.8039849E-02;  1.0018228E+04;  0.0000000E+00;  1.7609487E-03;  1.0000000E+04;  0.0000000E+00;  9.9726436E+03; -1.7025530E-01;  0.0000000E+00;  2.3829515E-01;  1.3345342E+04;
  6.5896952E-01;  9.9999998E-03; -3.0047408E-01;2052; -2.8386164E-01;  0.0000000E+00; -7.7833131E-02;  1.0121147E+03;  4.0609765E-01;  1.0036430E+04;3; -9.3246605E+01;  0.0000000E+00; -8.5624905E+00;0;  6.5109736E-01;  9.9730068E+03;  0.0000000E+00;  4.8398483E-03;  1.0000000E+04;  0.0000000E+00;  9.9655322E+03;  4.8742366E-01;  0.0000000E+00;  1.6367368E-01;  1.6739803E+04;
  6.5899283E-01;  9.9999998E-03; -2.8045186E-01;2053; -2.8609321E-01;  0.0000000E+00; -7.7054732E-02;  1.0122004E+03;  4.0609914E-01;  1.0107437E+04;3; -7.5729424E+01;  0.0000000E+00;  8.3981007E-01;0;  6.4995474E-01;  9.9755283E+03;  0.0000000E+00;  1.9893371E-02;  1.0000000E+04;  0.0000000E+00;  9.9646367E+03;  4.4666693E-01;  0.0000000E+00;  2.0328780E-01;  1.7167398E+04;
  6.5900940E-01;  9.9999998E-03; -2.6042259E-01;2054; -2.8937179E-01;  0.0000000E+00; -7.4013919E-02;  1.0123860E+03;  4.0609962E-01;  1.0261203E+04;3; -6.2396038E+01;  0.0000000E+00;  4.0097270E+00;0;  6.1408252E-01;  9.9781865E+03;  0.0000000E+00;  2.5107823E-02;  1.0000000E+04;  0.0000000E+00;  9.9656338E+03;  4.0337783E-01;  0.0000000E+00;  2.1070470E-01;  1.6684131E+04;
  6.5902221E-01;  9.9999998E-03; -2.4037459E-01;2055; -2.9237738E-01;  0.0000000E+00; -6.7966700E-02;  1.0126048E+03;  4.0609980E-01;  1.0442425E+04;3; -5.4971771E+01;  0.0000000E+00;  6.2711954E+00;0;  5.8096838E-01;  9.9808965E+03;  0.0000000E+00;  1.8876467E-02;  1.0000000E+04;  0.0000000E+00;  9.9672510E+03;  3.5893312E-01;  0.0000000E+00;  2.2203529E-01;  1.5881904E+04;
  6.5903413E-01;  9.9999998E-03; -2.2032166E-01;2056; -2.9499418E-01;  0.0000000E+00; -5.9003968E-02;  1.0127485E+03;  4.0610015E-01;  1.0561429E+04;3; -5.2237385E+01;  0.0000000E+00;  7.3620224E+00;0;  5.5886036E-01;  9.9835039E+03;  0.0000000E+00;  9.6920207E-03;  1.0000000E+04;  0.0000000E+00;  9.9674854E+03;  3.1542557E-01;  0.0000000E+00;  2.4343479E-01;  1.5755471E+04;
  6.5904921E-01;  9.9999998E-03; -2.0028339E-01;2057; -2.9661894E-01;  0.0000000E+00; -5.1966518E-02;  1.0128614E+03;  4.0610066E-01;  1.0654953E+04;3; -5.2685719E+01;  0.0000000E+00;  7.6604433E+00;0;  5.4491270E-01;  9.9857891E+03;  0.0000000E+00;  3.0035176E-03;  1.0000000E+04;  0.0000000E+00;  9.9674102E+03;  2.7568999E-01;  0.0000000E+00;  2.6922268E-01;  1.5772122E+04;
  6.7898405E-01;  9.9999998E-03; -3.0055633E-01;2083; -2.7727318E-01;  0.0000000E+00; -8.6593501E-02;  1.0144174E+03;  4.0805060E-01;  1.1943873E+04;3; -8.9331718E+01;  0.0000000E+00; -9.4492378E+00;0;  1.2088253E+00;  9.9285430E+03;  0.0000000E+00;  1.6671811E-03;  1.0000000E+04;  0.0000000E+00;  9.9595938E+03;  1.0728012E+00;  0.0000000E+00;  1.3602412E-01;  1.9533916E+04;
  6.7899173E-01;  9.9999998E-03; -2.8054067E-01;2084; -2.8425992E-01;  0.0000000E+00; -8.9279406E-02;  1.0145094E+03;  4.0805104E-01;  1.2020114E+04;3; -7.4148682E+01;  0.0000000E+00;  2.1793823E+00;0;  1.2411758E+00;  9.9320488E+03;  0.0000000E+00;  1.6091879E-02;  1.0000000E+04;  0.0000000E+00;  9.9578809E+03;  1.0242232E+00;  0.0000000E+00;  2.1695258E-01;  2.0327629E+04;
  6.7900610E-01;  9.9999998E-03; -2.6052436E-01;2085; -2.8904054E-01;  0.0000000E+00; -8.9084290E-02;  1.0147212E+03;  4.0805084E-01;  1.2195507E+04;3; -6.1075905E+01;  0.0000000E+00;  5.2168012E+00;0;  1.2064840E+00;  9.9357510E+03;  0.0000000E+00;  2.4093540E-02;  1.0000000E+04;  0.0000000E+00;  9.9583643E+03;  9.7348613E-01;  0.0000000E+00;  2.3299788E-01;  2.0092643E+04;
  6.7901814E-01;  9.9999998E-03; -2.4048457E-01;2086; -2.9219455E-01;  0.0000000E+00; -8.5967034E-02;  1.0150444E+03;  4.0804994E-01;  1.2463234E+04;3; -5.3847603E+01;  0.0000000E+00;  7.8215466E+00;0;  1.1698067E+00;  9.9394414E+03;  0.0000000E+00;  2.0062633E-02;  1.0000000E+04;  0.0000000E+00;  9.9610752E+03;  9.2351955E-01;  0.0000000E+00;  2.4628715E-01;  1.8749479E+04;
  6.7902535E-01;  9.9999998E-03; -2.2041444E-01;2087; -2.9618263E-01;  0.0000000E+00; -7.4658819E-02;  1.0153052E+03;  4.0804920E-01;  1.2679315E+04;3; -5.1566124E+01;  0.0000000E+00;  8.8330441E+00;0;  1.1372449E+00;  9.9429590E+03;  0.0000000E+00;  1.1449986E-02;  1.0000000E+04;  0.0000000E+00;  9.9627129E+03;  8.7602681E-01;  0.0000000E+00;  2.6121807E-01;  1.7934059E+04;
  6.7903721E-01;  9.9999998E-03; -2.0035663E-01;2088; -2.9887325E-01;  0.0000000E+00; -6.3458510E-02;  1.0154600E+03;  4.0804899E-01;  1.2807601E+04;3; -5.2367771E+01;  0.0000000E+00;  9.7185230E+00;0;  1.1266360E+00;  9.9461182E+03;  0.0000000E+00;  4.4313916E-03;  1.0000000E+04;  0.0000000E+00;  9.9626064E+03;  8.3315474E-01;  0.0000000E+00;  2.9348129E-01;  1.7964545E+04;
  6.9913310E-01;  9.9999998E-03; -3.0062199E-01;2114; -2.3144338E-01;  0.0000000E+00; -9.5682047E-02;  1.0148567E+03;  4.0912944E-01;  1.2307546E+04;3; -6.9188942E+01;  0.0000000E+00; -9.5782137E+00;0;  1.7514992E+00;  9.8862852E+03;  0.0000000E+00;  6.6167363E-03;  1.0000000E+04;  0.0000000E+00;  9.9579111E+03;  1.6283448E+00;  0.0000000E+00;  1.2315445E-01;  2.0197133E+04;
  6.9906294E-01;  9.9999998E-03; -2.8061011E-01;2115; -2.6416349E-01;  0.0000000E+00; -9.9342920E-02;  1.0149095E+03;  4.0912896E-01;  1.2351296E+04;3; -6.5393898E+01;  0.0000000E+00;  3.8119371E+00;0;  1.7945621E+00;  9.8897881E+03;  0.0000000E+00;  1.0439590E-02;  1.0000000E+04;  0.0000000E+00;  9.9555205E+03;  1.5882311E+00;  0.0000000E+00;  2.0633097E-01;  2.1328129E+04;
  6.9905281E-01;  9.9999998E-03; -2.6060766E-01;2116; -2.7718425E-01;  0.0000000E+00; -1.0094645E-01;  1.0150399E+03;  4.0912825E-01;  1.2459234E+04;3; -5.6994659E+01;  0.0000000E+00;  6.6081767E+00;0;  1.7698023E+00;  9.8936318E+03;  0.0000000E+00;  1.8088566E-02;  1.0000000E+04;  0.0000000E+00;  9.9542822E+03;  1.5453113E+00;  0.0000000E+00;  2.2449094E-01;  2.1953123E+04;
  6.9906300E-01;  9.9999998E-03; -2.4058825E-01;2117; -2.7983013E-01;  0.0000000E+00; -1.0457192E-01;  1.0153397E+03;  4.0912682E-01;  1.2707702E+04;3; -5.0422951E+01;  0.0000000E+00;  9.9062996E+00;0;  1.7650532E+00;  9.8974697E+03;  0.0000000E+00;  1.7254753E-02;  1.0000000E+04;  0.0000000E+00;  9.9563799E+03;  1.5043824E+00;  0.0000000E+00;  2.6067081E-01;  2.0886455E+04;
  6.9906437E-01;  9.9999998E-03; -2.2052513E-01;2118; -2.8468290E-01;  0.0000000E+00; -9.8095924E-02;  1.0156401E+03;  4.0912530E-01;  1.2956565E+04;3; -4.8314857E+01;  0.0000000E+00;  9.7555418E+00;0;  1.7434814E+00;  9.9011445E+03;  0.0000000E+00;  1.0935106E-02;  1.0000000E+04;  0.0000000E+00;  9.9586436E+03;  1.4667358E+00;  0.0000000E+00;  2.7674556E-01;  1.9758408E+04;
  6.9907027E-01;  9.9999998E-03; -2.0045732E-01;2119; -2.8942025E-01;  0.0000000E+00; -8.5518457E-02;  1.0158131E+03;  4.0912449E-01;  1.3099859E+04;3; -5.0182537E+01;  0.0000000E+00;  1.0357767E+01;0;  1.7434762E+00;  9.9045342E+03;  0.0000000E+00;  5.0509013E-03;  1.0000000E+04;  0.0000000E+00;  9.9586699E+03;  1.4331092E+00;  0.0000000E+00;  3.1036705E-01;  1.9722445E+04;
  7.1940958E-01;  9.9999998E-03; -3.0067042E-01;2145; -1.5103686E-01;  0.0000000E+00; -1.0240074E-01;  1.0144966E+03;  4.0960369E-01;  1.2008979E+04;3; -4.1273254E+01;  0.0000000E+00; -1.0178121E+01;0;  2.1161799E+00;  9.8552979E+03;  0.0000000E+00;  1.2655490E-02;  1.0000000E+04;  0.0000000E+00;  9.9589473E+03;  2.0252442E+00;  0.0000000E+00;  9.0935610E-02;  1.9579643E+04;
  7.1932745E-01;  9.9999998E-03; -2.8065851E-01;2146; -1.8369173E-01;  0.0000000E+00; -1.0599884E-01;  1.0144779E+03;  4.0960366E-01;  1.1993377E+04;3; -4.0635963E+01;  0.0000000E+00;  4.3824868E+00;0;  2.1815782E+00;  9.8575117E+03;  0.0000000E+00;  1.6752981E-02;  1.0000000E+04;  0.0000000E+00;  9.9564102E+03;  2.0154116E+00;  0.0000000E+00;  1.6616666E-01;  2.0788514E+04;
  7.1925980E-01;  9.9999998E-03; -2.6066265E-01;2147; -2.1539558E-01;  0.0000000E+00; -1.0975327E-01;  1.0144601E+03;  4.0960327E-01;  1.1978665E+04;3; -4.0822357E+01;  0.0000000E+00;  9.2765474E+00;0;  2.2094636E+00;  9.8601641E+03;  0.0000000E+00;  1.5344352E-02;  1.0000000E+04;  0.0000000E+00;  9.9534688E+03;  2.0021644E+00;  0.0000000E+00;  2.0729919E-01;  2.2228850E+04;
  7.1921831E-01;  9.9999998E-03; -2.4066080E-01;2148; -2.3749737E-01;  0.0000000E+00; -1.1762393E-01;  1.0146304E+03;  4.0960154E-01;  1.2119782E+04;3; -4.0927429E+01;  0.0000000E+00;  1.2647372E+01;0;  2.2480190E+00;  9.8629863E+03;  0.0000000E+00;  1.2342754E-02;  1.0000000E+04;  0.0000000E+00;  9.9540615E+03;  1.9890852E+00;  0.0000000E+00;  2.5893372E-01;  2.1887451E+04;
  7.1920186E-01;  9.9999998E-03; -2.2062223E-01;2149; -2.4835896E-01;  0.0000000E+00; -1.2030537E-01;  1.0148658E+03;  4.0960008E-01;  1.2314721E+04;3; -4.0797939E+01;  0.0000000E+00;  1.2731619E+01;0;  2.2636092E+00;  9.8658320E+03;  0.0000000E+00;  8.0876816E-03;  1.0000000E+04;  0.0000000E+00;  9.9558691E+03;  1.9776175E+00;  0.0000000E+00;  2.8599176E-01;  2.0970418E+04;
  7.1920300E-01;  9.9999998E-03; -2.0056818E-01;2150; -2.5418311E-01;  0.0000000E+00; -1.1683174E-01;  1.0150081E+03;  4.0959930E-01;  1.2432630E+04;3; -4.2533772E+01;  0.0000000E+00;  1.0678098E+01;0;  2.2891304E+00;  9.8686729E+03;  0.0000000E+00;  4.1697002E-03;  1.0000000E+04;  0.0000000E+00;  9.9558428E+03;  1.9669058E+00;  0.0000000E+00;  3.2222459E-01;  2.0954951E+04;
  7.3964399E-01;  9.9999998E-03; -3.0070481E-01;2176; -8.9600086E-02;  0.0000000E+00; -1.0558280E-01;  1.0142822E+03;  4.0979025E-01;  1.1830888E+04;3; -2.3359564E+01;  0.0000000E+00; -1.0950513E+01;0;  2.2267919E+00;  9.8408066E+03;  0.0000000E+00;  2.4378488E-03;  1.0000000E+04;  0.0000000E+00;  9.9603906E+03;  2.1934648E+00;  0.0000000E+00;  3.3327091E-02;  1.8857068E+04;
  7.3959059E-01;  9.9999998E-03; -2.8069130E-01;2177; -1.0953705E-01;  0.0000000E+00; -1.0997684E-01;  1.0141743E+03;  4.0979049E-01;  1.1741521E+04;3; -2.2758163E+01;  0.0000000E+00;  7.5183082E+00;0;  2.3481603E+00;  9.8411709E+03;  0.0000000E+00;  1.1546239E-02;  1.0000000E+04;  0.0000000E+00;  9.9579326E+03;  2.2201242E+00;  0.0000000E+00;  1.2803605E-01;  2.0005482E+04;
  7.3954487E-01;  9.9999998E-03; -2.6068091E-01;2178; -1.2941422E-01;  0.0000000E+00; -1.1264270E-01;  1.0141252E+03;  4.0979043E-01;  1.1700837E+04;3; -2.2706903E+01;  0.0000000E+00;  1.0186531E+01;0;  2.4157803E+00;  9.8417734E+03;  0.0000000E+00;  1.1034972E-02;  1.0000000E+04;  0.0000000E+00;  9.9563975E+03;  2.2486835E+00;  0.0000000E+00;  1.6709691E-01;  2.0729322E+04;
  7.3951072E-01;  9.9999998E-03; -2.4067366E-01;2179; -1.4549690E-01;  0.0000000E+00; -1.1777023E-01;  1.0141220E+03;  4.0978935E-01;  1.1698173E+04;3; -2.2876823E+01;  0.0000000E+00;  1.4442786E+01;0;  2.5010438E+00;  9.8426865E+03;  0.0000000E+00;  7.7550807E-03;  1.0000000E+04;  0.0000000E+00;  9.9554736E+03;  2.2768242E+00;  0.0000000E+00;  2.2421952E-01;  2.1128809E+04;
  7.3949122E-01;  9.9999998E-03; -2.2063878E-01;2180; -1.5694165E-01;  0.0000000E+00; -1.2084734E-01;  1.0141940E+03;  4.0978831E-01;  1.1757817E+04;3; -2.4107756E+01;  0.0000000E+00;  1.4592364E+01;0;  2.5732646E+00;  9.8439678E+03;  0.0000000E+00;  4.6268133E-03;  1.0000000E+04;  0.0000000E+00;  9.9556436E+03;  2.3022850E+00;  0.0000000E+00;  2.7097973E-01;  2.0996063E+04;
  7.3948610E-01;  9.9999998E-03; -2.0058934E-01;2181; -1.6381726E-01;  0.0000000E+00; -1.1836632E-01;  1.0142291E+03;  4.0978751E-01;  1.1786949E+04;3; -2.6169018E+01;  0.0000000E+00;  1.2304597E+01;0;  2.6432500E+00;  9.8456865E+03;  0.0000000E+00;  2.3956953E-03;  1.0000000E+04;  0.0000000E+00;  9.9546318E+03;  2.3225641E+00;  0.0000000E+00;  3.2068598E-01;  2.1447287E+04;
  7.5980955E-01;  9.9999998E-03; -3.0072954E-01;2207; -5.1532548E-02;  0.0000000E+00; -1.0748612E-01;  1.0144732E+03;  4.0985954E-01;  1.1988487E+04;3; -1.4994208E+01;  0.0000000E+00; -1.0963023E+01;0;  2.1668158E+00;  9.8410947E+03;  0.0000000E+00; -6.2165209E-03;  1.0000000E+04;  0.0000000E+00;  9.9605508E+03;  2.1717782E+00;  0.0000000E+00; -4.9623968E-03;  1.8808951E+04;
  7.5977981E-01;  9.9999998E-03; -2.8071544E-01;2208; -6.1928652E-02;  0.0000000E+00; -1.1244935E-01;  1.0142642E+03;  4.0985993E-01;  1.1815390E+04;3; -1.4351976E+01;  0.0000000E+00;  1.2786432E+01;0;  2.3408785E+00;  9.8397871E+03;  0.0000000E+00;  2.1929678E-03;  1.0000000E+04;  0.0000000E+00;  9.9577744E+03;  2.2274485E+00;  0.0000000E+00;  1.1342999E-01;  2.0090537E+04;
  7.5975478E-01;  9.9999998E-03; -2.6068825E-01;2209; -7.2065800E-02;  0.0000000E+00; -1.1385923E-01;  1.0142350E+03;  4.0986010E-01;  1.1791198E+04;3; -1.3820992E+01;  0.0000000E+00;  1.0942196E+01;0;  2.4346323E+00;  9.8384980E+03;  0.0000000E+00;  3.8180742E-03;  1.0000000E+04;  0.0000000E+00;  9.9585273E+03;  2.2900407E+00;  0.0000000E+00;  1.4459158E-01;  1.9665289E+04;
  7.5973392E-01;  9.9999998E-03; -2.4067220E-01;2210; -8.0977522E-02;  0.0000000E+00; -1.1567818E-01;  1.0140944E+03;  4.0985948E-01;  1.1674779E+04;3; -1.3646124E+01;  0.0000000E+00;  1.5147982E+01;0;  2.5559244E+00;  9.8375566E+03;  0.0000000E+00;  2.7914993E-03;  1.0000000E+04;  0.0000000E+00;  9.9567549E+03;  2.3531148E+00;  0.0000000E+00;  2.0280957E-01;  2.0477557E+04;
  7.5972015E-01;  9.9999998E-03; -2.2063628E-01;2211; -8.7927066E-02;  0.0000000E+00; -1.1668536E-01;  1.0140251E+03;  4.0985885E-01;  1.1617313E+04;3; -1.4216221E+01;  0.0000000E+00;  1.5604880E+01;0;  2.6731312E+00;  9.8372461E+03;  0.0000000E+00;  1.5889505E-03;  1.0000000E+04;  0.0000000E+00;  9.9557500E+03;  2.4111090E+00;  0.0000000E+00;  2.6202217E-01;  2.0905070E+04;
  7.5971389E-01;  9.9999998E-03; -2.0058803E-01;2212; -9.2863984E-02;  0.0000000E+00; -1.1162458E-01;  1.0139620E+03;  4.0985817E-01;  1.1565077E+04;3; -1.5456841E+01;  0.0000000E+00;  1.5661365E+01;0;  2.7798212E+00;  9.8377246E+03;  0.0000000E+00;  8.0895721E-04;  1.0000000E+04;  0.0000000E+00;  9.9540596E+03;  2.4593458E+00;  0.0000000E+00;  3.2047540E-01;  2.1677455E+04;
  7.7992171E-01;  9.9999998E-03; -3.0074614E-01;2238; -2.8625011E-02;  0.0000000E+00; -1.0934850E-01;  1.0149407E+03;  4.0988383E-01;  1.2374930E+04;3; -1.1580149E+01;  0.0000000E+00; -1.1298409E+01;0;  2.0456667E+00;  9.8500146E+03;  0.0000000E+00; -4.8308722E-03;  1.0000000E+04;  0.0000000E+00;  9.9595342E+03;  2.0595446E+00;  0.0000000E+00; -1.3877944E-02;  1.9341787E+04;
  7.7991056E-01;  9.9999998E-03; -2.8073126E-01;2239; -3.2177474E-02;  0.0000000E+00; -1.1445816E-01;  1.0146585E+03;  4.0988445E-01;  1.2141120E+04;3; -1.0841553E+01;  0.0000000E+00;  1.4998965E+01;0;  2.2520123E+00;  9.8475391E+03;  0.0000000E+00; -1.1949170E-03;  1.0000000E+04;  0.0000000E+00;  9.9564922E+03;  2.1326237E+00;  0.0000000E+00;  1.1938860E-01;  2.0732705E+04;
  7.7990174E-01;  9.9999998E-03; -2.6069471E-01;2240; -3.5348136E-02;  0.0000000E+00; -1.1674856E-01;  1.0146359E+03;  4.0988451E-01;  1.2122461E+04;3; -1.0086111E+01;  0.0000000E+00;  1.1024816E+01;0;  2.3738253E+00;  9.8449736E+03;  0.0000000E+00;  1.3432212E-04;  1.0000000E+04;  0.0000000E+00;  9.9586553E+03;  2.2147408E+00;  0.0000000E+00;  1.5908466E-01;  1.9586043E+04;
  7.7989280E-01;  9.9999998E-03; -2.4066976E-01;2241; -3.8491551E-02;  0.0000000E+00; -1.1431400E-01;  1.0144352E+03;  4.0988412E-01;  1.1956286E+04;3; -9.6187181E+00;  0.0000000E+00;  1.5879683E+01;0;  2.5003052E+00;  9.8427764E+03;  0.0000000E+00;  2.6928642E-04;  1.0000000E+04;  0.0000000E+00;  9.9569688E+03;  2.2979481E+00;  0.0000000E+00;  2.0235699E-01;  2.0365543E+04;
  7.7988535E-01;  9.9999998E-03; -2.2063039E-01;2242; -4.1340817E-02;  0.0000000E+00; -1.1220519E-01;  1.0142873E+03;  4.0988374E-01;  1.1833655E+04;3; -9.5338459E+00;  0.0000000E+00;  1.7362680E+01;0;  2.6394913E+00;  9.8413252E+03;  0.0000000E+00;  1.4049179E-04;  1.0000000E+04;  0.0000000E+00;  9.9555625E+03;  2.3750021E+00;  0.0000000E+00;  2.6448923E-01;  2.0985492E+04;
  7.7988034E-01;  9.9999998E-03; -2.0058176E-01;2243; -4.3789878E-02;  0.0000000E+00; -1.0552235E-01;  1.0141663E+03;  4.0988326E-01;  1.1733536E+04;3; -9.8490448E+00;  0.0000000E+00;  1.8691847E+01;0;  2.7663412E+00;  9.8408789E+03;  0.0000000E+00;  5.4345895E-05;  1.0000000E+04;  0.0000000E+00;  9.9536699E+03;  2.4398842E+00;  0.0000000E+00;  3.2645714E-01;  2.1848689E+04;
  8.0001116E-01;  9.9999998E-03; -3.0075470E-01;2269; -8.9902906E-03;  0.0000000E+00; -1.1055651E-01;  1.0154529E+03;  4.0989065E-01;  1.2797947E+04;3; -7.6566033E+00;  0.0000000E+00; -1.1479433E+01;0;  1.9427625E+00;  9.8610225E+03;  0.0000000E+00; -6.0154952E-04;  1.0000000E+04;  0.0000000E+00;  9.9581055E+03;  1.9506723E+00;  0.0000000E+00; -7.9097711E-03;  2.0057547E+04;
  8.0001521E-01;  9.9999998E-03; -2.8073928E-01;2270; -7.3513719E-03;  0.0000000E+00; -1.1516591E-01;  1.0151309E+03;  4.0989128E-01;  1.2531282E+04;3; -7.1037803E+00;  0.0000000E+00;  1.5998330E+01;0;  2.1554017E+00;  9.8579824E+03;  0.0000000E+00; -4.0774912E-04;  1.0000000E+04;  0.0000000E+00;  9.9548457E+03;  2.0298762E+00;  0.0000000E+00;  1.2552537E-01;  2.1553748E+04;
  8.0001885E-01;  9.9999998E-03; -2.6070023E-01;2271; -5.4175714E-03;  0.0000000E+00; -1.1888439E-01;  1.0151013E+03;  4.0989125E-01;  1.2506797E+04;3; -6.4856911E+00;  0.0000000E+00;  1.1848611E+01;0;  2.3011084E+00;  9.8548564E+03;  0.0000000E+00; -2.1771043E-04;  1.0000000E+04;  0.0000000E+00;  9.9574248E+03;  2.1175010E+00;  0.0000000E+00;  1.8360722E-01;  2.0173801E+04;
  8.0002010E-01;  9.9999998E-03; -2.4067035E-01;2272; -3.9926455E-03;  0.0000000E+00; -1.1496121E-01;  1.0148978E+03;  4.0989095E-01;  1.2338268E+04;3; -5.9314647E+00;  0.0000000E+00;  1.6041208E+01;0;  2.4237289E+00;  9.8521143E+03;  0.0000000E+00; -1.1278759E-04;  1.0000000E+04;  0.0000000E+00;  9.9562324E+03;  2.2058105E+00;  0.0000000E+00;  2.1791850E-01;  2.0717773E+04;
  8.0001855E-01;  9.9999998E-03; -2.2062719E-01;2273; -3.4902561E-03;  0.0000000E+00; -1.1080039E-01;  1.0147348E+03;  4.0989071E-01;  1.2203207E+04;3; -5.4923701E+00;  0.0000000E+00;  1.8073738E+01;0;  2.5641921E+00;  9.8501602E+03;  0.0000000E+00; -6.6896857E-05;  1.0000000E+04;  0.0000000E+00;  9.9550244E+03;  2.2872040E+00;  0.0000000E+00;  2.7698794E-01;  2.1239006E+04;
  8.0001557E-01;  9.9999998E-03; -2.0057522E-01;2274; -3.7276116E-03;  0.0000000E+00; -1.0242601E-01;  1.0146016E+03;  4.0989020E-01;  1.2092928E+04;3; -5.1958599E+00;  0.0000000E+00;  1.9661713E+01;0;  2.6925449E+00;  9.8492900E+03;  0.0000000E+00; -4.3464897E-05;  1.0000000E+04;  0.0000000E+00;  9.9533203E+03;  2.3552384E+00;  0.0000000E+00;  3.3730662E-01;  2.2008742E+04;
  8.2010484E-01;  9.9999998E-03; -3.0075541E-01;2300;  1.5932964E-02;  0.0000000E+00; -1.1094733E-01;  1.0158320E+03;  4.0987706E-01;  1.3110298E+04;3; -1.0370353E-01;  0.0000000E+00; -1.1580386E+01;0;  1.8904095E+00;  9.8701621E+03;  0.0000000E+00;  2.4180087E-04;  1.0000000E+04;  0.0000000E+00;  9.9569189E+03;  1.8908730E+00;  0.0000000E+00; -4.6349547E-04;  2.0630156E+04;
  8.2012272E-01;  9.9999998E-03; -2.8073984E-01;2301;  2.2440748E-02;  0.0000000E+00; -1.1488731E-01;  1.0155002E+03;  4.0987775E-01;  1.2835570E+04;3;  2.3177147E-02;  0.0000000E+00;  1.6062548E+01;0;  2.0943887E+00;  9.8671172E+03;  0.0000000E+00;  4.5043573E-04;  1.0000000E+04;  0.0000000E+00;  9.9534775E+03;  1.9670827E+00;  0.0000000E+00;  1.2730590E-01;  2.2223492E+04;
  8.2013607E-01;  9.9999998E-03; -2.6070318E-01;2302;  2.8669534E-02;  0.0000000E+00; -1.1968423E-01;  1.0154584E+03;  4.0987781E-01;  1.2801019E+04;3;  1.9959703E-01;  0.0000000E+00;  1.2994267E+01;0;  2.2509065E+00;  9.8640566E+03;  0.0000000E+00;  4.2636742E-04;  1.0000000E+04;  0.0000000E+00;  9.9557480E+03;  2.0497215E+00;  0.0000000E+00;  2.0118500E-01;  2.0979125E+04;
  8.2014567E-01;  9.9999998E-03; -2.4067342E-01;2303;  3.3749167E-02;  0.0000000E+00; -1.1748993E-01;  1.0152839E+03;  4.0987751E-01;  1.2656398E+04;3;  4.7789499E-01;  0.0000000E+00;  1.5589123E+01;0;  2.3721142E+00;  9.8614053E+03;  0.0000000E+00;  3.2225926E-04;  1.0000000E+04;  0.0000000E+00;  9.9550244E+03;  2.1317825E+00;  0.0000000E+00;  2.4033159E-01;  2.1282912E+04;
  8.2014906E-01;  9.9999998E-03; -2.2062655E-01;2304;  3.6768194E-02;  0.0000000E+00; -1.1261259E-01;  1.0151548E+03;  4.0987700E-01;  1.2549587E+04;3;  8.7276089E-01;  0.0000000E+00;  1.7046564E+01;0;  2.4992425E+00;  9.8595439E+03;  0.0000000E+00;  2.0939311E-04;  1.0000000E+04;  0.0000000E+00;  9.9543867E+03;  2.2058921E+00;  0.0000000E+00;  2.9335049E-01;  2.1526473E+04;
  8.2014722E-01;  9.9999998E-03; -2.0056911E-01;2305;  3.7939839E-02;  0.0000000E+00; -1.0214857E-01;  1.0150463E+03;  4.0987647E-01;  1.2459756E+04;3;  1.3717266E+00;  0.0000000E+00;  1.8801199E+01;0;  2.6150291E+00;  9.8587734E+03;  0.0000000E+00;  1.0936099E-04;  1.0000000E+04;  0.0000000E+00;  9.9530713E+03;  2.2657440E+00;  0.0000000E+00;  3.4928510E-01;  2.2109137E+04;
  8.4021354E-01;  9.9999998E-03; -3.0074671E-01;2331;  4.8366606E-02;  0.0000000E+00; -1.1030415E-01;  1.0157855E+03;  4.0971643E-01;  1.3069637E+04;3;  1.1213652E+01;  0.0000000E+00; -1.1529349E+01;0;  1.8721308E+00;  9.8770010E+03;  0.0000000E+00; -7.4847793E-04;  1.0000000E+04;  0.0000000E+00;  9.9568984E+03;  1.8700171E+00;  0.0000000E+00;  2.1136957E-03;  2.0604641E+04;
  8.4024453E-01;  9.9999998E-03; -2.8073090E-01;2332;  6.0103051E-02;  0.0000000E+00; -1.1367593E-01;  1.0154692E+03;  4.0971705E-01;  1.2807782E+04;3;  1.0820969E+01;  0.0000000E+00;  1.5237803E+01;0;  2.0579946E+00;  9.8743857E+03;  0.0000000E+00;  1.1209358E-03;  1.0000000E+04;  0.0000000E+00;  9.9533281E+03;  1.9368411E+00;  0.0000000E+00;  1.2115343E-01;  2.2272348E+04;
  8.4026659E-01;  9.9999998E-03; -2.6069731E-01;2333;  7.0551366E-02;  0.0000000E+00; -1.1873220E-01;  1.0154215E+03;  4.0971693E-01;  1.2768301E+04;3;  1.0425508E+01;  0.0000000E+00;  1.3470435E+01;0;  2.2120616E+00;  9.8718516E+03;  0.0000000E+00;  1.4285176E-03;  1.0000000E+04;  0.0000000E+00;  9.9549580E+03;  2.0078139E+00;  0.0000000E+00;  2.0424762E-01;  2.1341318E+04;
  8.4028298E-01;  9.9999998E-03; -2.4067017E-01;2334;  7.8727901E-02;  0.0000000E+00; -1.1870253E-01;  1.0152786E+03;  4.0971649E-01;  1.2649957E+04;3;  1.0055228E+01;  0.0000000E+00;  1.5459809E+01;0;  2.3310900E+00;  9.8697529E+03;  0.0000000E+00;  1.0909877E-03;  1.0000000E+04;  0.0000000E+00;  9.9543018E+03;  2.0764730E+00;  0.0000000E+00;  2.5461689E-01;  2.1596645E+04;
  8.4029007E-01;  9.9999998E-03; -2.2062190E-01;2335;  8.3654672E-02;  0.0000000E+00; -1.1473909E-01;  1.0151996E+03;  4.0971589E-01;  1.2584518E+04;3;  1.0206407E+01;  0.0000000E+00;  1.5283441E+01;0;  2.4414976E+00;  9.8684443E+03;  0.0000000E+00;  6.5087754E-04;  1.0000000E+04;  0.0000000E+00;  9.9540996E+03;  2.1357965E+00;  0.0000000E+00;  3.0570108E-01;  2.1631850E+04;
  8.4028769E-01;  9.9999998E-03; -2.0056133E-01;2336;  8.5235715E-02;  0.0000000E+00; -1.0324097E-01;  1.0151348E+03;  4.0971532E-01;  1.2530924E+04;3;  1.0531203E+01;  0.0000000E+00;  1.6818150E+01;0;  2.5384619E+00;  9.8681875E+03;  0.0000000E+00;  3.0888370E-04;  1.0000000E+04;  0.0000000E+00;  9.9531084E+03;  2.1799843E+00;  0.0000000E+00;  3.5847756E-01;  2.2057008E+04;
  8.6033261E-01;  9.9999998E-03; -3.0072978E-01;2362;  8.5612625E-02;  0.0000000E+00; -1.0920963E-01;  1.0153866E+03;  4.0940070E-01;  1.2736538E+04;3;  2.4630133E+01;  0.0000000E+00; -1.1600336E+01;0;  1.8497559E+00;  9.8835850E+03;  0.0000000E+00; -2.1507175E-04;  1.0000000E+04;  0.0000000E+00;  9.9578145E+03;  1.8433937E+00;  0.0000000E+00;  6.3621686E-03;  2.0099912E+04;
  8.6037666E-01;  9.9999998E-03; -2.8071353E-01;2363;  1.0282682E-01;  0.0000000E+00; -1.1192109E-01;  1.0151061E+03;  4.0940109E-01;  1.2504342E+04;3;  2.3632927E+01;  0.0000000E+00;  1.3772275E+01;0;  2.0094419E+00;  9.8816934E+03;  0.0000000E+00;  2.8828855E-03;  1.0000000E+04;  0.0000000E+00;  9.9542197E+03;  1.8967590E+00;  0.0000000E+00;  1.1268294E-01;  2.1790818E+04;
  8.6040670E-01;  9.9999998E-03; -2.6068220E-01;2364;  1.1750633E-01;  0.0000000E+00; -1.1656756E-01;  1.0150687E+03;  4.0940094E-01;  1.2473451E+04;3;  2.2477552E+01;  0.0000000E+00;  1.3230167E+01;0;  2.1502702E+00;  9.8799805E+03;  0.0000000E+00;  3.2121767E-03;  1.0000000E+04;  0.0000000E+00;  9.9552334E+03;  1.9519207E+00;  0.0000000E+00;  1.9834957E-01;  2.1169736E+04;
  8.6042893E-01;  9.9999998E-03; -2.4065788E-01;2365;  1.2874189E-01;  0.0000000E+00; -1.1828224E-01;  1.0149617E+03;  4.0940037E-01;  1.2384835E+04;3;  2.1643621E+01;  0.0000000E+00;  1.5118382E+01;0;  2.2622371E+00;  9.8787578E+03;  0.0000000E+00;  2.3359575E-03;  1.0000000E+04;  0.0000000E+00;  9.9544072E+03;  2.0027802E+00;  0.0000000E+00;  2.5945696E-01;  2.1498666E+04;
  8.6043853E-01;  9.9999998E-03; -2.2061040E-01;2366;  1.3506646E-01;  0.0000000E+00; -1.1558629E-01;  1.0149368E+03;  4.0939969E-01;  1.2364210E+04;3;  2.1381243E+01;  0.0000000E+00;  1.3505641E+01;0;  2.3540549E+00;  9.8783262E+03;  0.0000000E+00;  1.2892911E-03;  1.0000000E+04;  0.0000000E+00;  9.9543877E+03;  2.0428650E+00;  0.0000000E+00;  3.1118986E-01;  2.1445580E+04;
  8.6043388E-01;  9.9999998E-03; -2.0054950E-01;2367;  1.3631809E-01;  0.0000000E+00; -1.0422788E-01;  1.0149242E+03;  4.0939921E-01;  1.2353750E+04;3;  2.1385225E+01;  0.0000000E+00;  1.4325963E+01;0;  2.4299664E+00;  9.8788799E+03;  0.0000000E+00;  5.3898443E-04;  1.0000000E+04;  0.0000000E+00;  9.9535947E+03;  2.0673225E+00;  0.0000000E+00;  3.6264396E-01;  2.1774811E+04;
  8.8045096E-01;  9.9999998E-03; -3.0070603E-01;2393;  1.2328631E-01;  0.0000000E+00; -1.0791146E-01;  1.0147855E+03;  4.0894786E-01;  1.2235208E+04;3;  3.8356098E+01;  0.0000000E+00; -1.2202828E+01;0;  1.7817760E+00;  9.8924131E+03;  0.0000000E+00;  2.4965608E-03;  1.0000000E+04;  0.0000000E+00;  9.9592051E+03;  1.7658904E+00;  0.0000000E+00;  1.5885551E-02;  1.9344475E+04;
  8.8050687E-01;  9.9999998E-03; -2.8068915E-01;2394;  1.4557260E-01;  0.0000000E+00; -1.0991556E-01;  1.0145574E+03;  4.0894794E-01;  1.2046482E+04;3;  3.6561069E+01;  0.0000000E+00;  1.1816790E+01;0;  1.9119036E+00;  9.8914199E+03;  0.0000000E+00;  5.8952291E-03;  1.0000000E+04;  0.0000000E+00;  9.9557529E+03;  1.8027580E+00;  0.0000000E+00;  1.0914568E-01;  2.0974668E+04;
  8.8054401E-01;  9.9999998E-03; -2.6065907E-01;2395;  1.6450377E-01;  0.0000000E+00; -1.1397231E-01;  1.0145501E+03;  4.0894768E-01;  1.2040458E+04;3;  3.4669773E+01;  0.0000000E+00;  1.2052409E+01;0;  2.0307958E+00;  9.8907510E+03;  0.0000000E+00;  5.7861386E-03;  1.0000000E+04;  0.0000000E+00;  9.9563330E+03;  1.8387282E+00;  0.0000000E+00;  1.9206767E-01;  2.0581580E+04;
  8.8057166E-01;  9.9999998E-03; -2.4063648E-01;2396;  1.7880286E-01;  0.0000000E+00; -1.1644199E-01;  1.0144910E+03;  4.0894699E-01;  1.1991620E+04;3;  3.3486832E+01;  0.0000000E+00;  1.4195568E+01;0;  2.1259928E+00;  9.8906357E+03;  0.0000000E+00;  4.0345490E-03;  1.0000000E+04;  0.0000000E+00;  9.9553281E+03;  1.8682121E+00;  0.0000000E+00;  2.5778070E-01;  2.0996205E+04;
  8.8058305E-01;  9.9999998E-03; -2.2059104E-01;2397;  1.8628936E-01;  0.0000000E+00; -1.1466405E-01;  1.0145231E+03;  4.0894619E-01;  1.2018155E+04;3;  3.2863815E+01;  0.0000000E+00;  1.1920766E+01;0;  2.1964023E+00;  9.8913164E+03;  0.0000000E+00;  2.1075578E-03;  1.0000000E+04;  0.0000000E+00;  9.9553066E+03;  1.8858763E+00;  0.0000000E+00;  3.1052598E-01;  2.0943049E+04;
  8.8057548E-01;  9.9999998E-03; -2.0053186E-01;2398;  1.8697140E-01;  0.0000000E+00; -1.0400994E-01;  1.0145667E+03;  4.0894559E-01;  1.2054162E+04;3;  3.2696590E+01;  0.0000000E+00;  1.1761909E+01;0;  2.2500272E+00;  9.8928740E+03;  0.0000000E+00;  7.8467029E-04;  1.0000000E+04;  0.0000000E+00;  9.9546211E+03;  1.8884480E+00;  0.0000000E+00;  3.6157909E-01;  2.1227836E+04;
  9.0055817E-01;  9.9999998E-03; -3.0067667E-01;2424;  1.5793869E-01;  0.0000000E+00; -1.0609634E-01;  1.0140831E+03;  4.0838239E-01;  1.1649221E+04;3;  5.1022724E+01;  0.0000000E+00; -1.2723445E+01;0;  1.6481415E+00;  9.9046123E+03;  0.0000000E+00;  5.9675183E-03;  1.0000000E+04;  0.0000000E+00;  9.9607461E+03;  1.6197218E+00;  0.0000000E+00;  2.8419692E-02;  1.8505832E+04;
  9.0062290E-01;  9.9999998E-03; -2.8065893E-01;2425;  1.8395723E-01;  0.0000000E+00; -1.0775898E-01;  1.0139253E+03;  4.0838221E-01;  1.1518745E+04;3;  4.8706928E+01;  0.0000000E+00;  8.7600250E+00;0;  1.7489060E+00;  9.9046826E+03;  0.0000000E+00;  9.2431782E-03;  1.0000000E+04;  0.0000000E+00;  9.9576338E+03;  1.6367334E+00;  0.0000000E+00;  1.1217257E-01;  1.9971969E+04;
  9.0066582E-01;  9.9999998E-03; -2.6062936E-01;2426;  2.0716383E-01;  0.0000000E+00; -1.1131629E-01;  1.0139691E+03;  4.0838179E-01;  1.1554922E+04;3;  4.6001507E+01;  0.0000000E+00;  1.0344049E+01;0;  1.8403968E+00;  9.9052197E+03;  0.0000000E+00;  8.4344093E-03;  1.0000000E+04;  0.0000000E+00;  9.9580049E+03;  1.6496891E+00;  0.0000000E+00;  1.9070771E-01;  1.9698541E+04;
  9.0069735E-01;  9.9999998E-03; -2.4060613E-01;2427;  2.2357242E-01;  0.0000000E+00; -1.1286134E-01;  1.0139756E+03;  4.0838096E-01;  1.1560337E+04;3;  4.3973434E+01;  0.0000000E+00;  1.2815516E+01;0;  1.9059013E+00;  9.9064180E+03;  0.0000000E+00;  5.6881714E-03;  1.0000000E+04;  0.0000000E+00;  9.9569824E+03;  1.6539482E+00;  0.0000000E+00;  2.5195313E-01;  2.0129533E+04;
  9.0071076E-01;  9.9999998E-03; -2.2056243E-01;2428;  2.3267798E-01;  0.0000000E+00; -1.1128616E-01;  1.0140682E+03;  4.0838009E-01;  1.1636853E+04;3;  4.3672119E+01;  0.0000000E+00;  1.0413421E+01;0;  1.9511317E+00;  9.9083857E+03;  0.0000000E+00;  2.8145150E-03;  1.0000000E+04;  0.0000000E+00;  9.9568721E+03;  1.6460556E+00;  0.0000000E+00;  3.0507612E-01;  2.0128734E+04;
  9.0070158E-01;  9.9999998E-03; -2.0050772E-01;2429;  2.3334245E-01;  0.0000000E+00; -1.0198120E-01;  1.0141683E+03;  4.0837967E-01;  1.1719686E+04;3;  4.3633717E+01;  0.0000000E+00;  9.4689207E+00;0;  1.9814694E+00;  9.9110498E+03;  0.0000000E+00;  9.2265254E-04;  1.0000000E+04;  0.0000000E+00;  9.9561729E+03;  1.6251700E+00;  0.0000000E+00;  3.5629946E-01;  2.0421010E+04;
  9.2064679E-01;  9.9999998E-03; -3.0064300E-01;2455;  1.8790871E-01;  0.0000000E+00; -1.0368565E-01;  1.0133005E+03;  4.0773380E-01;  1.0995907E+04;3;  6.2236259E+01;  0.0000000E+00; -1.2530465E+01;0;  1.4657809E+00;  9.9193320E+03;  0.0000000E+00;  8.5548712E-03;  1.0000000E+04;  0.0000000E+00;  9.9622734E+03;  1.4199511E+00;  0.0000000E+00;  4.5829765E-02;  1.7653936E+04;
  9.2071575E-01;  9.9999998E-03; -2.8062436E-01;2456;  2.1575914E-01;  0.0000000E+00; -1.0564432E-01;  1.0132274E+03;  4.0773341E-01;  1.0935470E+04;3;  5.9145065E+01;  0.0000000E+00;  5.8485136E+00;0;  1.5387790E+00;  9.9205918E+03;  0.0000000E+00;  1.1853189E-02;  1.0000000E+04;  0.0000000E+00;  9.9596426E+03;  1.4138271E+00;  0.0000000E+00;  1.2495194E-01;  1.8883875E+04;
  9.2076319E-01;  9.9999998E-03; -2.6059404E-01;2457;  2.4173468E-01;  0.0000000E+00; -1.0796616E-01;  1.0133469E+03;  4.0773270E-01;  1.1034204E+04;3;  5.5128735E+01;  0.0000000E+00;  7.9458251E+00;0;  1.5895047E+00;  9.9224932E+03;  0.0000000E+00;  1.0203410E-02;  1.0000000E+04;  0.0000000E+00;  9.9601563E+03;  1.4000939E+00;  0.0000000E+00;  1.8941075E-01;  1.8571156E+04;
  9.2079628E-01;  9.9999998E-03; -2.4056813E-01;2458;  2.6019526E-01;  0.0000000E+00; -1.0800877E-01;  1.0134338E+03;  4.0773186E-01;  1.1106038E+04;3;  5.3364597E+01;  0.0000000E+00;  1.0422544E+01;0;  1.6194543E+00;  9.9251494E+03;  0.0000000E+00;  6.5775705E-03;  1.0000000E+04;  0.0000000E+00;  9.9592646E+03;  1.3757149E+00;  0.0000000E+00;  2.4373940E-01;  1.8947938E+04;
  9.2081201E-01;  9.9999998E-03; -2.2052537E-01;2459;  2.7112344E-01;  0.0000000E+00; -1.0552618E-01;  1.0135876E+03;  4.0773106E-01;  1.1233166E+04;3;  5.3361229E+01;  0.0000000E+00;  9.0600748E+00;0;  1.6358325E+00;  9.9284814E+03;  0.0000000E+00;  3.0159464E-03;  1.0000000E+04;  0.0000000E+00;  9.9589844E+03;  1.3398811E+00;  0.0000000E+00;  2.9595143E-01;  1.9037537E+04;
  9.2079937E-01;  9.9999998E-03; -2.0047770E-01;2460;  2.7173847E-01;  0.0000000E+00; -9.8011710E-02;  1.0137368E+03;  4.0773043E-01;  1.1356559E+04;3;  5.3824322E+01;  0.0000000E+00;  7.6164775E+00;0;  1.6431472E+00;  9.9322393E+03;  0.0000000E+00;  8.3528302E-04;  1.0000000E+04;  0.0000000E+00;  9.9581816E+03;  1.2952130E+00;  0.0000000E+00;  3.4793425E-01;  1.9383057E+04;
  9.4071287E-01;  9.9999998E-03; -3.0060613E-01;2486;  2.1263732E-01;  0.0000000E+00; -1.0138942E-01;  1.0124095E+03;  4.0703338E-01;  1.0251716E+04;3;  7.2964157E+01;  0.0000000E+00; -1.2850265E+01;0;  1.2714260E+00;  9.9344521E+03;  0.0000000E+00;  9.4084274E-03;  1.0000000E+04;  0.0000000E+00;  9.9638389E+03;  1.2001175E+00;  0.0000000E+00;  7.1308464E-02;  1.6746336E+04;
  9.4078332E-01;  9.9999998E-03; -2.8058633E-01;2487;  2.4048139E-01;  0.0000000E+00; -1.0367845E-01;  1.0124343E+03;  4.0703270E-01;  1.0272169E+04;3;  6.8128181E+01;  0.0000000E+00;  2.5615211E+00;0;  1.3171334E+00;  9.9369902E+03;  0.0000000E+00;  1.3280827E-02;  1.0000000E+04;  0.0000000E+00;  9.9618730E+03;  1.1690838E+00;  0.0000000E+00;  1.4804953E-01;  1.7648395E+04;
  9.4083375E-01;  9.9999998E-03; -2.6055479E-01;2488;  2.6794803E-01;  0.0000000E+00; -1.0400237E-01;  1.0126411E+03;  4.0703204E-01;  1.0442911E+04;3;  6.3076885E+01;  0.0000000E+00;  4.9384317E+00;0;  1.3151356E+00;  9.9403125E+03;  0.0000000E+00;  1.0543772E-02;  1.0000000E+04;  0.0000000E+00;  9.9626934E+03;  1.1270264E+00;  0.0000000E+00;  1.8810917E-01;  1.7231037E+04;
  9.4086611E-01;  9.9999998E-03; -2.4052522E-01;2489;  2.8800943E-01;  0.0000000E+00; -1.0196903E-01;  1.0128115E+03;  4.0703106E-01;  1.0583724E+04;3;  6.1670631E+01;  0.0000000E+00;  8.1077595E+00;0;  1.3060138E+00;  9.9444004E+03;  0.0000000E+00;  6.3007534E-03;  1.0000000E+04;  0.0000000E+00;  9.9620234E+03;  1.0732483E+00;  0.0000000E+00;  2.3276560E-01;  1.7521324E+04;
  9.4086593E-01;  9.9999998E-03; -2.2048773E-01;2490;  2.9604468E-01;  0.0000000E+00; -1.0009626E-01;  1.0130103E+03;  4.0703061E-01;  1.0747890E+04;3;  6.2332546E+01;  0.0000000E+00;  7.2639365E+00;0;  1.2974980E+00;  9.9489902E+03;  0.0000000E+00;  2.6690315E-03;  1.0000000E+04;  0.0000000E+00;  9.9613799E+03;  1.0107177E+00;  0.0000000E+00;  2.8678030E-01;  1.7788936E+04;
  9.4083542E-01;  9.9999998E-03; -2.0044544E-01;2491;  2.9164231E-01;  0.0000000E+00; -9.3572721E-02;  1.0132028E+03;  4.0703022E-01;  1.0906949E+04;3;  6.2992474E+01;  0.0000000E+00;  5.7910304E+00;0;  1.2830114E+00;  9.9536182E+03;  0.0000000E+00;  5.9346034E-04;  1.0000000E+04;  0.0000000E+00;  9.9605273E+03;  9.4543576E-01;  0.0000000E+00;  3.3757567E-01;  1.8159979E+04;
  9.6076268E-01;  9.9999998E-03; -3.0056646E-01;2517;  2.3334378E-01;  0.0000000E+00; -9.8721616E-02;  1.0113868E+03;  4.0631199E-01;  9.3973711E+03;3;  8.3281296E+01;  0.0000000E+00; -1.3235249E+01;0;  1.0901927E+00;  9.9477891E+03;  0.0000000E+00;  8.2154041E-03;  1.0000000E+04;  0.0000000E+00;  9.9656885E+03;  9.9340522E-01;  0.0000000E+00;  9.6787475E-02;  1.5662173E+04;
  9.6083230E-01;  9.9999998E-03; -2.8054586E-01;2518;  2.6054356E-01;  0.0000000E+00; -1.0126066E-01;  1.0115063E+03;  4.0631118E-01;  9.4960107E+03;3;  7.6647774E+01;  0.0000000E+00; -4.9879438E-01;0;  1.1099167E+00;  9.9515752E+03;  0.0000000E+00;  2.1641875E-02;  1.0000000E+04;  0.0000000E+00;  9.9643467E+03;  9.3844473E-01;  0.0000000E+00;  1.7147200E-01;  1.6258330E+04;
  9.6088254E-01;  9.9999998E-03; -2.6051310E-01;2519;  2.8836000E-01;  0.0000000E+00; -9.9639960E-02;  1.0117980E+03;  4.0631050E-01;  9.7367217E+03;3;  7.0599701E+01;  0.0000000E+00;  1.8753049E+00;0;  1.0555670E+00;  9.9562275E+03;  0.0000000E+00;  1.6789157E-02;  1.0000000E+04;  0.0000000E+00;  9.9655254E+03;  8.6984116E-01;  0.0000000E+00;  1.8572581E-01;  1.5720920E+04;
  9.6090037E-01;  9.9999998E-03; -2.4048559E-01;2520;  3.0542096E-01;  0.0000000E+00; -9.7371407E-02;  1.0120225E+03;  4.0630978E-01;  9.9219648E+03;3;  6.9335159E+01;  0.0000000E+00;  5.6052909E+00;0;  1.0166396E+00;  9.9615547E+03;  0.0000000E+00;  8.1697591E-03;  1.0000000E+04;  0.0000000E+00;  9.9646719E+03;  7.9015857E-01;  0.0000000E+00;  2.2648105E-01;  1.6108861E+04;
  9.6087760E-01;  9.9999998E-03; -2.2045393E-01;2521;  3.0586633E-01;  0.0000000E+00; -9.6976094E-02;  1.0122624E+03;  4.0630943E-01;  1.0119921E+04;3;  6.9326561E+01;  0.0000000E+00;  4.0085149E+00;0;  9.8550153E-01;  9.9670898E+03;  0.0000000E+00;  2.3205497E-03;  1.0000000E+04;  0.0000000E+00;  9.9638770E+03;  7.0632827E-01;  0.0000000E+00;  2.7917325E-01;  1.6451891E+04;
  9.6084076E-01;  9.9999998E-03; -2.0041253E-01;2522;  2.9843163E-01;  0.0000000E+00; -8.9419208E-02;  1.0124876E+03;  4.0630919E-01;  1.0305885E+04;3;  6.8504951E+01;  0.0000000E+00;  3.6151628E+00;0;  9.5144993E-01;  9.9722822E+03;  0.0000000E+00;  3.5190536E-04;  1.0000000E+04;  0.0000000E+00;  9.9631211E+03;  6.2631518E-01;  0.0000000E+00;  3.2513475E-01;  1.6785744E+04;
  9.8080701E-01;  9.9999998E-03; -3.0052426E-01;2548;  2.5253999E-01;  0.0000000E+00; -9.4939373E-02;  1.0102600E+03;  4.0559736E-01;  8.4560986E+03;3;  9.3472290E+01;  0.0000000E+00; -1.3954949E+01;0;  9.2486596E-01;  9.9582100E+03;  0.0000000E+00;  5.0131474E-03;  1.0000000E+04;  0.0000000E+00;  9.9681250E+03;  8.1711841E-01;  0.0000000E+00;  1.0774755E-01;  1.4273098E+04;
  9.8087245E-01;  9.9999998E-03; -2.8050345E-01;2549;  2.7863878E-01;  0.0000000E+00; -9.7687036E-02;  1.0104523E+03;  4.0559646E-01;  8.6146299E+03;3;  8.5038338E+01;  0.0000000E+00; -2.9741066E+00;0;  9.2497689E-01;  9.9630205E+03;  0.0000000E+00;  5.2524548E-02;  1.0000000E+04;  0.0000000E+00;  9.9672031E+03;  7.4309736E-01;  0.0000000E+00;  1.8187951E-01;  1.4670041E+04;
  9.8091394E-01;  9.9999998E-03; -2.6047122E-01;2550;  3.0436331E-01;  0.0000000E+00; -9.4919145E-02;  1.0107997E+03;  4.0559590E-01;  8.9009014E+03;3;  7.7894073E+01;  0.0000000E+00; -4.4223413E-01;0;  8.3503598E-01;  9.9687412E+03;  0.0000000E+00;  4.4911571E-02;  1.0000000E+04;  0.0000000E+00;  9.9684219E+03;  6.5402514E-01;  0.0000000E+00;  1.8101083E-01;  1.4152112E+04;
  9.8090875E-01;  9.9999998E-03; -2.4044932E-01;2551;  3.1353933E-01;  0.0000000E+00; -9.4687909E-02;  1.0110499E+03;  4.0559542E-01;  9.1071309E+03;3;  7.5507797E+01;  0.0000000E+00;  2.0625966E+00;0;  7.8082496E-01;  9.9749609E+03;  0.0000000E+00;  2.3817688E-02;  1.0000000E+04;  0.0000000E+00;  9.9671699E+03;  5.5567455E-01;  0.0000000E+00;  2.2515039E-01;  1.4718403E+04;
  9.8087656E-01;  9.9999998E-03; -2.2041918E-01;2552;  3.0892271E-01;  0.0000000E+00; -9.3324579E-02;  1.0113279E+03;  4.0559524E-01;  9.3361729E+03;3;  7.2876060E+01;  0.0000000E+00;  4.5577452E-01;0;  7.2660983E-01;  9.9810654E+03;  0.0000000E+00;  6.5276171E-03;  1.0000000E+04;  0.0000000E+00;  9.9665518E+03;  4.5835298E-01;  0.0000000E+00;  2.6825681E-01;  1.4991498E+04;
  9.8083669E-01;  9.9999998E-03; -2.0038007E-01;2553;  2.9991874E-01;  0.0000000E+00; -8.5198626E-02;  1.0115697E+03;  4.0559492E-01;  9.5355518E+03;3;  7.0610847E+01;  0.0000000E+00;  1.4169112E+00;0;  6.8036097E-01;  9.9865244E+03;  0.0000000E+00;  5.6915078E-04;  1.0000000E+04;  0.0000000E+00;  9.9658672E+03;  3.7082586E-01;  0.0000000E+00;  3.0953512E-01;  1.5293828E+04;
  1.0008546E+00;  9.9999998E-03; -3.0048054E-01;2579;  2.7208632E-01;  0.0000000E+00; -8.9876227E-02;  1.0090974E+03;  4.0491271E-01;  7.4843379E+03;3;  1.0378968E+02;  0.0000000E+00; -1.4673412E+01;0;  7.7513784E-01;  9.9658359E+03;  0.0000000E+00; -9.4576785E-03;  1.0000000E+04;  0.0000000E+00;  9.9712285E+03;  6.7109764E-01;  0.0000000E+00;  1.0404021E-01;  1.2554348E+04;
  1.0009084E+00;  9.9999998E-03; -2.8045964E-01;2580;  2.9540968E-01;  0.0000000E+00; -9.2617616E-02;  1.0093329E+03;  4.0491208E-01;  7.6780874E+03;3;  9.3414024E+01;  0.0000000E+00; -4.8175049E+00;0;  7.6341861E-01;  9.9712900E+03;  0.0000000E+00;  1.0244568E-01;  1.0000000E+04;  0.0000000E+00;  9.9705176E+03;  5.8626938E-01;  0.0000000E+00;  1.7714925E-01;  1.2862069E+04;
  1.0009298E+00;  9.9999998E-03; -2.6042986E-01;2581;  3.1574699E-01;  0.0000000E+00; -9.0003937E-02;  1.0096923E+03;  4.0491152E-01;  7.9737573E+03;3;  8.5641777E+01;  0.0000000E+00; -3.0675023E+00;0;  6.5992159E-01;  9.9777129E+03;  0.0000000E+00;  9.5512576E-02;  1.0000000E+04;  0.0000000E+00;  9.9712520E+03;  4.8540992E-01;  0.0000000E+00;  1.7451167E-01;  1.2583868E+04;
  1.0009086E+00;  9.9999998E-03; -2.4041210E-01;2582;  3.1671575E-01;  0.0000000E+00; -9.0709276E-02;  1.0099551E+03;  4.0491131E-01;  8.1899268E+03;3;  7.9135765E+01;  0.0000000E+00; -1.8542209E+00;0;  5.9489834E-01;  9.9844297E+03;  0.0000000E+00;  5.2704461E-02;  1.0000000E+04;  0.0000000E+00;  9.9697402E+03;  3.7696487E-01;  0.0000000E+00;  2.1793351E-01;  1.3256767E+04;
  1.0008701E+00;  9.9999998E-03; -2.2038336E-01;2583;  3.0934009E-01;  0.0000000E+00; -8.8290945E-02;  1.0102498E+03;  4.0491122E-01;  8.4324932E+03;3;  7.4462036E+01;  0.0000000E+00; -1.7428414E+00;0;  5.2806568E-01;  9.9907178E+03;  0.0000000E+00;  1.3657484E-02;  1.0000000E+04;  0.0000000E+00;  9.9692822E+03;  2.7508333E-01;  0.0000000E+00;  2.5298235E-01;  1.3464864E+04;
  1.0008283E+00;  9.9999998E-03; -2.0034975E-01;2584;  2.9956445E-01;  0.0000000E+00; -8.0987625E-02;  1.0104931E+03;  4.0491107E-01;  8.6326982E+03;3;  7.1702484E+01;  0.0000000E+00; -2.2245461E-01;0;  4.7778380E-01;  9.9961406E+03;  0.0000000E+00;  2.8868395E-04;  1.0000000E+04;  0.0000000E+00;  9.9686572E+03;  1.8737215E-01;  0.0000000E+00;  2.9041165E-01;  1.3742402E+04;
  1.0209123E+00;  9.9999998E-03; -3.0043647E-01;2610;  2.9319775E-01;  0.0000000E+00; -8.3770759E-02;  1.0079822E+03;  4.0427631E-01;  6.5510601E+03;3;  1.1494949E+02;  0.0000000E+00; -1.5756674E+01;0;  6.3388896E-01;  9.9714053E+03;  0.0000000E+00; -3.7139416E-02;  1.0000000E+04;  0.0000000E+00;  9.9750049E+03;  5.4719543E-01;  0.0000000E+00;  8.6693510E-02;  1.0542636E+04;
  1.0209441E+00;  9.9999998E-03; -2.8041592E-01;2611;  3.1246471E-01;  0.0000000E+00; -8.6284809E-02;  1.0082264E+03;  4.0427604E-01;  6.7513965E+03;3;  1.0222975E+02;  0.0000000E+00; -5.9854107E+00;0;  6.2072265E-01;  9.9772373E+03;  0.0000000E+00;  1.2253934E-01;  1.0000000E+04;  0.0000000E+00;  9.9740576E+03;  4.6035367E-01;  0.0000000E+00;  1.6036896E-01;  1.0958492E+04;
  1.0209383E+00;  9.9999998E-03; -2.6038936E-01;2612;  3.2187369E-01;  0.0000000E+00; -8.4265538E-02;  1.0085667E+03;  4.0427598E-01;  7.0306235E+03;3;  9.1346123E+01;  0.0000000E+00; -5.9465880E+00;0;  5.1887757E-01;  9.9840957E+03;  0.0000000E+00;  1.2861593E-01;  1.0000000E+04;  0.0000000E+00;  9.9739512E+03;  3.5395175E-01;  0.0000000E+00;  1.6492583E-01;  1.1055274E+04;
  1.0209059E+00;  9.9999998E-03; -2.4037468E-01;2613;  3.1760177E-01;  0.0000000E+00; -8.4954746E-02;  1.0088201E+03;  4.0427592E-01;  7.2387510E+03;3;  8.1554581E+01;  0.0000000E+00; -4.2081413E+00;0;  4.5002145E-01;  9.9908789E+03;  0.0000000E+00;  6.0143895E-02;  1.0000000E+04;  0.0000000E+00;  9.9721885E+03;  2.4430193E-01;  0.0000000E+00;  2.0571950E-01;  1.1819077E+04;
  1.0208620E+00;  9.9999998E-03; -2.2034980E-01;2614;  3.0865872E-01;  0.0000000E+00; -8.2909636E-02;  1.0091073E+03;  4.0427575E-01;  7.4744829E+03;3;  7.5443146E+01;  0.0000000E+00; -3.2292380E+00;0;  3.8266522E-01;  9.9969336E+03;  0.0000000E+00;  2.1210466E-04;  1.0000000E+04;  0.0000000E+00;  9.9718086E+03;  1.4665027E-01;  0.0000000E+00;  2.3601493E-01;  1.1994043E+04;
  1.0208182E+00;  9.9999998E-03; -2.0032194E-01;2615;  2.9831395E-01;  0.0000000E+00; -7.6973855E-02;  1.0093403E+03;  4.0427583E-01;  7.6657012E+03;3;  7.2325111E+01;  0.0000000E+00; -1.6952971E+00;0;  3.3412522E-01;  1.0002021E+04;  0.0000000E+00; -1.2272087E-02;  1.0000000E+04;  0.0000000E+00;  9.9713301E+03;  6.5507688E-02;  0.0000000E+00;  2.6861754E-01;  1.2208208E+04;
  1.0409889E+00;  9.9999998E-03; -3.0039299E-01;2641;  3.1743282E-01;  0.0000000E+00; -7.6252744E-02;  1.0069374E+03;  4.0370136E-01;  5.6750527E+03;3;  1.2669585E+02;  0.0000000E+00; -1.6619938E+01;0;  4.9728861E-01;  9.9748779E+03;  0.0000000E+00;  5.8755404E-03;  1.0000000E+04;  0.0000000E+00;  9.9792813E+03;  4.4769907E-01;  0.0000000E+00;  4.9589533E-02;  8.3576533E+03;
  1.0409832E+00;  9.9999998E-03; -2.8037429E-01;2642;  3.2894856E-01;  0.0000000E+00; -7.9246953E-02;  1.0071889E+03;  4.0370134E-01;  5.8808213E+03;3;  1.1133039E+02;  0.0000000E+00; -8.1593838E+00;0;  4.9458888E-01;  9.9817832E+03;  0.0000000E+00;  9.8888595E-03;  1.0000000E+04;  0.0000000E+00;  9.9773721E+03;  3.5768917E-01;  0.0000000E+00;  1.3689971E-01;  9.1481797E+03;
  1.0409460E+00;  9.9999998E-03; -2.6035240E-01;2643;  3.2518476E-01;  0.0000000E+00; -7.8352518E-02;  1.0074964E+03;  4.0370148E-01;  6.1323633E+03;3;  9.5322388E+01;  0.0000000E+00; -8.0296469E+00;0;  4.0317088E-01;  9.9891631E+03;  0.0000000E+00;  5.3929213E-02;  1.0000000E+04;  0.0000000E+00;  9.9760654E+03;  2.4414253E-01;  0.0000000E+00;  1.5902834E-01;  9.7377979E+03;
  1.0409027E+00;  9.9999998E-03; -2.4033928E-01;2644;  3.1757522E-01;  0.0000000E+00; -7.8376085E-02;  1.0077288E+03;  4.0370163E-01;  6.3225752E+03;3;  8.3348984E+01;  0.0000000E+00; -5.3465991E+00;0;  3.3521929E-01;  9.9956035E+03;  0.0000000E+00; -2.5157610E-02;  1.0000000E+04;  0.0000000E+00;  9.9742246E+03;  1.4159639E-01;  0.0000000E+00;  1.9362290E-01;  1.0526937E+04;
  1.0408540E+00;  9.9999998E-03; -2.2031820E-01;2645;  3.0770069E-01;  0.0000000E+00; -7.6934911E-02;  1.0079886E+03;  4.0370166E-01;  6.5352275E+03;3;  7.6488800E+01;  0.0000000E+00; -4.1276956E+00;0;  2.7505955E-01;  1.0000995E+04;  0.0000000E+00; -8.2064740E-02;  1.0000000E+04;  0.0000000E+00;  9.9739707E+03;  5.5868108E-02;  0.0000000E+00;  2.1919143E-01;  1.0659132E+04;
  1.0408067E+00;  9.9999998E-03; -2.0029370E-01;2646;  2.9656392E-01;  0.0000000E+00; -7.2005212E-02;  1.0082008E+03;  4.0370172E-01;  6.7087749E+03;3;  7.3044777E+01;  0.0000000E+00; -2.6796622E+00;0;  2.3238385E-01;  1.0005406E+04;  0.0000000E+00; -6.3769877E-02;  1.0000000E+04;  0.0000000E+00;  9.9737529E+03; -1.3084468E-02;  0.0000000E+00;  2.4546832E-01;  1.0760014E+04;
  1.0610628E+00;  9.9999998E-03; -3.0035540E-01;2672;  3.4031612E-01;  0.0000000E+00; -7.2552301E-02;  1.0058609E+03;  4.0319544E-01;  4.7736963E+03;3;  1.4024324E+02;  0.0000000E+00; -1.7480268E+01;0;  4.6168965E-01;  9.9756143E+03;  0.0000000E+00;  3.7860781E-01;  1.0000000E+04;  0.0000000E+00;  9.9822842E+03;  3.8653359E-01;  0.0000000E+00;  7.5156055E-02;  6.8892725E+03;
  1.0610151E+00;  9.9999998E-03; -2.8033903E-01;2673;  3.3710229E-01;  0.0000000E+00; -7.3441021E-02;  1.0062165E+03;  4.0319553E-01;  5.0633916E+03;3;  1.1809264E+02;  0.0000000E+00; -1.1498112E+01;0;  3.9952987E-01;  9.9855605E+03;  0.0000000E+00; -2.7624753E-01;  1.0000000E+04;  0.0000000E+00;  9.9793486E+03;  2.6355574E-01;  0.0000000E+00;  1.3597415E-01;  7.9871987E+03;
  1.0609571E+00;  9.9999998E-03; -2.6032016E-01;2674;  3.2777360E-01;  0.0000000E+00; -7.1607806E-02;  1.0065266E+03;  4.0319571E-01;  5.3160166E+03;3;  9.9422729E+01;  0.0000000E+00; -8.7154312E+00;0;  3.0085969E-01;  9.9936650E+03;  0.0000000E+00; -2.4269202E-01;  1.0000000E+04;  0.0000000E+00;  9.9773623E+03;  1.4692079E-01;  0.0000000E+00;  1.5393889E-01;  8.8118115E+03;
  1.0609007E+00;  9.9999998E-03; -2.4030735E-01;2675;  3.1723917E-01;  0.0000000E+00; -7.1448043E-02;  1.0067410E+03;  4.0319598E-01;  5.4907729E+03;3;  8.5717033E+01;  0.0000000E+00; -5.9263988E+00;0;  2.4073970E-01;  9.9995928E+03;  0.0000000E+00; -2.7938652E-01;  1.0000000E+04;  0.0000000E+00;  9.9756738E+03;  5.6071755E-02;  0.0000000E+00;  1.8466794E-01;  9.5273193E+03;
  1.0608470E+00;  9.9999998E-03; -2.2028807E-01;2676;  3.0655426E-01;  0.0000000E+00; -7.0433334E-02;  1.0069629E+03;  4.0319616E-01;  5.6715503E+03;3;  7.7985954E+01;  0.0000000E+00; -4.6583395E+00;0;  1.9206695E-01;  1.0003970E+04;  0.0000000E+00; -2.8735796E-01;  1.0000000E+04;  0.0000000E+00;  9.9756797E+03; -1.2535405E-02;  0.0000000E+00;  2.0460236E-01;  9.5538379E+03;
  1.0607951E+00;  9.9999998E-03; -2.0026612E-01;2677;  2.9450050E-01;  0.0000000E+00; -6.6557027E-02;  1.0071422E+03;  4.0319636E-01;  5.8176641E+03;3;  7.3762131E+01;  0.0000000E+00; -3.3732817E+00;0;  1.5785807E-01;  1.0007399E+04;  0.0000000E+00; -1.9065167E-01;  1.0000000E+04;  0.0000000E+00;  9.9757900E+03; -6.5511055E-02;  0.0000000E+00;  2.2336912E-01;  9.4808213E+03;
  1.0810958E+00;  9.9999998E-03; -3.0032235E-01;2703;  3.4702808E-01;  0.0000000E+00; -6.7061953E-02;  1.0048958E+03;  4.0276128E-01;  3.9647014E+03;3;  1.5010664E+02;  0.0000000E+00; -1.8614046E+01;0;  3.9770889E-01;  9.9757979E+03;  0.0000000E+00;  1.3116426E+00;  1.0000000E+04;  0.0000000E+00;  9.9844463E+03;  3.1807196E-01;  0.0000000E+00;  7.9636931E-02;  7.6040537E+03;
  1.0810349E+00;  9.9999998E-03; -2.8030813E-01;2704;  3.4053054E-01;  0.0000000E+00; -6.6501997E-02;  1.0053557E+03;  4.0276152E-01;  4.3372305E+03;3;  1.2575412E+02;  0.0000000E+00; -1.2802025E+01;0;  3.0563426E-01;  9.9886025E+03;  0.0000000E+00; -5.7087570E-01;  1.0000000E+04;  0.0000000E+00;  9.9807275E+03;  1.7936239E-01;  0.0000000E+00;  1.2627187E-01;  7.2706963E+03;
  1.0809652E+00;  9.9999998E-03; -2.6028976E-01;2705;  3.2812718E-01;  0.0000000E+00; -6.4153723E-02;  1.0057075E+03;  4.0276149E-01;  4.6222246E+03;3;  1.0418198E+02;  0.0000000E+00; -8.9901409E+00;0;  2.0412616E-01;  9.9977148E+03;  0.0000000E+00; -7.4860787E-01;  1.0000000E+04;  0.0000000E+00;  9.9785762E+03;  5.9420045E-02;  0.0000000E+00;  1.4470612E-01;  8.3517236E+03;
  1.0808996E+00;  9.9999998E-03; -2.4027669E-01;2706;  3.1641939E-01;  0.0000000E+00; -6.3769549E-02;  1.0058990E+03;  4.0276188E-01;  4.7773745E+03;3;  8.9095238E+01;  0.0000000E+00; -6.1170311E+00;0;  1.5763670E-01;  1.0003199E+04;  0.0000000E+00; -7.2942364E-01;  1.0000000E+04;  0.0000000E+00;  9.9768711E+03; -1.7689459E-02;  0.0000000E+00;  1.7532617E-01;  8.9517100E+03;
  1.0808412E+00;  9.9999998E-03; -2.2026002E-01;2707;  3.0524686E-01;  0.0000000E+00; -6.3515611E-02;  1.0060655E+03;  4.0276200E-01;  4.9123398E+03;3;  8.0126686E+01;  0.0000000E+00; -4.7438502E+00;0;  1.2562019E-01;  1.0006421E+04;  0.0000000E+00; -6.4997172E-01;  1.0000000E+04;  0.0000000E+00;  9.9769346E+03; -6.7542188E-02;  0.0000000E+00;  1.9316237E-01;  8.8469746E+03;
  1.0807844E+00;  9.9999998E-03; -2.0023897E-01;2708;  2.9235002E-01;  0.0000000E+00; -6.0303491E-02;  1.0062038E+03;  4.0276235E-01;  5.0244268E+03;3;  7.4791260E+01;  0.0000000E+00; -3.7379465E+00;0;  1.0056036E-01;  1.0008676E+04;  0.0000000E+00; -4.2928883E-01;  1.0000000E+04;  0.0000000E+00;  9.9774063E+03; -1.0327610E-01;  0.0000000E+00;  2.0383646E-01;  8.4682646E+03;
  1.1010406E+00;  9.9999998E-03; -2.8027973E-01;2734;  3.3992541E-01;  0.0000000E+00; -5.9765324E-02;  1.0046306E+03;  4.0239745E-01;  3.7215820E+03;3;  1.3435373E+02;  0.0000000E+00; -1.4096262E+01;0;  2.2628406E-01;  9.9905889E+03;  0.0000000E+00; -4.6186700E-01;  1.0000000E+04;  0.0000000E+00;  9.9823955E+03;  1.1147157E-01;  0.0000000E+00;  1.1481249E-01;  6.0354448E+03;
  1.1009672E+00;  9.9999998E-03; -2.6025975E-01;2735;  3.2653186E-01;  0.0000000E+00; -5.6430224E-02;  1.0050515E+03;  4.0239742E-01;  4.0600115E+03;3;  1.1077687E+02;  0.0000000E+00; -9.7768955E+00;0;  1.1458854E-01;  1.0000842E+04;  0.0000000E+00; -1.2504951E+00;  1.0000000E+04;  0.0000000E+00;  9.9804766E+03; -1.2683259E-02;  0.0000000E+00;  1.2727180E-01;  8.0621602E+03;
  1.1008991E+00;  9.9999998E-03; -2.4024630E-01;2736;  3.1473684E-01;  0.0000000E+00; -5.5116639E-02;  1.0052093E+03;  4.0239775E-01;  4.1869893E+03;3;  9.3863892E+01;  0.0000000E+00; -6.3560171E+00;0;  7.9274878E-02;  1.0006098E+04;  0.0000000E+00; -1.3126074E+00;  1.0000000E+04;  0.0000000E+00;  9.9783418E+03; -7.8457668E-02;  0.0000000E+00;  1.5773255E-01;  8.8296113E+03;
  1.1008365E+00;  9.9999998E-03; -2.2023205E-01;2737;  3.0349880E-01;  0.0000000E+00; -5.5549923E-02;  1.0053112E+03;  4.0239802E-01;  4.2690264E+03;3;  8.2916214E+01;  0.0000000E+00; -4.7525120E+00;0;  6.8999775E-02;  1.0008408E+04;  0.0000000E+00; -1.1619070E+00;  1.0000000E+04;  0.0000000E+00;  9.9780322E+03; -1.1183431E-01;  0.0000000E+00;  1.8083408E-01;  8.6276953E+03;
  1.1007758E+00;  9.9999998E-03; -2.0021315E-01;2738;  2.9026303E-01;  0.0000000E+00; -5.3611964E-02;  1.0053992E+03;  4.0239820E-01;  4.3398535E+03;3;  7.6301804E+01;  0.0000000E+00; -3.8084970E+00;0;  5.5769265E-02;  1.0009531E+04;  0.0000000E+00; -8.0547011E-01;  1.0000000E+04;  0.0000000E+00;  9.9786348E+03; -1.3192989E-01;  0.0000000E+00;  1.8769915E-01;  7.8586582E+03;
  1.1210326E+00;  9.9999998E-03; -2.8025535E-01;2763;  3.3627233E-01;  0.0000000E+00; -5.3636342E-02;  1.0040087E+03;  4.0209904E-01;  3.1897813E+03;3;  1.4415422E+02;  0.0000000E+00; -1.5124062E+01;0;  1.6962053E-01;  9.9912754E+03;  0.0000000E+00;  4.4635242E-01;  1.0000000E+04;  0.0000000E+00;  9.9841396E+03;  6.6732131E-02;  0.0000000E+00;  1.0288840E-01;  4.9215869E+03;
  1.1209664E+00;  9.9999998E-03; -2.6023543E-01;2764;  3.2423049E-01;  0.0000000E+00; -5.0004233E-02;  1.0044534E+03;  4.0209916E-01;  3.5438284E+03;3;  1.1952061E+02;  0.0000000E+00; -1.0612405E+01;0;  5.7874754E-02;  1.0001912E+04;  0.0000000E+00; -1.4604515E+00;  1.0000000E+04;  0.0000000E+00;  9.9823311E+03; -5.5004254E-02;  0.0000000E+00;  1.1287901E-01;  7.3089028E+03;
  1.1208985E+00;  9.9999998E-03; -2.4021840E-01;2765;  3.1218171E-01;  0.0000000E+00; -4.6952829E-02;  1.0046426E+03;  4.0209928E-01;  3.6945161E+03;3;  1.0014758E+02;  0.0000000E+00; -6.8999224E+00;0;  1.1986412E-02;  1.0007628E+04;  0.0000000E+00; -1.8680878E+00;  1.0000000E+04;  0.0000000E+00;  9.9803633E+03; -1.2053741E-01;  0.0000000E+00;  1.3252382E-01;  8.7564355E+03;
  1.1208339E+00;  9.9999998E-03; -2.2020540E-01;2766;  3.0125210E-01;  0.0000000E+00; -4.7264487E-02;  1.0046921E+03;  4.0209940E-01;  3.7340217E+03;3;  8.6927048E+01;  0.0000000E+00; -4.8430481E+00;0;  1.9719094E-02;  1.0009672E+04;  0.0000000E+00; -1.7691665E+00;  1.0000000E+04;  0.0000000E+00;  9.9792842E+03; -1.4443861E-01;  0.0000000E+00;  1.6415770E-01;  8.7589502E+03;
  1.1207695E+00;  9.9999998E-03; -2.0018828E-01;2767;  2.8827569E-01;  0.0000000E+00; -4.6425391E-02;  1.0047315E+03;  4.0209967E-01;  3.7655603E+03;3;  7.8713867E+01;  0.0000000E+00; -3.9017904E+00;0;  1.9924611E-02;  1.0010048E+04;  0.0000000E+00; -1.3278702E+00;  1.0000000E+04;  0.0000000E+00;  9.9796738E+03; -1.5357023E-01;  0.0000000E+00;  1.7349485E-01;  7.7241753E+03;
  1.1409627E+00;  9.9999998E-03; -2.6021892E-01;2792;  3.2152447E-01;  0.0000000E+00; -4.5057591E-02;  1.0038214E+03;  4.0185988E-01;  3.0017068E+03;3;  1.2995634E+02;  0.0000000E+00; -1.1289911E+01;0;  4.8828173E-02;  1.0000177E+04;  0.0000000E+00; -9.2703867E-01;  1.0000000E+04;  0.0000000E+00;  9.9833721E+03; -5.6865845E-02;  0.0000000E+00;  1.0569402E-01;  5.2759883E+03;
  1.1408976E+00;  9.9999998E-03; -2.4019842E-01;2793;  3.0927727E-01;  0.0000000E+00; -4.0737968E-02;  1.0041082E+03;  4.0185988E-01;  3.2271577E+03;3;  1.0850169E+02;  0.0000000E+00; -7.4468460E+00;0; -2.6246078E-02;  1.0007026E+04;  0.0000000E+00; -2.1503148E+00;  1.0000000E+04;  0.0000000E+00;  9.9822207E+03; -1.3595945E-01;  0.0000000E+00;  1.0971337E-01;  8.0781367E+03;
  1.1408342E+00;  9.9999998E-03; -2.2018419E-01;2794;  2.9856133E-01;  0.0000000E+00; -3.9640523E-02;  1.0041637E+03;  4.0186009E-01;  3.2709478E+03;3;  9.2701988E+01;  0.0000000E+00; -4.7875304E+00;0; -2.1501824E-02;  1.0009693E+04;  0.0000000E+00; -2.3697724E+00;  1.0000000E+04;  0.0000000E+00;  9.9806475E+03; -1.6294903E-01;  0.0000000E+00;  1.4144720E-01;  8.8669893E+03;
  1.1407669E+00;  9.9999998E-03; -2.0016734E-01;2795;  2.8638539E-01;  0.0000000E+00; -3.9556675E-02;  1.0041869E+03;  4.0186030E-01;  3.2892781E+03;3;  8.2674271E+01;  0.0000000E+00; -3.9234321E+00;0; -8.3096474E-03;  1.0010144E+04;  0.0000000E+00; -1.9712340E+00;  1.0000000E+04;  0.0000000E+00;  9.9806396E+03; -1.6825014E-01;  0.0000000E+00;  1.5994050E-01;  7.9506108E+03;
  1.1609508E+00;  9.9999998E-03; -2.6020634E-01;2819;  3.1691054E-01;  0.0000000E+00; -4.0963650E-02;  1.0032126E+03;  4.0167227E-01;  2.4817966E+03;3;  1.4117055E+02;  0.0000000E+00; -1.1861084E+01;0;  6.7558870E-02;  9.9965635E+03;  0.0000000E+00;  8.3429718E-01;  1.0000000E+04;  0.0000000E+00;  9.9841895E+03; -3.2954309E-02;  0.0000000E+00;  1.0051318E-01;  4.2475015E+03;
  1.1608986E+00;  9.9999998E-03; -2.4018875E-01;2820;  3.0681843E-01;  0.0000000E+00; -3.6818426E-02;  1.0034863E+03;  4.0167230E-01;  2.6933723E+03;3;  1.1875565E+02;  0.0000000E+00; -7.6929522E+00;0; -1.2908831E-02;  1.0003415E+04;  0.0000000E+00; -1.7742673E+00;  1.0000000E+04;  0.0000000E+00;  9.9827871E+03; -1.1387219E-01;  0.0000000E+00;  1.0096336E-01;  6.1540200E+03;
  1.1608369E+00;  9.9999998E-03; -2.2017008E-01;2821;  2.9562801E-01;  0.0000000E+00; -3.3518516E-02;  1.0036609E+03;  4.0167236E-01;  2.8284580E+03;3;  1.0059620E+02;  0.0000000E+00; -4.5677133E+00;0; -4.5622252E-02;  1.0007768E+04;  0.0000000E+00; -2.7138088E+00;  1.0000000E+04;  0.0000000E+00;  9.9819102E+03; -1.6151005E-01;  0.0000000E+00;  1.1588780E-01;  8.2509648E+03;
  1.1607703E+00;  9.9999998E-03; -2.0015326E-01;2822;  2.8428870E-01;  0.0000000E+00; -3.3306945E-02;  1.0037168E+03;  4.0167254E-01;  2.8718330E+03;3;  8.8397507E+01;  0.0000000E+00; -3.5848155E+00;0; -2.9041022E-02;  1.0009303E+04;  0.0000000E+00; -2.6356430E+00;  1.0000000E+04;  0.0000000E+00;  9.9814756E+03; -1.7329115E-01;  0.0000000E+00;  1.4425012E-01;  8.1341851E+03;
  1.1808923E+00;  9.9999998E-03; -2.4018353E-01;2846;  3.0343017E-01;  0.0000000E+00; -3.4651674E-02;  1.0028473E+03;  4.0152818E-01;  2.1538188E+03;3;  1.3088104E+02;  0.0000000E+00; -8.4457521E+00;0;  4.6202749E-02;  9.9978877E+03;  0.0000000E+00; -1.6961331E-02;  1.0000000E+04;  0.0000000E+00;  9.9827490E+03; -6.1827078E-02;  0.0000000E+00;  1.0802983E-01;  3.4649360E+03;
  1.1808401E+00;  9.9999998E-03; -2.2016485E-01;2847;  2.9304144E-01;  0.0000000E+00; -3.0346673E-02;  1.0030874E+03;  4.0152824E-01;  2.3355737E+03;3;  1.1080059E+02;  0.0000000E+00; -4.7640638E+00;0; -2.1801710E-02;  1.0003133E+04;  0.0000000E+00; -2.2971530E+00;  1.0000000E+04;  0.0000000E+00;  9.9822900E+03; -1.2742947E-01;  0.0000000E+00;  1.0562776E-01;  6.1843345E+03;
  1.1807787E+00;  9.9999998E-03; -2.0014735E-01;2848;  2.8222063E-01;  0.0000000E+00; -2.8707884E-02;  1.0032331E+03;  4.0152827E-01;  2.4459507E+03;3;  9.5791313E+01;  0.0000000E+00; -3.0568790E+00;0; -2.8920457E-02;  1.0006438E+04;  0.0000000E+00; -3.0416775E+00;  1.0000000E+04;  0.0000000E+00;  9.9818809E+03; -1.5862262E-01;  0.0000000E+00;  1.2970217E-01;  7.6027705E+03;
  1.2008362E+00;  9.9999998E-03; -2.2016348E-01;2871;  2.8960618E-01;  0.0000000E+00; -2.9205943E-02;  1.0024883E+03;  4.0141991E-01;  1.8337255E+03;3;  1.2330425E+02;  0.0000000E+00; -5.7453151E+00;0;  4.8733525E-02;  9.9967363E+03;  0.0000000E+00; -3.3161682E-01;  1.0000000E+04;  0.0000000E+00;  9.9821377E+03; -6.4651377E-02;  0.0000000E+00;  1.1338490E-01;  3.0672637E+03;
  1.2007880E+00;  9.9999998E-03; -2.0014799E-01;2872;  2.8065515E-01;  0.0000000E+00; -2.6698126E-02;  1.0026526E+03;  4.0141982E-01;  1.9549155E+03;3;  1.0590119E+02;  0.0000000E+00; -3.1210020E+00;0;  2.2303365E-02;  1.0000531E+04;  0.0000000E+00; -2.5579753E+00;  1.0000000E+04;  0.0000000E+00;  9.9816201E+03; -1.0622851E-01;  0.0000000E+00;  1.2853187E-01;  5.5718838E+03;
  1.2208092E+00;  9.9999998E-03; -2.2015373E-01;2894;  2.7974325E-01;  0.0000000E+00; -2.6636727E-02;  1.0022764E+03;  4.0133983E-01;  1.6250425E+03;3;  1.3452126E+02;  0.0000000E+00; -6.9539318E+00;0;  4.2119313E-02;  9.9944951E+03;  0.0000000E+00;  2.9463794E+00;  1.0000000E+04;  0.0000000E+00;  9.9841270E+03; -5.9852723E-02;  0.0000000E+00;  1.0197204E-01;  4.7958447E+03;
  1.2207845E+00;  9.9999998E-03; -2.0014894E-01;2895;  2.7649891E-01;  0.0000000E+00; -2.5915476E-02;  1.0021115E+03;  4.0134007E-01;  1.5074156E+03;3;  1.1927810E+02;  0.0000000E+00; -4.2711616E+00;0;  9.5000252E-02;  9.9939863E+03;  0.0000000E+00; -3.4777692E-01;  1.0000000E+04;  0.0000000E+00;  9.9813525E+03; -4.1156475E-02;  0.0000000E+00;  1.3615672E-01;  2.6034287E+03;
 -5.6893728E-06;  9.9999998E-03; -1.8000065E-01;1036; -3.6078054E-03;  0.0000000E+00; -4.2641273E-04;  1.0001183E+03;  4.0000001E-01;  9.8071289E+01;3; -2.3350067E+00;  0.0000000E+00; -2.9679489E-01;0; -6.8682179E-02;  1.0002464E+04;  0.0000000E+00; -1.3408204E-08;  1.0000000E+04;  0.0000000E+00;  9.9999023E+03; -7.1386635E-02;  0.0000000E+00;  2.7044588E-03;  5.3660671E+01;
 -5.8478154E-06;  9.9999998E-03; -1.6000050E-01;1037; -3.7124984E-03;  0.0000000E+00; -3.3769090E-04;  1.0001223E+03;  4.0000001E-01;  1.0133045E+02;3; -2.4070091E+00;  0.0000000E+00; -2.4190682E-01;0; -7.0970006E-02;  1.0002543E+04;  0.0000000E+00; -1.5992113E-08;  1.0000000E+04;  0.0000000E+00;  9.9999072E+03; -7.3645368E-02;  0.0000000E+00;  2.6753652E-03;  5.2814812E+01;
 -5.9394270E-06;  9.9999998E-03; -1.4000039E-01;1038; -3.7742537E-03;  0.0000000E+00; -2.6221183E-04;  1.0001248E+03;  4.0000001E-01;  1.0340446E+02;3; -2.4528522E+00;  0.0000000E+00; -1.9393486E-01;0; -7.2562285E-02;  1.0002582E+04;  0.0000000E+00; -7.7394251E-09;  1.0000000E+04;  0.0000000E+00;  9.9999150E+03; -7.5025842E-02;  0.0000000E+00;  2.4635533E-03;  4.8922398E+01;
 -5.9841141E-06;  9.9999998E-03; -1.2000028E-01;1039; -3.8053726E-03;  0.0000000E+00; -1.9862296E-04;  1.0001267E+03;  4.0000001E-01;  1.0498467E+02;3; -2.4785995E+00;  0.0000000E+00; -1.5280867E-01;0; -7.3599219E-02;  1.0002606E+04;  0.0000000E+00; -2.9942002E-09;  1.0000000E+04;  0.0000000E+00;  9.9999268E+03; -7.5771593E-02;  0.0000000E+00;  2.1723746E-03;  4.3718407E+01;
 -5.9981298E-06;  9.9999998E-03; -1.0000020E-01;1040; -3.8165832E-03;  0.0000000E+00; -1.4523401E-04;  1.0001275E+03;  4.0000001E-01;  1.0567601E+02;3; -2.4911299E+00;  0.0000000E+00; -1.1631586E-01;0; -7.4224152E-02;  1.0002614E+04;  0.0000000E+00; -1.9812167E-09;  1.0000000E+04;  0.0000000E+00;  9.9999365E+03; -7.6086596E-02;  0.0000000E+00;  1.8624414E-03;  3.8237438E+01;
 -5.9937920E-06;  9.9999998E-03; -8.0000140E-02;1041; -3.8155671E-03;  0.0000000E+00; -1.0295189E-04;  1.0001282E+03;  4.0000001E-01;  1.0626859E+02;3; -2.4950867E+00;  0.0000000E+00; -8.5723668E-02;0; -7.4565955E-02;  1.0002614E+04;  0.0000000E+00; -8.1201712E-10;  1.0000000E+04;  0.0000000E+00;  9.9999502E+03; -7.6137722E-02;  0.0000000E+00;  1.5717706E-03;  3.3132385E+01;
 -5.9814629E-06;  9.9999998E-03; -6.0000088E-02;1042; -3.8089794E-03;  0.0000000E+00; -6.8775742E-05;  1.0001285E+03;  4.0000001E-01;  1.0646611E+02;3; -2.4944344E+00;  0.0000000E+00; -5.9941739E-02;0; -7.4728765E-02;  1.0002611E+04;  0.0000000E+00; -4.2852319E-10;  1.0000000E+04;  0.0000000E+00;  9.9999590E+03; -7.6054275E-02;  0.0000000E+00;  1.3255137E-03;  2.8830681E+01;
 -5.9678687E-06;  9.9999998E-03; -4.0000055E-02;1043; -3.8012010E-03;  0.0000000E+00; -4.1902917E-05;  1.0001285E+03;  4.0000001E-01;  1.0646611E+02;3; -2.4921894E+00;  0.0000000E+00; -3.7651725E-02;0; -7.4791297E-02;  1.0002606E+04;  0.0000000E+00; -2.0371785E-10;  1.0000000E+04;  0.0000000E+00;  9.9999668E+03; -7.5931050E-02;  0.0000000E+00;  1.1397506E-03;  2.5600109E+01;
 -5.9579443E-06;  9.9999998E-03; -2.0000024E-02;1044; -3.7953528E-03;  0.0000000E+00; -1.9722454E-05;  1.0001285E+03;  4.0000001E-01;  1.0646611E+02;3; -2.4900227E+00;  0.0000000E+00; -1.8264107E-02;0; -7.4807875E-02;  1.0002602E+04;  0.0000000E+00; -8.9755488E-11;  1.0000000E+04;  0.0000000E+00;  9.9999697E+03; -7.5832427E-02;  0.0000000E+00;  1.0245505E-03;  2.3603113E+01;
  1.9991888E-02;  9.9999998E-03; -1.8000087E-01;1066; -5.1016142E-03;  0.0000000E+00; -5.6684582E-04;  1.0001404E+03;  4.0000001E-01;  1.1634237E+02;3; -2.9217224E+00;  0.0000000E+00; -3.5559818E-01;0; -8.0323540E-02;  1.0002938E+04;  0.0000000E+00;  1.2366459E-07;  1.0000000E+04;  0.0000000E+00;  9.9998740E+03; -8.3833203E-02;  0.0000000E+00;  3.5096656E-03;  6.9861603E+01;
  1.9991683E-02;  9.9999998E-03; -1.6000068E-01;1067; -5.2364809E-03;  0.0000000E+00; -4.5368329E-04;  1.0001447E+03;  4.0000001E-01;  1.1979906E+02;3; -3.0059347E+00;  0.0000000E+00; -2.9471654E-01;0; -8.2764447E-02;  1.0003019E+04;  0.0000000E+00;  5.7587076E-08;  1.0000000E+04;  0.0000000E+00;  9.9998760E+03; -8.6238265E-02;  0.0000000E+00;  3.4738178E-03;  6.8562523E+01;
  1.9991575E-02;  9.9999998E-03; -1.4000052E-01;1068; -5.3111874E-03;  0.0000000E+00; -3.5705988E-04;  1.0001474E+03;  4.0000001E-01;  1.2207060E+02;3; -3.0580759E+00;  0.0000000E+00; -2.4136680E-01;0; -8.4446050E-02;  1.0003062E+04;  0.0000000E+00;  2.5551001E-08;  1.0000000E+04;  0.0000000E+00;  9.9998887E+03; -8.7655991E-02;  0.0000000E+00;  3.2099385E-03;  6.3410980E+01;
  1.9991526E-02;  9.9999998E-03; -1.2000038E-01;1069; -5.3460989E-03;  0.0000000E+00; -2.7131542E-04;  1.0001493E+03;  4.0000001E-01;  1.2365080E+02;3; -3.0874472E+00;  0.0000000E+00; -1.9137998E-01;0; -8.5524559E-02;  1.0003081E+04;  0.0000000E+00;  8.7674339E-09;  1.0000000E+04;  0.0000000E+00;  9.9999023E+03; -8.8370062E-02;  0.0000000E+00;  2.8455020E-03;  5.6602894E+01;
  1.9991521E-02;  9.9999998E-03; -1.0000028E-01;1070; -5.3540608E-03;  0.0000000E+00; -2.0128192E-04;  1.0001501E+03;  4.0000001E-01;  1.2444090E+02;3; -3.1006346E+00;  0.0000000E+00; -1.4845425E-01;0; -8.6162746E-02;  1.0003085E+04;  0.0000000E+00;  2.0391890E-09;  1.0000000E+04;  0.0000000E+00;  9.9999180E+03; -8.8615522E-02;  0.0000000E+00;  2.4527784E-03;  4.9404514E+01;
  1.9991538E-02;  9.9999998E-03; -8.0000192E-02;1071; -5.3467806E-03;  0.0000000E+00; -1.4432857E-04;  1.0001509E+03;  4.0000001E-01;  1.2503349E+02;3; -3.1038589E+00;  0.0000000E+00; -1.1160717E-01;0; -8.6502478E-02;  1.0003083E+04;  0.0000000E+00; -1.4481870E-10;  1.0000000E+04;  0.0000000E+00;  9.9999336E+03; -8.8583827E-02;  0.0000000E+00;  2.0813476E-03;  4.2675941E+01;
  1.9991564E-02;  9.9999998E-03; -6.0000129E-02;1072; -5.3332201E-03;  0.0000000E+00; -9.7833959E-05;  1.0001509E+03;  4.0000001E-01;  1.2503349E+02;3; -3.1021652E+00;  0.0000000E+00; -7.8993298E-02;0; -8.6656369E-02;  1.0003075E+04;  0.0000000E+00; -1.4926639E-10;  1.0000000E+04;  0.0000000E+00;  9.9999443E+03; -8.8421419E-02;  0.0000000E+00;  1.7650522E-03;  3.6993355E+01;
  1.9991588E-02;  9.9999998E-03; -4.0000077E-02;1073; -5.3193141E-03;  0.0000000E+00; -6.0444007E-05;  1.0001511E+03;  4.0000001E-01;  1.2513225E+02;3; -3.0986338E+00;  0.0000000E+00; -5.0727256E-02;0; -8.6708918E-02;  1.0003067E+04;  0.0000000E+00; -1.0645154E-10;  1.0000000E+04;  0.0000000E+00;  9.9999541E+03; -8.8234708E-02;  0.0000000E+00;  1.5257931E-03;  3.2720936E+01;
  1.9991605E-02;  9.9999998E-03; -2.0000035E-02;1074; -5.3094295E-03;  0.0000000E+00; -2.8681734E-05;  1.0001510E+03;  4.0000001E-01;  1.2513225E+02;3; -3.0957088E+00;  0.0000000E+00; -2.4646284E-02;0; -8.6718060E-02;  1.0003061E+04;  0.0000000E+00; -2.3148906E-11;  1.0000000E+04;  0.0000000E+00;  9.9999609E+03; -8.8095263E-02;  0.0000000E+00;  1.3772008E-03;  3.0078478E+01;
  3.9988779E-02;  9.9999998E-03; -1.8000101E-01;1097; -6.9990740E-03;  0.0000000E+00; -6.4981333E-04;  1.0001600E+03;  4.0000001E-01;  1.3253944E+02;3; -3.6087856E+00;  0.0000000E+00; -3.7290666E-01;0; -8.9852035E-02;  1.0003356E+04;  0.0000000E+00;  2.2411494E-07;  1.0000000E+04;  0.0000000E+00;  9.9998477E+03; -9.3984082E-02;  0.0000000E+00;  4.1320454E-03;  8.3885231E+01;
  3.9988525E-02;  9.9999998E-03; -1.6000080E-01;1098; -7.1675237E-03;  0.0000000E+00; -5.2665273E-04;  1.0001641E+03;  4.0000001E-01;  1.3589737E+02;3; -3.7071953E+00;  0.0000000E+00; -3.1501710E-01;0; -9.2249289E-02;  1.0003434E+04;  0.0000000E+00;  1.1854976E-07;  1.0000000E+04;  0.0000000E+00;  9.9998506E+03; -9.6339375E-02;  0.0000000E+00;  4.0900819E-03;  8.2027832E+01;
  3.9988399E-02;  9.9999998E-03; -1.4000061E-01;1099; -7.2573549E-03;  0.0000000E+00; -4.1676307E-04;  1.0001670E+03;  4.0000001E-01;  1.3836644E+02;3; -3.7680607E+00;  0.0000000E+00; -2.6142296E-01;0; -9.3853854E-02;  1.0003474E+04;  0.0000000E+00;  5.3186493E-08;  1.0000000E+04;  0.0000000E+00;  9.9998652E+03; -9.7648814E-02;  0.0000000E+00;  3.7949604E-03;  7.5791695E+01;
  3.9988350E-02;  9.9999998E-03; -1.2000046E-01;1100; -7.2941729E-03;  0.0000000E+00; -3.2053390E-04;  1.0001685E+03;  4.0000001E-01;  1.3955159E+02;3; -3.8014154E+00;  0.0000000E+00; -2.1145564E-01;0; -9.4843097E-02;  1.0003486E+04;  0.0000000E+00;  1.8363991E-08;  1.0000000E+04;  0.0000000E+00;  9.9998818E+03; -9.8228648E-02;  0.0000000E+00;  3.3855506E-03;  6.7669899E+01;
  3.9988358E-02;  9.9999998E-03; -1.0000034E-01;1101; -7.2968523E-03;  0.0000000E+00; -2.4068942E-04;  1.0001695E+03;  4.0000001E-01;  1.4044044E+02;3; -3.8160648E+00;  0.0000000E+00; -1.6747063E-01;0; -9.5399201E-02;  1.0003486E+04;  0.0000000E+00;  4.2590109E-09;  1.0000000E+04;  0.0000000E+00;  9.9998994E+03; -9.8337114E-02;  0.0000000E+00;  2.9379148E-03;  5.9052265E+01;
  3.9988395E-02;  9.9999998E-03; -8.0000229E-02;1102; -7.2812513E-03;  0.0000000E+00; -1.7363932E-04;  1.0001697E+03;  4.0000001E-01;  1.4063797E+02;3; -3.8194790E+00;  0.0000000E+00; -1.2711999E-01;0; -9.5670491E-02;  1.0003478E+04;  0.0000000E+00;  5.4343646E-10;  1.0000000E+04;  0.0000000E+00;  9.9999180E+03; -9.8180667E-02;  0.0000000E+00;  2.5101756E-03;  5.0965885E+01;
  3.9988436E-02;  9.9999998E-03; -6.0000155E-02;1103; -7.2583673E-03;  0.0000000E+00; -1.1907721E-04;  1.0001699E+03;  4.0000001E-01;  1.4073674E+02;3; -3.8170776E+00;  0.0000000E+00; -9.1244139E-02;0; -9.5771447E-02;  1.0003465E+04;  0.0000000E+00; -8.8365166E-12;  1.0000000E+04;  0.0000000E+00;  9.9999326E+03; -9.7915031E-02;  0.0000000E+00;  2.1435826E-03;  4.4118481E+01;
  3.9988477E-02;  9.9999998E-03; -4.0000092E-02;1104; -7.2365357E-03;  0.0000000E+00; -7.3968979E-05;  1.0001698E+03;  4.0000001E-01;  1.4063797E+02;3; -3.8126125E+00;  0.0000000E+00; -5.9148960E-02;0; -9.5786586E-02;  1.0003451E+04;  0.0000000E+00;  3.6458146E-11;  1.0000000E+04;  0.0000000E+00;  9.9999443E+03; -9.7651847E-02;  0.0000000E+00;  1.8652596E-03;  3.8962421E+01;
  3.9988503E-02;  9.9999998E-03; -2.0000044E-02;1105; -7.2213411E-03;  0.0000000E+00; -3.5343139E-05;  1.0001697E+03;  4.0000001E-01;  1.4053922E+02;3; -3.8089628E+00;  0.0000000E+00; -2.8836329E-02;0; -9.5773548E-02;  1.0003443E+04;  0.0000000E+00;  1.2684109E-10;  1.0000000E+04;  0.0000000E+00;  9.9999512E+03; -9.7465619E-02;  0.0000000E+00;  1.6920685E-03;  3.5770973E+01;
  5.9985202E-02;  9.9999998E-03; -1.8000108E-01;1128; -9.1363005E-03;  0.0000000E+00; -6.8396929E-04;  1.0001799E+03;  4.0000001E-01;  1.4903281E+02;3; -4.3567634E+00;  0.0000000E+00; -3.6880484E-01;0; -9.8827526E-02;  1.0003772E+04;  0.0000000E+00;  2.0371989E-07;  1.0000000E+04;  0.0000000E+00;  9.9998271E+03; -1.0333183E-01;  0.0000000E+00;  4.5043011E-03;  9.4956993E+01;
  5.9984904E-02;  9.9999998E-03; -1.6000086E-01;1129; -9.3353326E-03;  0.0000000E+00; -5.5957737E-04;  1.0001837E+03;  4.0000001E-01;  1.5219321E+02;3; -4.4694376E+00;  0.0000000E+00; -3.1741184E-01;0; -1.0104232E-01;  1.0003847E+04;  0.0000000E+00;  1.3072763E-07;  1.0000000E+04;  0.0000000E+00;  9.9998320E+03; -1.0549815E-01;  0.0000000E+00;  4.4558304E-03;  9.2430412E+01;
  5.9984762E-02;  9.9999998E-03; -1.4000066E-01;1130; -9.4374809E-03;  0.0000000E+00; -4.4416662E-04;  1.0001860E+03;  4.0000001E-01;  1.5416846E+02;3; -4.5394402E+00;  0.0000000E+00; -2.6642126E-01;0; -1.0243580E-01;  1.0003875E+04;  0.0000000E+00;  6.1241963E-08;  1.0000000E+04;  0.0000000E+00;  9.9998467E+03; -1.0659236E-01;  0.0000000E+00;  4.1565490E-03;  8.5386353E+01;
  5.9984729E-02;  9.9999998E-03; -1.2000050E-01;1131; -9.4734086E-03;  0.0000000E+00; -3.4459052E-04;  1.0001872E+03;  4.0000001E-01;  1.5505731E+02;3; -4.5774174E+00;  0.0000000E+00; -2.1913256E-01;0; -1.0322239E-01;  1.0003881E+04;  0.0000000E+00;  2.0064212E-08;  1.0000000E+04;  0.0000000E+00;  9.9998672E+03; -1.0696142E-01;  0.0000000E+00;  3.7390348E-03;  7.6376183E+01;
  5.9984755E-02;  9.9999998E-03; -1.0000036E-01;1132; -9.4683096E-03;  0.0000000E+00; -2.5986927E-04;  1.0001880E+03;  4.0000001E-01;  1.5574866E+02;3; -4.5941982E+00;  0.0000000E+00; -1.7591390E-01;0; -1.0360786E-01;  1.0003868E+04;  0.0000000E+00;  3.9320871E-09;  1.0000000E+04;  0.0000000E+00;  9.9998877E+03; -1.0688177E-01;  0.0000000E+00;  3.2739083E-03;  6.6784431E+01;
  5.9984811E-02;  9.9999998E-03; -8.0000252E-02;1133; -9.4416346E-03;  0.0000000E+00; -1.8902488E-04;  1.0001880E+03;  4.0000001E-01;  1.5574866E+02;3; -4.5981359E+00;  0.0000000E+00; -1.3539618E-01;0; -1.0374497E-01;  1.0003853E+04;  0.0000000E+00; -1.7937676E-11;  1.0000000E+04;  0.0000000E+00;  9.9999072E+03; -1.0656835E-01;  0.0000000E+00;  2.8233833E-03;  5.7743511E+01;
  5.9984878E-02;  9.9999998E-03; -6.0000166E-02;1134; -9.4074737E-03;  0.0000000E+00; -1.3061419E-04;  1.0001879E+03;  4.0000001E-01;  1.5564990E+02;3; -4.5952816E+00;  0.0000000E+00; -9.8610900E-02;0; -1.0374635E-01;  1.0003836E+04;  0.0000000E+00; -1.4642479E-10;  1.0000000E+04;  0.0000000E+00;  9.9999229E+03; -1.0618019E-01;  0.0000000E+00;  2.4338430E-03;  5.0061394E+01;
  5.9984937E-02;  9.9999998E-03; -4.0000100E-02;1135; -9.3762772E-03;  0.0000000E+00; -8.1456448E-05;  1.0001876E+03;  4.0000001E-01;  1.5545238E+02;3; -4.5902786E+00;  0.0000000E+00; -6.4147562E-02;0; -1.0369327E-01;  1.0003821E+04;  0.0000000E+00; -4.8834235E-11;  1.0000000E+04;  0.0000000E+00;  9.9999346E+03; -1.0582976E-01;  0.0000000E+00;  2.1364924E-03;  4.4263386E+01;
  5.9984978E-02;  9.9999998E-03; -2.0000048E-02;1136; -9.3548745E-03;  0.0000000E+00; -3.9108687E-05;  1.0001875E+03;  4.0000001E-01;  1.5535361E+02;3; -4.5860691E+00;  0.0000000E+00; -3.1686198E-02;0; -1.0364046E-01;  1.0003808E+04;  0.0000000E+00;  8.0389237E-12;  1.0000000E+04;  0.0000000E+00;  9.9999414E+03; -1.0559138E-01;  0.0000000E+00;  1.9509165E-03;  4.0670048E+01;
  7.9981230E-02;  9.9999998E-03; -1.8000109E-01;1159; -1.1443641E-02;  0.0000000E+00; -6.8183983E-04;  1.0002025E+03;  4.0000001E-01;  1.6769893E+02;3; -5.1842875E+00;  0.0000000E+00; -3.5441831E-01;0; -1.0865083E-01;  1.0004238E+04;  0.0000000E+00;  4.7658389E-08;  1.0000000E+04;  0.0000000E+00;  9.9998105E+03; -1.1328246E-01;  0.0000000E+00;  4.6316339E-03;  1.0337462E+02;
  7.9980902E-02;  9.9999998E-03; -1.6000088E-01;1160; -1.1666442E-02;  0.0000000E+00; -5.5923680E-04;  1.0002058E+03;  4.0000001E-01;  1.7046429E+02;3; -5.3109617E+00;  0.0000000E+00; -3.0860007E-01;0; -1.1059006E-01;  1.0004297E+04;  0.0000000E+00;  1.0172870E-07;  1.0000000E+04;  0.0000000E+00;  9.9998203E+03; -1.1517081E-01;  0.0000000E+00;  4.5807604E-03;  1.0013992E+02;
  7.9980761E-02;  9.9999998E-03; -1.4000067E-01;1161; -1.1774280E-02;  0.0000000E+00; -4.4568026E-04;  1.0002078E+03;  4.0000001E-01;  1.7214325E+02;3; -5.3891397E+00;  0.0000000E+00; -2.6276413E-01;0; -1.1167199E-01;  1.0004320E+04;  0.0000000E+00;  5.5572649E-08;  1.0000000E+04;  0.0000000E+00;  9.9998350E+03; -1.1597953E-01;  0.0000000E+00;  4.3075378E-03;  9.2615364E+01;
  7.9980746E-02;  9.9999998E-03; -1.2000050E-01;1162; -1.1804474E-02;  0.0000000E+00; -3.4831624E-04;  1.0002083E+03;  4.0000001E-01;  1.7253830E+02;3; -5.4314594E+00;  0.0000000E+00; -2.1984020E-01;0; -1.1216649E-01;  1.0004314E+04;  0.0000000E+00;  1.7992363E-08;  1.0000000E+04;  0.0000000E+00;  9.9998545E+03; -1.1608738E-01;  0.0000000E+00;  3.9208955E-03;  8.3172729E+01;
  7.9980798E-02;  9.9999998E-03; -1.0000037E-01;1163; -1.1787836E-02;  0.0000000E+00; -2.6353545E-04;  1.0002085E+03;  4.0000001E-01;  1.7273582E+02;3; -5.4502559E+00;  0.0000000E+00; -1.7802164E-01;0; -1.1230670E-01;  1.0004296E+04;  0.0000000E+00;  2.2848994E-09;  1.0000000E+04;  0.0000000E+00;  9.9998779E+03; -1.1578494E-01;  0.0000000E+00;  3.4782426E-03;  7.3085228E+01;
  7.9980887E-02;  9.9999998E-03; -8.0000259E-02;1164; -1.1747142E-02;  0.0000000E+00; -1.9304788E-04;  1.0002081E+03;  4.0000001E-01;  1.7234077E+02;3; -5.4546585E+00;  0.0000000E+00; -1.3894892E-01;0; -1.1225074E-01;  1.0004268E+04;  0.0000000E+00; -1.0825270E-09;  1.0000000E+04;  0.0000000E+00;  9.9998975E+03; -1.1529135E-01;  0.0000000E+00;  3.0406106E-03;  6.3517921E+01;
  7.9980984E-02;  9.9999998E-03; -6.0000170E-02;1165; -1.1699676E-02;  0.0000000E+00; -1.3382606E-04;  1.0002077E+03;  4.0000001E-01;  1.7204449E+02;3; -5.4515886E+00;  0.0000000E+00; -1.0216776E-01;0; -1.1210878E-01;  1.0004245E+04;  0.0000000E+00; -7.7401741E-10;  1.0000000E+04;  0.0000000E+00;  9.9999150E+03; -1.1476575E-01;  0.0000000E+00;  2.6569683E-03;  5.5345974E+01;
  7.9981066E-02;  9.9999998E-03; -4.0000103E-02;1166; -1.1657595E-02;  0.0000000E+00; -8.3980951E-05;  1.0002075E+03;  4.0000001E-01;  1.7184697E+02;3; -5.4460201E+00;  0.0000000E+00; -6.7064159E-02;0; -1.1195746E-01;  1.0004223E+04;  0.0000000E+00; -2.7698105E-10;  1.0000000E+04;  0.0000000E+00;  9.9999277E+03; -1.1431900E-01;  0.0000000E+00;  2.3615442E-03;  4.9155102E+01;
  7.9981118E-02;  9.9999998E-03; -2.0000048E-02;1167; -1.1629183E-02;  0.0000000E+00; -4.0387065E-05;  1.0002071E+03;  4.0000001E-01;  1.7155067E+02;3; -5.4413371E+00;  0.0000000E+00; -3.3201545E-02;0; -1.1184742E-01;  1.0004210E+04;  0.0000000E+00; -6.8335143E-11;  1.0000000E+04;  0.0000000E+00;  9.9999365E+03; -1.1402368E-01;  0.0000000E+00;  2.1762599E-03;  4.5309704E+01;
  9.9976815E-02;  9.9999998E-03; -1.8000109E-01;1190; -1.3927510E-02;  0.0000000E+00; -6.5697799E-04;  1.0002297E+03;  4.0000001E-01;  1.9031558E+02;3; -6.1108508E+00;  0.0000000E+00; -3.3509687E-01;0; -1.2026560E-01;  1.0004795E+04;  0.0000000E+00; -2.1893382E-07;  1.0000000E+04;  0.0000000E+00;  9.9998037E+03; -1.2483972E-01;  0.0000000E+00;  4.5741126E-03;  1.1026413E+02;
  9.9976480E-02;  9.9999998E-03; -1.6000086E-01;1191; -1.4164611E-02;  0.0000000E+00; -5.4070086E-04;  1.0002325E+03;  4.0000001E-01;  1.9258711E+02;3; -6.2498379E+00;  0.0000000E+00; -2.9610839E-01;0; -1.2184989E-01;  1.0004840E+04;  0.0000000E+00;  3.0334565E-08;  1.0000000E+04;  0.0000000E+00;  9.9998125E+03; -1.2638858E-01;  0.0000000E+00;  4.5386925E-03;  1.0647517E+02;
  9.9976353E-02;  9.9999998E-03; -1.4000067E-01;1192; -1.4269754E-02;  0.0000000E+00; -4.3436684E-04;  1.0002337E+03;  4.0000001E-01;  1.9357474E+02;3; -6.3349271E+00;  0.0000000E+00; -2.5634798E-01;0; -1.2254224E-01;  1.0004847E+04;  0.0000000E+00;  4.3354838E-08;  1.0000000E+04;  0.0000000E+00;  9.9998281E+03; -1.2686712E-01;  0.0000000E+00;  4.3248758E-03;  9.8832764E+01;
  9.9976368E-02;  9.9999998E-03; -1.2000050E-01;1193; -1.4288160E-02;  0.0000000E+00; -3.4095670E-04;  1.0002337E+03;  4.0000001E-01;  1.9357474E+02;3; -6.3808403E+00;  0.0000000E+00; -2.1707466E-01;0; -1.2267457E-01;  1.0004830E+04;  0.0000000E+00;  1.5830871E-08;  1.0000000E+04;  0.0000000E+00;  9.9998467E+03; -1.2668286E-01;  0.0000000E+00;  4.0082964E-03;  8.9399300E+01;
  9.9976465E-02;  9.9999998E-03; -1.0000036E-01;1194; -1.4254957E-02;  0.0000000E+00; -2.6029372E-04;  1.0002332E+03;  4.0000001E-01;  1.9317969E+02;3; -6.4010496E+00;  0.0000000E+00; -1.7867720E-01;0; -1.2250881E-01;  1.0004796E+04;  0.0000000E+00;  5.9475347E-10;  1.0000000E+04;  0.0000000E+00;  9.9998691E+03; -1.2613523E-01;  0.0000000E+00;  3.6264234E-03;  7.9246300E+01;
  9.9976592E-02;  9.9999998E-03; -8.0000252E-02;1195; -1.4196861E-02;  0.0000000E+00; -1.9184820E-04;  1.0002326E+03;  4.0000001E-01;  1.9268588E+02;3; -6.4056311E+00;  0.0000000E+00; -1.4131887E-01;0; -1.2221062E-01;  1.0004760E+04;  0.0000000E+00; -2.6457396E-09;  1.0000000E+04;  0.0000000E+00;  9.9998887E+03; -1.2544528E-01;  0.0000000E+00;  3.2346551E-03;  6.9516342E+01;
  9.9976726E-02;  9.9999998E-03; -6.0000170E-02;1196; -1.4133530E-02;  0.0000000E+00; -1.3406911E-04;  1.0002316E+03;  4.0000001E-01;  1.9189578E+02;3; -6.4021163E+00;  0.0000000E+00; -1.0487636E-01;0; -1.2188784E-01;  1.0004726E+04;  0.0000000E+00; -2.3591817E-09;  1.0000000E+04;  0.0000000E+00;  9.9999053E+03; -1.2477055E-01;  0.0000000E+00;  2.8827128E-03;  6.1132088E+01;
  9.9976830E-02;  9.9999998E-03; -4.0000103E-02;1197; -1.4078945E-02;  0.0000000E+00; -8.4659870E-05;  1.0002310E+03;  4.0000001E-01;  1.9140196E+02;3; -6.3958893E+00;  0.0000000E+00; -6.9487795E-02;0; -1.2161206E-01;  1.0004702E+04;  0.0000000E+00; -7.6731532E-10;  1.0000000E+04;  0.0000000E+00;  9.9999189E+03; -1.2421954E-01;  0.0000000E+00;  2.6074778E-03;  5.4740364E+01;
  9.9976905E-02;  9.9999998E-03; -2.0000048E-02;1198; -1.4042552E-02;  0.0000000E+00; -4.0931503E-05;  1.0002307E+03;  4.0000001E-01;  1.9110568E+02;3; -6.3906832E+00;  0.0000000E+00; -3.4556974E-02;0; -1.2142917E-01;  1.0004686E+04;  0.0000000E+00; -2.0045046E-10;  1.0000000E+04;  0.0000000E+00;  9.9999277E+03; -1.2386248E-01;  0.0000000E+00;  2.4333161E-03;  5.0754589E+01;
  1.1997185E-01;  9.9999998E-03; -1.8000108E-01;1221; -1.6644605E-02;  0.0000000E+00; -6.2960858E-04;  1.0002627E+03;  4.0000001E-01;  2.1767282E+02;3; -7.1417465E+00;  0.0000000E+00; -3.1692913E-01;0; -1.3404772E-01;  1.0005460E+04;  0.0000000E+00; -5.9045630E-07;  1.0000000E+04;  0.0000000E+00;  9.9997949E+03; -1.3848455E-01;  0.0000000E+00;  4.4368398E-03;  1.1751954E+02;
  1.1997151E-01;  9.9999998E-03; -1.6000086E-01;1222; -1.6885437E-02;  0.0000000E+00; -5.2474783E-04;  1.0002646E+03;  4.0000001E-01;  2.1925302E+02;3; -7.2909093E+00;  0.0000000E+00; -2.8667283E-01;0; -1.3518719E-01;  1.0005490E+04;  0.0000000E+00; -6.2702206E-08;  1.0000000E+04;  0.0000000E+00;  9.9998018E+03; -1.3963649E-01;  0.0000000E+00;  4.4492949E-03;  1.1348528E+02;
  1.1997143E-01;  9.9999998E-03; -1.4000067E-01;1223; -1.6979111E-02;  0.0000000E+00; -4.2804235E-04;  1.0002649E+03;  4.0000001E-01;  2.1945055E+02;3; -7.3815150E+00;  0.0000000E+00; -2.5365156E-01;0; -1.3542117E-01;  1.0005482E+04;  0.0000000E+00;  3.3379742E-08;  1.0000000E+04;  0.0000000E+00;  9.9998184E+03; -1.3975377E-01;  0.0000000E+00;  4.3325964E-03;  1.0610783E+02;
  1.1997149E-01;  9.9999998E-03; -1.2000050E-01;1224; -1.6978571E-02;  0.0000000E+00; -3.3954595E-04;  1.0002643E+03;  4.0000001E-01;  2.1895674E+02;3; -7.4299483E+00;  0.0000000E+00; -2.1844870E-01;0; -1.3513270E-01;  1.0005448E+04;  0.0000000E+00;  1.6480151E-08;  1.0000000E+04;  0.0000000E+00;  9.9998379E+03; -1.3925822E-01;  0.0000000E+00;  4.1255248E-03;  9.7083710E+01;
  1.1997164E-01;  9.9999998E-03; -1.0000037E-01;1225; -1.6923361E-02;  0.0000000E+00; -2.6291239E-04;  1.0002628E+03;  4.0000001E-01;  2.1777159E+02;3; -7.4508009E+00;  0.0000000E+00; -1.8276228E-01;0; -1.3461243E-01;  1.0005400E+04;  0.0000000E+00; -1.2117030E-10;  1.0000000E+04;  0.0000000E+00;  9.9998555E+03; -1.3845171E-01;  0.0000000E+00;  3.8392812E-03;  8.7194710E+01;
  1.1997183E-01;  9.9999998E-03; -8.0000259E-02;1226; -1.6843777E-02;  0.0000000E+00; -1.9621415E-04;  1.0002615E+03;  4.0000001E-01;  2.1668520E+02;3; -7.4551902E+00;  0.0000000E+00; -1.4658752E-01;0; -1.3403367E-01;  1.0005354E+04;  0.0000000E+00; -4.1896451E-09;  1.0000000E+04;  0.0000000E+00;  9.9998760E+03; -1.3755463E-01;  0.0000000E+00;  3.5209700E-03;  7.7537186E+01;
  1.1997200E-01;  9.9999998E-03; -6.0000174E-02;1227; -1.6761620E-02;  0.0000000E+00; -1.3884512E-04;  1.0002603E+03;  4.0000001E-01;  2.1559880E+02;3; -7.4509654E+00;  0.0000000E+00; -1.1015324E-01;0; -1.3350134E-01;  1.0005313E+04;  0.0000000E+00; -3.1702341E-09;  1.0000000E+04;  0.0000000E+00;  9.9998975E+03; -1.3672213E-01;  0.0000000E+00;  3.2207896E-03;  6.9090828E+01;
  1.1997214E-01;  9.9999998E-03; -4.0000107E-02;1228; -1.6692532E-02;  0.0000000E+00; -8.8551249E-05;  1.0002593E+03;  4.0000001E-01;  2.1480870E+02;3; -7.4439816E+00;  0.0000000E+00; -7.3473066E-02;0; -1.3308109E-01;  1.0005280E+04;  0.0000000E+00; -1.5151669E-09;  1.0000000E+04;  0.0000000E+00;  9.9999082E+03; -1.3606019E-01;  0.0000000E+00;  2.9791009E-03;  6.2585346E+01;
  1.1997223E-01;  9.9999998E-03; -2.0000050E-02;1229; -1.6646998E-02;  0.0000000E+00; -4.3097258E-05;  1.0002587E+03;  4.0000001E-01;  2.1431490E+02;3; -7.4382138E+00;  0.0000000E+00; -3.6821023E-02;0; -1.3281363E-01;  1.0005262E+04;  0.0000000E+00; -6.1086020E-10;  1.0000000E+04;  0.0000000E+00;  9.9999160E+03; -1.3563725E-01;  0.0000000E+00;  2.8236189E-03;  5.8502617E+01;
  1.3996617E-01;  9.9999998E-03; -1.8000112E-01;1252; -1.9665156E-02;  0.0000000E+00; -6.2625454E-04;  1.0003015E+03;  4.0000001E-01;  2.4977068E+02;3; -8.2727671E+00;  0.0000000E+00; -3.1008255E-01;0; -1.4987886E-01;  1.0006251E+04;  0.0000000E+00; -1.6592348E-05;  1.0000000E+04;  0.0000000E+00;  9.9997793E+03; -1.5426822E-01;  0.0000000E+00;  4.3893652E-03;  1.2827713E+02;
  1.3996588E-01;  9.9999998E-03; -1.6000091E-01;1253; -1.9898957E-02;  0.0000000E+00; -5.3627742E-04;  1.0003022E+03;  4.0000001E-01;  2.5036325E+02;3; -8.4301348E+00;  0.0000000E+00; -2.9043469E-01;0; -1.5048048E-01;  1.0006259E+04;  0.0000000E+00; -1.4078381E-07;  1.0000000E+04;  0.0000000E+00;  9.9997861E+03; -1.5495472E-01;  0.0000000E+00;  4.4742301E-03;  1.2400719E+02;
  1.3996585E-01;  9.9999998E-03; -1.4000072E-01;1254; -1.9972391E-02;  0.0000000E+00; -4.4841916E-04;  1.0003013E+03;  4.0000001E-01;  2.4967192E+02;3; -8.5251131E+00;  0.0000000E+00; -2.6398179E-01;0; -1.5018998E-01;  1.0006227E+04;  0.0000000E+00;  3.5099561E-08;  1.0000000E+04;  0.0000000E+00;  9.9998027E+03; -1.5468134E-01;  0.0000000E+00;  4.4913646E-03;  1.1714594E+02;
  1.3996598E-01;  9.9999998E-03; -1.2000055E-01;1255; -1.9945344E-02;  0.0000000E+00; -3.6432547E-04;  1.0002997E+03;  4.0000001E-01;  2.4828923E+02;3; -8.5752048E+00;  0.0000000E+00; -2.3238391E-01;0; -1.4943184E-01;  1.0006176E+04;  0.0000000E+00;  2.2895005E-08;  1.0000000E+04;  0.0000000E+00;  9.9998174E+03; -1.5386164E-01;  0.0000000E+00;  4.4298009E-03;  1.0878784E+02;
  1.3996619E-01;  9.9999998E-03; -1.0000041E-01;1256; -1.9862298E-02;  0.0000000E+00; -2.8776404E-04;  1.0002975E+03;  4.0000001E-01;  2.4651151E+02;3; -8.5962696E+00;  0.0000000E+00; -1.9755988E-01;0; -1.4852202E-01;  1.0006115E+04;  0.0000000E+00;  1.3376568E-09;  1.0000000E+04;  0.0000000E+00;  9.9998359E+03; -1.5279022E-01;  0.0000000E+00;  4.2682006E-03;  9.9320427E+01;
  1.3996644E-01;  9.9999998E-03; -8.0000289E-02;1257; -1.9756623E-02;  0.0000000E+00; -2.1908105E-04;  1.0002956E+03;  4.0000001E-01;  2.4493130E+02;3; -8.6001081E+00;  0.0000000E+00; -1.6050281E-01;0; -1.4763798E-01;  1.0006056E+04;  0.0000000E+00; -5.1768025E-09;  1.0000000E+04;  0.0000000E+00;  9.9998545E+03; -1.5168168E-01;  0.0000000E+00;  4.0437002E-03;  8.9784416E+01;
  1.3996667E-01;  9.9999998E-03; -6.0000200E-02;1258; -1.9652300E-02;  0.0000000E+00; -1.5763065E-04;  1.0002939E+03;  4.0000001E-01;  2.4354863E+02;3; -8.5950928E+00;  0.0000000E+00; -1.2190683E-01;0; -1.4687911E-01;  1.0006004E+04;  0.0000000E+00; -3.6073673E-09;  1.0000000E+04;  0.0000000E+00;  9.9998740E+03; -1.5068725E-01;  0.0000000E+00;  3.8081396E-03;  8.1252899E+01;
  1.3996685E-01;  9.9999998E-03; -4.0000122E-02;1259; -1.9566361E-02;  0.0000000E+00; -1.0187425E-04;  1.0002925E+03;  4.0000001E-01;  2.4236348E+02;3; -8.5873289E+00;  0.0000000E+00; -8.1966288E-02;0; -1.4630353E-01;  1.0005963E+04;  0.0000000E+00; -2.0393855E-09;  1.0000000E+04;  0.0000000E+00;  9.9998877E+03; -1.4991088E-01;  0.0000000E+00;  3.6073492E-03;  7.4581436E+01;
  1.3996696E-01;  9.9999998E-03; -2.0000059E-02;1260; -1.9510316E-02;  0.0000000E+00; -4.9985447E-05;  1.0002919E+03;  4.0000001E-01;  2.4177090E+02;3; -8.5809526E+00;  0.0000000E+00; -4.1239411E-02;0; -1.4594528E-01;  1.0005939E+04;  0.0000000E+00; -3.8304412E-10;  1.0000000E+04;  0.0000000E+00;  9.9998945E+03; -1.4941946E-01;  0.0000000E+00;  3.4741771E-03;  7.0356003E+01;
  1.5995966E-01;  9.9999998E-03; -1.8000126E-01;1283; -2.3042077E-02;  0.0000000E+00; -6.8486080E-04;  1.0003453E+03;  4.0000001E-01;  2.8611533E+02;3; -9.4988012E+00;  0.0000000E+00; -3.3107775E-01;0; -1.6742139E-01;  1.0007162E+04;  0.0000000E+00; -1.3864336E-04;  1.0000000E+04;  0.0000000E+00;  9.9997480E+03; -1.7211908E-01;  0.0000000E+00;  4.6976982E-03;  1.4765816E+02;
  1.5995941E-01;  9.9999998E-03; -1.6000105E-01;1284; -2.3258245E-02;  0.0000000E+00; -6.0782291E-04;  1.0003452E+03;  4.0000001E-01;  2.8601657E+02;3; -9.6627932E+00;  0.0000000E+00; -3.2133713E-01;0; -1.6739161E-01;  1.0007145E+04;  0.0000000E+00; -1.9655509E-07;  1.0000000E+04;  0.0000000E+00;  9.9997568E+03; -1.7222911E-01;  0.0000000E+00;  4.8374925E-03;  1.4213657E+02;
  1.5995947E-01;  9.9999998E-03; -1.4000085E-01;1285; -2.3303017E-02;  0.0000000E+00; -5.2473455E-04;  1.0003432E+03;  4.0000001E-01;  2.8433759E+02;3; -9.7615604E+00;  0.0000000E+00; -3.0005142E-01;0; -1.6653517E-01;  1.0007093E+04;  0.0000000E+00;  5.6456777E-08;  1.0000000E+04;  0.0000000E+00;  9.9997705E+03; -1.7153491E-01;  0.0000000E+00;  4.9997470E-03;  1.3542366E+02;
  1.5995967E-01;  9.9999998E-03; -1.2000067E-01;1286; -2.3242556E-02;  0.0000000E+00; -4.3856897E-04;  1.0003403E+03;  4.0000001E-01;  2.8196729E+02;3; -9.8132000E+00;  0.0000000E+00; -2.6920709E-01;0; -1.6528206E-01;  1.0007021E+04;  0.0000000E+00;  3.7268375E-08;  1.0000000E+04;  0.0000000E+00;  9.9997852E+03; -1.7038514E-01;  0.0000000E+00;  5.1030819E-03;  1.2757248E+02;
  1.5995999E-01;  9.9999998E-03; -1.0000051E-01;1287; -2.3125917E-02;  0.0000000E+00; -3.5449103E-04;  1.0003375E+03;  4.0000001E-01;  2.7959698E+02;3; -9.8345327E+00;  0.0000000E+00; -2.3197456E-01;0; -1.6396856E-01;  1.0006944E+04;  0.0000000E+00;  5.0620166E-09;  1.0000000E+04;  0.0000000E+00;  9.9998057E+03; -1.6905111E-01;  0.0000000E+00;  5.0825528E-03;  1.1836201E+02;
  1.5996030E-01;  9.9999998E-03; -8.0000371E-02;1288; -2.2989500E-02;  0.0000000E+00; -2.7520064E-04;  1.0003348E+03;  4.0000001E-01;  2.7732544E+02;3; -9.8379374E+00;  0.0000000E+00; -1.9016075E-01;0; -1.6277334E-01;  1.0006871E+04;  0.0000000E+00; -4.8864974E-09;  1.0000000E+04;  0.0000000E+00;  9.9998223E+03; -1.6773513E-01;  0.0000000E+00;  4.9617919E-03;  1.0872626E+02;
  1.5996060E-01;  9.9999998E-03; -6.0000259E-02;1289; -2.2859383E-02;  0.0000000E+00; -2.0129107E-04;  1.0003323E+03;  4.0000001E-01;  2.7535019E+02;3; -9.8322420E+00;  0.0000000E+00; -1.4542960E-01;0; -1.6178650E-01;  1.0006811E+04;  0.0000000E+00; -4.3845261E-09;  1.0000000E+04;  0.0000000E+00;  9.9998389E+03; -1.6658165E-01;  0.0000000E+00;  4.7951546E-03;  9.9864403E+01;
  1.5996082E-01;  9.9999998E-03; -4.0000163E-02;1290; -2.2754030E-02;  0.0000000E+00; -1.3168099E-04;  1.0003307E+03;  4.0000001E-01;  2.7406628E+02;3; -9.8237143E+00;  0.0000000E+00; -9.8218672E-02;0; -1.6105554E-01;  1.0006760E+04;  0.0000000E+00; -2.5558600E-09;  1.0000000E+04;  0.0000000E+00;  9.9998555E+03; -1.6569175E-01;  0.0000000E+00;  4.6362095E-03;  9.2808189E+01;
  1.5996097E-01;  9.9999998E-03; -2.0000080E-02;1291; -2.2685943E-02;  0.0000000E+00; -6.5103981E-05;  1.0003298E+03;  4.0000001E-01;  2.7327618E+02;3; -9.8168106E+00;  0.0000000E+00; -4.9535893E-02;0; -1.6060728E-01;  1.0006732E+04;  0.0000000E+00; -4.2862977E-10;  1.0000000E+04;  0.0000000E+00;  9.9998623E+03; -1.6513224E-01;  0.0000000E+00;  4.5249546E-03;  8.8290695E+01;
  1.7995219E-01;  9.9999998E-03; -1.8000157E-01;1314; -2.6804486E-02;  0.0000000E+00; -8.5564400E-04;  1.0003950E+03;  4.0000001E-01;  3.2729935E+02;3; -1.0814583E+01;  0.0000000E+00; -4.0236190E-01;0; -1.8636246E-01;  1.0008219E+04;  0.0000000E+00; -4.1304104E-04;  1.0000000E+04;  0.0000000E+00;  9.9996816E+03; -1.9208770E-01;  0.0000000E+00;  5.7252329E-03;  1.8292378E+02;
  1.7995203E-01;  9.9999998E-03; -1.6000135E-01;1315; -2.6993614E-02;  0.0000000E+00; -7.7927124E-04;  1.0003933E+03;  4.0000001E-01;  3.2581790E+02;3; -1.0985158E+01;  0.0000000E+00; -3.9653191E-01;0; -1.8566872E-01;  1.0008164E+04;  0.0000000E+00; -1.5117315E-06;  1.0000000E+04;  0.0000000E+00;  9.9996992E+03; -1.9150513E-01;  0.0000000E+00;  5.8364104E-03;  1.7354613E+02;
  1.7995217E-01;  9.9999998E-03; -1.4000112E-01;1316; -2.7002661E-02;  0.0000000E+00; -6.8874628E-04;  1.0003900E+03;  4.0000001E-01;  3.2315131E+02;3; -1.1088151E+01;  0.0000000E+00; -3.7579522E-01;0; -1.8426773E-01;  1.0008085E+04;  0.0000000E+00;  9.2294805E-08;  1.0000000E+04;  0.0000000E+00;  9.9997168E+03; -1.9036558E-01;  0.0000000E+00;  6.0978481E-03;  1.6535414E+02;
  1.7995250E-01;  9.9999998E-03; -1.2000090E-01;1317; -2.6902996E-02;  0.0000000E+00; -5.8735104E-04;  1.0003860E+03;  4.0000001E-01;  3.1979337E+02;3; -1.1142276E+01;  0.0000000E+00; -3.4036630E-01;0; -1.8254015E-01;  1.0007991E+04;  0.0000000E+00;  6.0623265E-08;  1.0000000E+04;  0.0000000E+00;  9.9997275E+03; -1.8888748E-01;  0.0000000E+00;  6.3473224E-03;  1.5701329E+02;
  1.7995290E-01;  9.9999998E-03; -1.0000070E-01;1318; -2.6747635E-02;  0.0000000E+00; -4.8296346E-04;  1.0003823E+03;  4.0000001E-01;  3.1673172E+02;3; -1.1164681E+01;  0.0000000E+00; -2.9507539E-01;0; -1.8084385E-01;  1.0007896E+04;  0.0000000E+00;  1.2558264E-08;  1.0000000E+04;  0.0000000E+00;  9.9997480E+03; -1.8730363E-01;  0.0000000E+00;  6.4597917E-03;  1.4732907E+02;
  1.7995332E-01;  9.9999998E-03; -8.0000527E-02;1319; -2.6576078E-02;  0.0000000E+00; -3.7995027E-04;  1.0003788E+03;  4.0000001E-01;  3.1376886E+02;3; -1.1168307E+01;  0.0000000E+00; -2.4253736E-01;0; -1.7935637E-01;  1.0007810E+04;  0.0000000E+00; -2.4274720E-09;  1.0000000E+04;  0.0000000E+00;  9.9997656E+03; -1.8579306E-01;  0.0000000E+00;  6.4366935E-03;  1.3697351E+02;
  1.7995368E-01;  9.9999998E-03; -6.0000371E-02;1320; -2.6416576E-02;  0.0000000E+00; -2.8077324E-04;  1.0003761E+03;  4.0000001E-01;  3.1159607E+02;3; -1.1162254E+01;  0.0000000E+00; -1.8533958E-01;0; -1.7815785E-01;  1.0007735E+04;  0.0000000E+00; -3.4461256E-09;  1.0000000E+04;  0.0000000E+00;  9.9997881E+03; -1.8449064E-01;  0.0000000E+00;  6.3327872E-03;  1.2725060E+02;
  1.7995396E-01;  9.9999998E-03; -4.0000238E-02;1321; -2.6289174E-02;  0.0000000E+00; -1.8518053E-04;  1.0003740E+03;  4.0000001E-01;  3.0981836E+02;3; -1.1153255E+01;  0.0000000E+00; -1.2522925E-01;0; -1.7728390E-01;  1.0007678E+04;  0.0000000E+00; -1.3603335E-09;  1.0000000E+04;  0.0000000E+00;  9.9998027E+03; -1.8349384E-01;  0.0000000E+00;  6.2099327E-03;  1.1939551E+02;
  1.7995414E-01;  9.9999998E-03; -2.0000115E-02;1322; -2.6207443E-02;  0.0000000E+00; -9.1991729E-05;  1.0003729E+03;  4.0000001E-01;  3.0892947E+02;3; -1.1145960E+01;  0.0000000E+00; -6.3028350E-02;0; -1.7675318E-01;  1.0007643E+04;  0.0000000E+00; -1.4265991E-10;  1.0000000E+04;  0.0000000E+00;  9.9998125E+03; -1.8286966E-01;  0.0000000E+00;  6.1164857E-03;  1.1432156E+02;
  1.9994365E-01;  9.9999998E-03; -1.8000215E-01;1345; -3.0978903E-02;  0.0000000E+00; -1.1806337E-03;  1.0004496E+03;  4.0000001E-01;  3.7253262E+02;3; -1.2217259E+01;  0.0000000E+00; -5.3897899E-01;0; -2.0635319E-01;  1.0009430E+04;  0.0000000E+00; -7.2087033E-04;  1.0000000E+04;  0.0000000E+00;  9.9995654E+03; -2.1422896E-01;  0.0000000E+00;  7.8757778E-03;  2.4245082E+02;
  1.9994359E-01;  9.9999998E-03; -1.6000187E-01;1346; -3.1132603E-02;  0.0000000E+00; -1.0888873E-03;  1.0004467E+03;  4.0000001E-01;  3.7006354E+02;3; -1.2393763E+01;  0.0000000E+00; -5.3215617E-01;0; -2.0509757E-01;  1.0009335E+04;  0.0000000E+00; -5.9773042E-06;  1.0000000E+04;  0.0000000E+00;  9.9996006E+03; -2.1290213E-01;  0.0000000E+00;  7.8045554E-03;  2.2491417E+02;
  1.9994387E-01;  9.9999998E-03; -1.4000158E-01;1347; -3.1100579E-02;  0.0000000E+00; -9.7154215E-04;  1.0004423E+03;  4.0000001E-01;  3.6640933E+02;3; -1.2502793E+01;  0.0000000E+00; -5.0439894E-01;0; -2.0325792E-01;  1.0009224E+04;  0.0000000E+00;  1.4410347E-07;  1.0000000E+04;  0.0000000E+00;  9.9996250E+03; -2.1130528E-01;  0.0000000E+00;  8.0473553E-03;  2.1200757E+02;
  1.9994432E-01;  9.9999998E-03; -1.2000129E-01;1348; -3.0957524E-02;  0.0000000E+00; -8.3520915E-04;  1.0004376E+03;  4.0000001E-01;  3.6255759E+02;3; -1.2561640E+01;  0.0000000E+00; -4.5589969E-01;0; -2.0114128E-01;  1.0009106E+04;  0.0000000E+00;  8.6304638E-08;  1.0000000E+04;  0.0000000E+00;  9.9996445E+03; -2.0951129E-01;  0.0000000E+00;  8.3700139E-03;  2.0099739E+02;
  1.9994485E-01;  9.9999998E-03; -1.0000101E-01;1349; -3.0759463E-02;  0.0000000E+00; -6.9122034E-04;  1.0004327E+03;  4.0000001E-01;  3.5850833E+02;3; -1.2587041E+01;  0.0000000E+00; -3.9333147E-01;0; -1.9912572E-01;  1.0008990E+04;  0.0000000E+00;  2.2758503E-08;  1.0000000E+04;  0.0000000E+00;  9.9996670E+03; -2.0769760E-01;  0.0000000E+00;  8.5718734E-03;  1.8930475E+02;
  1.9994538E-01;  9.9999998E-03; -8.0000773E-02;1350; -3.0548880E-02;  0.0000000E+00; -5.4733257E-04;  1.0004287E+03;  4.0000001E-01;  3.5515039E+02;3; -1.2592131E+01;  0.0000000E+00; -3.2234019E-01;0; -1.9739455E-01;  1.0008890E+04;  0.0000000E+00;  1.4451292E-09;  1.0000000E+04;  0.0000000E+00;  9.9996895E+03; -2.0601334E-01;  0.0000000E+00;  8.6187907E-03;  1.7707623E+02;
  1.9994582E-01;  9.9999998E-03; -6.0000550E-02;1351; -3.0356627E-02;  0.0000000E+00; -4.0669827E-04;  1.0004255E+03;  4.0000001E-01;  3.5258258E+02;3; -1.2586623E+01;  0.0000000E+00; -2.4599227E-01;0; -1.9601993E-01;  1.0008800E+04;  0.0000000E+00; -1.2723903E-09;  1.0000000E+04;  0.0000000E+00;  9.9997119E+03; -2.0457901E-01;  0.0000000E+00;  8.5590733E-03;  1.6561157E+02;
  1.9994618E-01;  9.9999998E-03; -4.0000357E-02;1352; -3.0204615E-02;  0.0000000E+00; -2.6940412E-04;  1.0004232E+03;  4.0000001E-01;  3.5060733E+02;3; -1.2577419E+01;  0.0000000E+00; -1.6697671E-01;0; -1.9502765E-01;  1.0008732E+04;  0.0000000E+00; -1.0637532E-09;  1.0000000E+04;  0.0000000E+00;  9.9997305E+03; -2.0348753E-01;  0.0000000E+00;  8.4598828E-03;  1.5632208E+02;
  1.9994639E-01;  9.9999998E-03; -2.0000175E-02;1353; -3.0107671E-02;  0.0000000E+00; -1.3412307E-04;  1.0004218E+03;  4.0000001E-01;  3.4942215E+02;3; -1.2569941E+01;  0.0000000E+00; -8.4294438E-02;0; -1.9442891E-01;  1.0008691E+04;  0.0000000E+00; -2.5146432E-10;  1.0000000E+04;  0.0000000E+00;  9.9997441E+03; -2.0280589E-01;  0.0000000E+00;  8.3769821E-03;  1.5030415E+02;
  2.1993390E-01;  9.9999998E-03; -1.8000305E-01;1376; -3.5597589E-02;  0.0000000E+00; -1.6907129E-03;  1.0005091E+03;  4.0000001E-01;  4.2181516E+02;3; -1.3703835E+01;  0.0000000E+00; -7.4928761E-01;0; -2.2703245E-01;  1.0010801E+04;  0.0000000E+00; -8.2229025E-04;  1.0000000E+04;  0.0000000E+00;  9.9993857E+03; -2.3850819E-01;  0.0000000E+00;  1.1475736E-02;  3.3357050E+02;
  2.1993397E-01;  9.9999998E-03; -1.6000265E-01;1377; -3.5711147E-02;  0.0000000E+00; -1.5602158E-03;  1.0005053E+03;  4.0000001E-01;  4.1865475E+02;3; -1.3887832E+01;  0.0000000E+00; -7.3908097E-01;0; -2.2546491E-01;  1.0010665E+04;  0.0000000E+00; -6.7747660E-06;  1.0000000E+04;  0.0000000E+00;  9.9994434E+03; -2.3648714E-01;  0.0000000E+00;  1.1022232E-02;  3.0237671E+02;
  2.1993440E-01;  9.9999998E-03; -1.4000225E-01;1378; -3.5634585E-02;  0.0000000E+00; -1.3939345E-03;  1.0005002E+03;  4.0000001E-01;  4.1440796E+02;3; -1.4006878E+01;  0.0000000E+00; -6.9268274E-01;0; -2.2337386E-01;  1.0010521E+04;  0.0000000E+00;  1.6616247E-07;  1.0000000E+04;  0.0000000E+00;  9.9994912E+03; -2.3444992E-01;  0.0000000E+00;  1.1076056E-02;  2.8021121E+02;
  2.1993500E-01;  9.9999998E-03; -1.2000185E-01;1379; -3.5445500E-02;  0.0000000E+00; -1.2000286E-03;  1.0004945E+03;  4.0000001E-01;  4.0966736E+02;3; -1.4074249E+01;  0.0000000E+00; -6.1994994E-01;0; -2.2101651E-01;  1.0010373E+04;  0.0000000E+00;  9.7910508E-08;  1.0000000E+04;  0.0000000E+00;  9.9995195E+03; -2.3236634E-01;  0.0000000E+00;  1.1349827E-02;  2.6318539E+02;
  2.1993567E-01;  9.9999998E-03; -1.0000147E-01;1380; -3.5201576E-02;  0.0000000E+00; -9.9552900E-04;  1.0004891E+03;  4.0000001E-01;  4.0522305E+02;3; -1.4104674E+01;  0.0000000E+00; -5.3539759E-01;0; -2.1879035E-01;  1.0010235E+04;  0.0000000E+00;  2.9167007E-08;  1.0000000E+04;  0.0000000E+00;  9.9995518E+03; -2.3035216E-01;  0.0000000E+00;  1.1561816E-02;  2.4708301E+02;
  2.1993631E-01;  9.9999998E-03; -8.0001123E-02;1381; -3.4948900E-02;  0.0000000E+00; -7.8961736E-04;  1.0004844E+03;  4.0000001E-01;  4.0137131E+02;3; -1.4113230E+01;  0.0000000E+00; -4.3726397E-01;0; -2.1689235E-01;  1.0010112E+04;  0.0000000E+00;  4.7319566E-09;  1.0000000E+04;  0.0000000E+00;  9.9995840E+03; -2.2852176E-01;  0.0000000E+00;  1.1629422E-02;  2.3124309E+02;
  2.1993688E-01;  9.9999998E-03; -6.0000811E-02;1382; -3.4721084E-02;  0.0000000E+00; -5.8753672E-04;  1.0004810E+03;  4.0000001E-01;  3.9850720E+02;3; -1.4109554E+01;  0.0000000E+00; -3.3294985E-01;0; -2.1539508E-01;  1.0010013E+04;  0.0000000E+00; -1.1413855E-10;  1.0000000E+04;  0.0000000E+00;  9.9996123E+03; -2.2697884E-01;  0.0000000E+00;  1.1583763E-02;  2.1678159E+02;
  2.1993729E-01;  9.9999998E-03; -4.0000524E-02;1383; -3.4542222E-02;  0.0000000E+00; -3.8918489E-04;  1.0004783E+03;  4.0000001E-01;  3.9623566E+02;3; -1.4101398E+01;  0.0000000E+00; -2.2413355E-01;0; -2.1431985E-01;  1.0009935E+04;  0.0000000E+00; -1.3671049E-09;  1.0000000E+04;  0.0000000E+00;  9.9996328E+03; -2.2581032E-01;  0.0000000E+00;  1.1490463E-02;  2.0519594E+02;
  2.1993756E-01;  9.9999998E-03; -2.0000257E-02;1384; -3.4428623E-02;  0.0000000E+00; -1.9388260E-04;  1.0004767E+03;  4.0000001E-01;  3.9495172E+02;3; -1.4094241E+01;  0.0000000E+00; -1.1269487E-01;0; -2.1367338E-01;  1.0009890E+04;  0.0000000E+00;  5.2585780E-10;  1.0000000E+04;  0.0000000E+00;  9.9996494E+03; -2.2508217E-01;  0.0000000E+00;  1.1408796E-02;  1.9772594E+02;
  2.3992278E-01;  9.9999998E-03; -1.8000428E-01;1407; -4.0703423E-02;  0.0000000E+00; -2.4019682E-03;  1.0005736E+03;  4.0000001E-01;  4.7524576E+02;3; -1.5273406E+01;  0.0000000E+00; -1.0446323E+00;0; -2.4823427E-01;  1.0012349E+04;  0.0000000E+00; -6.0693885E-04;  1.0000000E+04;  0.0000000E+00;  9.9991221E+03; -2.6486421E-01;  0.0000000E+00;  1.6629932E-02;  4.5998807E+02;
  2.3992303E-01;  9.9999998E-03; -1.6000375E-01;1408; -4.0771835E-02;  0.0000000E+00; -2.2090869E-03;  1.0005696E+03;  4.0000001E-01;  4.7188782E+02;3; -1.5470604E+01;  0.0000000E+00; -1.0116907E+00;0; -2.4667667E-01;  1.0012168E+04;  0.0000000E+00; -1.9067592E-06;  1.0000000E+04;  0.0000000E+00;  9.9992295E+03; -2.6228946E-01;  0.0000000E+00;  1.5612796E-02;  4.0968710E+02;
  2.3992363E-01;  9.9999998E-03; -1.4000317E-01;1409; -4.0649932E-02;  0.0000000E+00; -1.9653398E-03;  1.0005641E+03;  4.0000001E-01;  4.6734473E+02;3; -1.5604401E+01;  0.0000000E+00; -9.4089520E-01;0; -2.4456647E-01;  1.0011987E+04;  0.0000000E+00;  1.3139626E-07;  1.0000000E+04;  0.0000000E+00;  9.9993027E+03; -2.5987321E-01;  0.0000000E+00;  1.5306742E-02;  3.7334558E+02;
  2.3992440E-01;  9.9999998E-03; -1.2000261E-01;1410; -4.0413152E-02;  0.0000000E+00; -1.6879826E-03;  1.0005580E+03;  4.0000001E-01;  4.6230783E+02;3; -1.5683372E+01;  0.0000000E+00; -8.3894920E-01;0; -2.4215671E-01;  1.0011810E+04;  0.0000000E+00;  8.0620168E-08;  1.0000000E+04;  0.0000000E+00;  9.9993545E+03; -2.5754866E-01;  0.0000000E+00;  1.5391940E-02;  3.4628946E+02;
  2.3992522E-01;  9.9999998E-03; -1.0000209E-01;1411; -4.0121429E-02;  0.0000000E+00; -1.4000596E-03;  1.0005521E+03;  4.0000001E-01;  4.5746848E+02;3; -1.5723645E+01;  0.0000000E+00; -7.1548313E-01;0; -2.3986015E-01;  1.0011648E+04;  0.0000000E+00;  2.6241576E-08;  1.0000000E+04;  0.0000000E+00;  9.9993994E+03; -2.5537607E-01;  0.0000000E+00;  1.5515922E-02;  3.2273376E+02;
  2.3992601E-01;  9.9999998E-03; -8.0001600E-02;1412; -3.9824188E-02;  0.0000000E+00; -1.1122526E-03;  1.0005473E+03;  4.0000001E-01;  4.5341922E+02;3; -1.5737993E+01;  0.0000000E+00; -5.8233553E-01;0; -2.3789367E-01;  1.0011506E+04;  0.0000000E+00;  5.8058567E-09;  1.0000000E+04;  0.0000000E+00;  9.9994424E+03; -2.5343582E-01;  0.0000000E+00;  1.5542146E-02;  3.0105804E+02;
  2.3992668E-01;  9.9999998E-03; -6.0001157E-02;1413; -3.9558459E-02;  0.0000000E+00; -8.2856353E-04;  1.0005433E+03;  4.0000001E-01;  4.5016003E+02;3; -1.5737914E+01;  0.0000000E+00; -4.4216469E-01;0; -2.3634113E-01;  1.0011389E+04;  0.0000000E+00;  1.2260335E-09;  1.0000000E+04;  0.0000000E+00;  9.9994795E+03; -2.5181517E-01;  0.0000000E+00;  1.5474035E-02;  2.8202026E+02;
  2.3992719E-01;  9.9999998E-03; -4.0000752E-02;1414; -3.9350756E-02;  0.0000000E+00; -5.4928486E-04;  1.0005405E+03;  4.0000001E-01;  4.4778973E+02;3; -1.5731678E+01;  0.0000000E+00; -2.9697517E-01;0; -2.3522700E-01;  1.0011306E+04;  0.0000000E+00;  1.3896592E-09;  1.0000000E+04;  0.0000000E+00;  9.9995098E+03; -2.5059372E-01;  0.0000000E+00;  1.5366714E-02;  2.6708032E+02;
  2.3992752E-01;  9.9999998E-03; -2.0000368E-02;1415; -3.9219145E-02;  0.0000000E+00; -2.7408340E-04;  1.0005387E+03;  4.0000001E-01;  4.4630829E+02;3; -1.5724655E+01;  0.0000000E+00; -1.5113366E-01;0; -2.3455758E-01;  1.0011247E+04;  0.0000000E+00;  4.2886691E-10;  1.0000000E+04;  0.0000000E+00;  9.9995273E+03; -2.4983430E-01;  0.0000000E+00;  1.5276711E-02;  2.5754749E+02;
  2.5991008E-01;  9.9999998E-03; -1.8000597E-01;1438; -4.6346489E-02;  0.0000000E+00; -3.3666866E-03;  1.0006440E+03;  4.0000001E-01;  5.3351563E+02;3; -1.6929842E+01;  0.0000000E+00; -1.4464194E+00;0; -2.7010262E-01;  1.0014081E+04;  0.0000000E+00; -2.5374553E-04;  1.0000000E+04;  0.0000000E+00;  9.9987998E+03; -2.9323703E-01;  0.0000000E+00;  2.3134395E-02;  6.2012805E+02;
  2.5991055E-01;  9.9999998E-03; -1.6000515E-01;1439; -4.6367142E-02;  0.0000000E+00; -3.0408858E-03;  1.0006401E+03;  4.0000001E-01;  5.3035522E+02;3; -1.7144575E+01;  0.0000000E+00; -1.3647426E+00;0; -2.6883125E-01;  1.0013858E+04;  0.0000000E+00;  1.8742578E-07;  1.0000000E+04;  0.0000000E+00;  9.9989502E+03; -2.9030856E-01;  0.0000000E+00;  2.1477303E-02;  5.4699451E+02;
  2.5991133E-01;  9.9999998E-03; -1.4000435E-01;1440; -4.6197399E-02;  0.0000000E+00; -2.6846554E-03;  1.0006348E+03;  4.0000001E-01;  5.2591095E+02;3; -1.7299889E+01;  0.0000000E+00; -1.2429805E+00;0; -2.6692390E-01;  1.0013642E+04;  0.0000000E+00;  5.3859999E-08;  1.0000000E+04;  0.0000000E+00;  9.9990605E+03; -2.8762943E-01;  0.0000000E+00;  2.0705514E-02;  4.9240082E+02;
  2.5991231E-01;  9.9999998E-03; -1.2000358E-01;1441; -4.5909699E-02;  0.0000000E+00; -2.3068648E-03;  1.0006287E+03;  4.0000001E-01;  5.2087402E+02;3; -1.7393766E+01;  0.0000000E+00; -1.1123520E+00;0; -2.6465157E-01;  1.0013436E+04;  0.0000000E+00;  2.5201023E-08;  1.0000000E+04;  0.0000000E+00;  9.9991436E+03; -2.8514397E-01;  0.0000000E+00;  2.0492399E-02;  4.5145062E+02;
  2.5991333E-01;  9.9999998E-03; -1.0000286E-01;1442; -4.5569547E-02;  0.0000000E+00; -1.9114851E-03;  1.0006225E+03;  4.0000001E-01;  5.1573840E+02;3; -1.7448801E+01;  0.0000000E+00; -9.4283050E-01;0; -2.6243106E-01;  1.0013249E+04;  0.0000000E+00;  6.8555055E-09;  1.0000000E+04;  0.0000000E+00;  9.9992090E+03; -2.8287235E-01;  0.0000000E+00;  2.0441290E-02;  4.1722815E+02;
  2.5991428E-01;  9.9999998E-03; -8.0002196E-02;1443; -4.5226626E-02;  0.0000000E+00; -1.5193485E-03;  1.0006173E+03;  4.0000001E-01;  5.1139282E+02;3; -1.7473066E+01;  0.0000000E+00; -7.6736832E-01;0; -2.6050270E-01;  1.0013084E+04;  0.0000000E+00;  2.8284082E-09;  1.0000000E+04;  0.0000000E+00;  9.9992666E+03; -2.8087094E-01;  0.0000000E+00;  2.0368254E-02;  3.8725510E+02;
  2.5991508E-01;  9.9999998E-03; -6.0001589E-02;1444; -4.4921625E-02;  0.0000000E+00; -1.1311941E-03;  1.0006132E+03;  4.0000001E-01;  5.0803491E+02;3; -1.7478750E+01;  0.0000000E+00; -5.8170545E-01;0; -2.5896892E-01;  1.0012954E+04;  0.0000000E+00;  1.2647005E-09;  1.0000000E+04;  0.0000000E+00;  9.9993184E+03; -2.7921301E-01;  0.0000000E+00;  2.0244088E-02;  3.6186658E+02;
  2.5991568E-01;  9.9999998E-03; -4.0001031E-02;1445; -4.4684358E-02;  0.0000000E+00; -7.4998284E-04;  1.0006103E+03;  4.0000001E-01;  5.0556583E+02;3; -1.7476376E+01;  0.0000000E+00; -3.9016965E-01;0; -2.5786442E-01;  1.0012854E+04;  0.0000000E+00;  2.5032725E-09;  1.0000000E+04;  0.0000000E+00;  9.9993555E+03; -2.7796996E-01;  0.0000000E+00;  2.0105530E-02;  3.4238516E+02;
  2.5991607E-01;  9.9999998E-03; -2.0000508E-02;1446; -4.4534463E-02;  0.0000000E+00; -3.7377659E-04;  1.0006085E+03;  4.0000001E-01;  5.0408438E+02;3; -1.7472336E+01;  0.0000000E+00; -1.9595414E-01;0; -2.5720021E-01;  1.0012793E+04;  0.0000000E+00;  6.9669820E-10;  1.0000000E+04;  0.0000000E+00;  9.9993809E+03; -2.7719992E-01;  0.0000000E+00;  1.9999702E-02;  3.3010867E+02;
  2.7989563E-01;  9.9999998E-03; -1.8000807E-01;1469; -5.2583486E-02;  0.0000000E+00; -4.5579355E-03;  1.0007213E+03;  4.0000001E-01;  5.9761261E+02;3; -1.8678530E+01;  0.0000000E+00; -1.9281496E+00;0; -2.9304743E-01;  1.0016019E+04;  0.0000000E+00; -3.2601944E-05;  1.0000000E+04;  0.0000000E+00;  9.9984170E+03; -3.2356909E-01;  0.0000000E+00;  3.0521652E-02;  8.0777954E+02;
  2.7989632E-01;  9.9999998E-03; -1.6000688E-01;1470; -5.2550137E-02;  0.0000000E+00; -4.0594647E-03;  1.0007184E+03;  4.0000001E-01;  5.9524231E+02;3; -1.8915537E+01;  0.0000000E+00; -1.7784183E+00;0; -2.9221776E-01;  1.0015755E+04;  0.0000000E+00;  1.4570604E-07;  1.0000000E+04;  0.0000000E+00;  9.9986172E+03; -3.2052881E-01;  0.0000000E+00;  2.8311035E-02;  7.1098981E+02;
  2.7989736E-01;  9.9999998E-03; -1.4000578E-01;1471; -5.2328542E-02;  0.0000000E+00; -3.5554194E-03;  1.0007133E+03;  4.0000001E-01;  5.9089673E+02;3; -1.9095474E+01;  0.0000000E+00; -1.6054957E+00;0; -2.9067785E-01;  1.0015501E+04;  0.0000000E+00; -3.9856090E-08;  1.0000000E+04;  0.0000000E+00;  9.9987705E+03; -3.1775868E-01;  0.0000000E+00;  2.7080832E-02;  6.3583435E+02;
  2.7989858E-01;  9.9999998E-03; -1.2000474E-01;1472; -5.1989093E-02;  0.0000000E+00; -3.0449287E-03;  1.0007070E+03;  4.0000001E-01;  5.8576111E+02;3; -1.9214533E+01;  0.0000000E+00; -1.4128466E+00;0; -2.8869396E-01;  1.0015262E+04;  0.0000000E+00; -3.9169237E-08;  1.0000000E+04;  0.0000000E+00;  9.9988838E+03; -3.1522512E-01;  0.0000000E+00;  2.6531160E-02;  5.7803503E+02;
  2.7989981E-01;  9.9999998E-03; -1.0000379E-01;1473; -5.1597167E-02;  0.0000000E+00; -2.5275869E-03;  1.0007010E+03;  4.0000001E-01;  5.8072418E+02;3; -1.9284096E+01;  0.0000000E+00; -1.2135186E+00;0; -2.8667668E-01;  1.0015045E+04;  0.0000000E+00; -1.8774498E-08;  1.0000000E+04;  0.0000000E+00;  9.9989795E+03; -3.1293523E-01;  0.0000000E+00;  2.6258551E-02;  5.3028772E+02;
  2.7990094E-01;  9.9999998E-03; -8.0002911E-02;1474; -5.1208060E-02;  0.0000000E+00; -2.0083978E-03;  1.0006953E+03;  4.0000001E-01;  5.7608234E+02;3; -1.9320620E+01;  0.0000000E+00; -9.8641646E-01;0; -2.8488544E-01;  1.0014861E+04;  0.0000000E+00; -4.5630792E-09;  1.0000000E+04;  0.0000000E+00;  9.9990586E+03; -3.1093660E-01;  0.0000000E+00;  2.6051160E-02;  4.8963928E+02;
  2.7990189E-01;  9.9999998E-03; -6.0002111E-02;1475; -5.0864249E-02;  0.0000000E+00; -1.4977505E-03;  1.0006914E+03;  4.0000001E-01;  5.7282318E+02;3; -1.9336321E+01;  0.0000000E+00; -7.4797899E-01;0; -2.8344274E-01;  1.0014709E+04;  0.0000000E+00;  6.1189391E-09;  1.0000000E+04;  0.0000000E+00;  9.9991260E+03; -3.0929327E-01;  0.0000000E+00;  2.5850527E-02;  4.5610938E+02;
  2.7990261E-01;  9.9999998E-03; -4.0001370E-02;1476; -5.0597124E-02;  0.0000000E+00; -9.9368952E-04;  1.0006882E+03;  4.0000001E-01;  5.7015656E+02;3; -1.9339375E+01;  0.0000000E+00; -5.0281852E-01;0; -2.8239769E-01;  1.0014596E+04;  0.0000000E+00;  6.5006471E-09;  1.0000000E+04;  0.0000000E+00;  9.9991768E+03; -3.0806920E-01;  0.0000000E+00;  2.5671504E-02;  4.3086115E+02;
  2.7990305E-01;  9.9999998E-03; -2.0000676E-02;1477; -5.0428715E-02;  0.0000000E+00; -4.9540232E-04;  1.0006865E+03;  4.0000001E-01;  5.6877393E+02;3; -1.9338484E+01;  0.0000000E+00; -2.5222039E-01;0; -2.8176707E-01;  1.0014528E+04;  0.0000000E+00;  2.5960241E-09;  1.0000000E+04;  0.0000000E+00;  9.9992080E+03; -3.0731374E-01;  0.0000000E+00;  2.5546663E-02;  4.1513214E+02;
  2.9987916E-01;  9.9999998E-03; -1.8001054E-01;1500; -5.9465155E-02;  0.0000000E+00; -5.9284768E-03;  1.0008076E+03;  4.0000001E-01;  6.6911664E+02;3; -2.0514742E+01;  0.0000000E+00; -2.4633255E+00;0; -3.1758925E-01;  1.0018167E+04;  0.0000000E+00;  2.7066853E-06;  1.0000000E+04;  0.0000000E+00;  9.9979922E+03; -3.5583347E-01;  0.0000000E+00;  3.8244214E-02;  1.0151739E+03;
  2.9988015E-01;  9.9999998E-03; -1.6000891E-01;1501; -5.9372753E-02;  0.0000000E+00; -5.2303551E-03;  1.0008049E+03;  4.0000001E-01;  6.6684509E+02;3; -2.0783945E+01;  0.0000000E+00; -2.2445362E+00;0; -3.1725320E-01;  1.0017872E+04;  0.0000000E+00;  5.8687490E-08;  1.0000000E+04;  0.0000000E+00;  9.9982412E+03; -3.5295653E-01;  0.0000000E+00;  3.5703331E-02;  8.9644031E+02;
  2.9988149E-01;  9.9999998E-03; -1.4000744E-01;1502; -5.9094410E-02;  0.0000000E+00; -4.5537506E-03;  1.0008004E+03;  4.0000001E-01;  6.6309210E+02;3; -2.0994457E+01;  0.0000000E+00; -2.0087457E+00;0; -3.1615856E-01;  1.0017582E+04;  0.0000000E+00; -1.2291673E-07;  1.0000000E+04;  0.0000000E+00;  9.9984336E+03; -3.5029683E-01;  0.0000000E+00;  3.4138262E-02;  8.0034790E+02;
  2.9988295E-01;  9.9999998E-03; -1.2000608E-01;1503; -5.8700800E-02;  0.0000000E+00; -3.8871001E-03;  1.0007945E+03;  4.0000001E-01;  6.5825275E+02;3; -2.1140724E+01;  0.0000000E+00; -1.7573351E+00;0; -3.1455007E-01;  1.0017310E+04;  0.0000000E+00; -9.9581200E-08;  1.0000000E+04;  0.0000000E+00;  9.9985889E+03; -3.4785029E-01;  0.0000000E+00;  3.3300214E-02;  7.2399884E+02;
  2.9988444E-01;  9.9999998E-03; -1.0000485E-01;1504; -5.8258206E-02;  0.0000000E+00; -3.2260437E-03;  1.0007888E+03;  4.0000001E-01;  6.5351215E+02;3; -2.1233675E+01;  0.0000000E+00; -1.4963913E+00;0; -3.1282583E-01;  1.0017063E+04;  0.0000000E+00; -4.3049560E-08;  1.0000000E+04;  0.0000000E+00;  9.9987158E+03; -3.4564248E-01;  0.0000000E+00;  3.2816648E-02;  6.6057751E+02;
  2.9988578E-01;  9.9999998E-03; -8.0003724E-02;1505; -5.7823457E-02;  0.0000000E+00; -2.5673991E-03;  1.0007834E+03;  4.0000001E-01;  6.4906781E+02;3; -2.1289320E+01;  0.0000000E+00; -1.2194827E+00;0; -3.1125221E-01;  1.0016854E+04;  0.0000000E+00; -4.4394257E-09;  1.0000000E+04;  0.0000000E+00;  9.9988223E+03; -3.4372637E-01;  0.0000000E+00;  3.2474153E-02;  6.0722784E+02;
  2.9988688E-01;  9.9999998E-03; -6.0002703E-02;1506; -5.7441294E-02;  0.0000000E+00; -1.9173241E-03;  1.0007790E+03;  4.0000001E-01;  6.4541357E+02;3; -2.1315596E+01;  0.0000000E+00; -9.3045646E-01;0; -3.0996624E-01;  1.0016680E+04;  0.0000000E+00;  1.2976799E-08;  1.0000000E+04;  0.0000000E+00;  9.9989102E+03; -3.4216270E-01;  0.0000000E+00;  3.2196466E-02;  5.6391760E+02;
  2.9988775E-01;  9.9999998E-03; -4.0001757E-02;1507; -5.7146110E-02;  0.0000000E+00; -1.2738730E-03;  1.0007759E+03;  4.0000001E-01;  6.4284576E+02;3; -2.1328241E+01;  0.0000000E+00; -6.2488395E-01;0; -3.0902722E-01;  1.0016553E+04;  0.0000000E+00;  9.5503738E-09;  1.0000000E+04;  0.0000000E+00;  9.9989717E+03; -3.4100553E-01;  0.0000000E+00;  3.1978313E-02;  5.3173364E+02;
  2.9988825E-01;  9.9999998E-03; -2.0000866E-02;1508; -5.6960199E-02;  0.0000000E+00; -6.3582970E-04;  1.0007742E+03;  4.0000001E-01;  6.4146307E+02;3; -2.1332159E+01;  0.0000000E+00; -3.1444830E-01;0; -3.0845845E-01;  1.0016479E+04;  0.0000000E+00;  3.8421013E-09;  1.0000000E+04;  0.0000000E+00;  9.9990107E+03; -3.4029499E-01;  0.0000000E+00;  3.1836543E-02;  5.1186102E+02;
  3.1986046E-01;  9.9999998E-03; -1.8001327E-01;1531; -6.7032881E-02;  0.0000000E+00; -7.3980917E-03;  1.0009041E+03;  4.0000001E-01;  7.4901556E+02;3; -2.2442614E+01;  0.0000000E+00; -3.0107429E+00;0; -3.4421703E-01;  1.0020549E+04;  0.0000000E+00;  2.2102095E-06;  1.0000000E+04;  0.0000000E+00;  9.9975508E+03; -3.9008567E-01;  0.0000000E+00;  4.5868646E-02;  1.2362866E+03;
  3.1986180E-01;  9.9999998E-03; -1.6001116E-01;1532; -6.6881202E-02;  0.0000000E+00; -6.5063061E-03;  1.0009022E+03;  4.0000001E-01;  7.4743536E+02;3; -2.2746367E+01;  0.0000000E+00; -2.7339725E+00;0; -3.4436953E-01;  1.0020228E+04;  0.0000000E+00; -7.1178179E-09;  1.0000000E+04;  0.0000000E+00;  9.9978301E+03; -3.8764316E-01;  0.0000000E+00;  4.3273635E-02;  1.0983568E+03;
  3.1986347E-01;  9.9999998E-03; -1.4000928E-01;1533; -6.6545092E-02;  0.0000000E+00; -5.6485017E-03;  1.0008980E+03;  4.0000001E-01;  7.4397870E+02;3; -2.2993504E+01;  0.0000000E+00; -2.4405687E+00;0; -3.4371710E-01;  1.0019903E+04;  0.0000000E+00; -1.6994944E-07;  1.0000000E+04;  0.0000000E+00;  9.9980664E+03; -3.8528559E-01;  0.0000000E+00;  4.1568495E-02;  9.8221191E+02;
  3.1986526E-01;  9.9999998E-03; -1.2000757E-01;1534; -6.6097617E-02;  0.0000000E+00; -4.8135421E-03;  1.0008922E+03;  4.0000001E-01;  7.3913928E+02;3; -2.3176134E+01;  0.0000000E+00; -2.1273632E+00;0; -3.4250936E-01;  1.0019596E+04;  0.0000000E+00; -1.3623352E-07;  1.0000000E+04;  0.0000000E+00;  9.9982617E+03; -3.8306710E-01;  0.0000000E+00;  4.0557750E-02;  8.8669641E+02;
  3.1986701E-01;  9.9999998E-03; -1.0000603E-01;1535; -6.5605432E-02;  0.0000000E+00; -3.9937077E-03;  1.0008864E+03;  4.0000001E-01;  7.3429993E+02;3; -2.3296804E+01;  0.0000000E+00; -1.8084660E+00;0; -3.4112623E-01;  1.0019316E+04;  0.0000000E+00; -5.3168222E-08;  1.0000000E+04;  0.0000000E+00;  9.9984199E+03; -3.8105166E-01;  0.0000000E+00;  3.9925434E-02;  8.0622430E+02;
  3.1986856E-01;  9.9999998E-03; -8.0004632E-02;1536; -6.5128893E-02;  0.0000000E+00; -3.1824952E-03;  1.0008813E+03;  4.0000001E-01;  7.3015192E+02;3; -2.3375654E+01;  0.0000000E+00; -1.4687428E+00;0; -3.3982879E-01;  1.0019076E+04;  0.0000000E+00;  3.8023016E-09;  1.0000000E+04;  0.0000000E+00;  9.9985566E+03; -3.7930903E-01;  0.0000000E+00;  3.9480232E-02;  7.3862750E+02;
  3.1986988E-01;  9.9999998E-03; -6.0003363E-02;1537; -6.4712875E-02;  0.0000000E+00; -2.3809064E-03;  1.0008769E+03;  4.0000001E-01;  7.2649768E+02;3; -2.3422937E+01;  0.0000000E+00; -1.1162084E+00;0; -3.3875421E-01;  1.0018885E+04;  0.0000000E+00;  2.5999944E-08;  1.0000000E+04;  0.0000000E+00;  9.9986650E+03; -3.7789741E-01;  0.0000000E+00;  3.9143201E-02;  6.8416846E+02;
  3.1987086E-01;  9.9999998E-03; -4.0002186E-02;1538; -6.4392202E-02;  0.0000000E+00; -1.5853583E-03;  1.0008738E+03;  4.0000001E-01;  7.2392987E+02;3; -2.3446276E+01;  0.0000000E+00; -7.5683099E-01;0; -3.3796516E-01;  1.0018745E+04;  0.0000000E+00;  1.9237815E-08;  1.0000000E+04;  0.0000000E+00;  9.9987432E+03; -3.7686151E-01;  0.0000000E+00;  3.8896360E-02;  6.4402008E+02;
  3.1987146E-01;  9.9999998E-03; -2.0001078E-02;1539; -6.4190723E-02;  0.0000000E+00; -7.9241127E-04;  1.0008722E+03;  4.0000001E-01;  7.2254718E+02;3; -2.3457253E+01;  0.0000000E+00; -3.8273200E-01;0; -3.3748573E-01;  1.0018662E+04;  0.0000000E+00;  5.9701550E-09;  1.0000000E+04;  0.0000000E+00;  9.9987930E+03; -3.7622917E-01;  0.0000000E+00;  3.8743444E-02;  6.1937872E+02;
  3.3983925E-01;  9.9999998E-03; -1.8001617E-01;1562; -7.5323991E-02;  0.0000000E+00; -8.8920044E-03;  1.0010132E+03;  4.0000001E-01;  8.3938330E+02;3; -2.4444004E+01;  0.0000000E+00; -3.5098562E+00;0; -3.7332460E-01;  1.0023195E+04;  0.0000000E+00;  1.7266260E-06;  1.0000000E+04;  0.0000000E+00;  9.9970801E+03; -4.2649439E-01;  0.0000000E+00;  5.3169787E-02;  1.4682675E+03;
  3.3984101E-01;  9.9999998E-03; -1.6001357E-01;1563; -7.5119659E-02;  0.0000000E+00; -7.8295292E-03;  1.0010114E+03;  4.0000001E-01;  8.3790186E+02;3; -2.4798540E+01;  0.0000000E+00; -3.2072194E+00;0; -3.7390333E-01;  1.0022844E+04;  0.0000000E+00; -8.9601826E-08;  1.0000000E+04;  0.0000000E+00;  9.9973984E+03; -4.2467618E-01;  0.0000000E+00;  5.0772831E-02;  1.3135513E+03;
  3.3984306E-01;  9.9999998E-03; -1.4001127E-01;1564; -7.4729525E-02;  0.0000000E+00; -6.8023028E-03;  1.0010071E+03;  4.0000001E-01;  8.3434637E+02;3; -2.5092999E+01;  0.0000000E+00; -2.8726883E+00;0; -3.7364393E-01;  1.0022484E+04;  0.0000000E+00; -1.9123036E-07;  1.0000000E+04;  0.0000000E+00;  9.9976709E+03; -4.2277244E-01;  0.0000000E+00;  4.9128495E-02;  1.1784901E+03;
  3.3984521E-01;  9.9999998E-03; -1.2000918E-01;1565; -7.4231923E-02;  0.0000000E+00; -5.8017019E-03;  1.0010016E+03;  4.0000001E-01;  8.2980334E+02;3; -2.5314543E+01;  0.0000000E+00; -2.5150795E+00;0; -3.7282056E-01;  1.0022140E+04;  0.0000000E+00; -1.4639491E-07;  1.0000000E+04;  0.0000000E+00;  9.9979033E+03; -4.2090669E-01;  0.0000000E+00;  4.8086148E-02;  1.0637916E+03;
  3.3984727E-01;  9.9999998E-03; -1.0000730E-01;1566; -7.3696963E-02;  0.0000000E+00; -4.8182704E-03;  1.0009955E+03;  4.0000001E-01;  8.2476642E+02;3; -2.5473814E+01;  0.0000000E+00; -2.1390555E+00;0; -3.7179735E-01;  1.0021825E+04;  0.0000000E+00; -4.1662211E-08;  1.0000000E+04;  0.0000000E+00;  9.9981006E+03; -4.1919124E-01;  0.0000000E+00;  4.7393881E-02;  9.6551355E+02;
  3.3984908E-01;  9.9999998E-03; -8.0005601E-02;1567; -7.3185220E-02;  0.0000000E+00; -3.8454470E-03;  1.0009907E+03;  4.0000001E-01;  8.2071716E+02;3; -2.5585766E+01;  0.0000000E+00; -1.7435776E+00;0; -3.7081593E-01;  1.0021556E+04;  0.0000000E+00;  3.0585237E-08;  1.0000000E+04;  0.0000000E+00;  9.9982656E+03; -4.1771269E-01;  0.0000000E+00;  4.6896763E-02;  8.8261786E+02;
  3.3985060E-01;  9.9999998E-03; -6.0004063E-02;1568; -7.2741650E-02;  0.0000000E+00; -2.8806203E-03;  1.0009863E+03;  4.0000001E-01;  8.1716168E+02;3; -2.5657778E+01;  0.0000000E+00; -1.3309207E+00;0; -3.7000018E-01;  1.0021337E+04;  0.0000000E+00;  4.6149612E-08;  1.0000000E+04;  0.0000000E+00;  9.9983965E+03; -4.1652754E-01;  0.0000000E+00;  4.6527367E-02;  8.1598706E+02;
  3.3985174E-01;  9.9999998E-03; -4.0002644E-02;1569; -7.2400935E-02;  0.0000000E+00; -1.9198272E-03;  1.0009832E+03;  4.0000001E-01;  8.1459387E+02;3; -2.5702103E+01;  0.0000000E+00; -8.9801341E-01;0; -3.6940107E-01;  1.0021180E+04;  0.0000000E+00;  3.1367104E-08;  1.0000000E+04;  0.0000000E+00;  9.9984932E+03; -4.1566637E-01;  0.0000000E+00;  4.6265304E-02;  7.6707074E+02;
  3.3985242E-01;  9.9999998E-03; -2.0001302E-02;1570; -7.2187431E-02;  0.0000000E+00; -9.5982605E-04;  1.0009815E+03;  4.0000001E-01;  8.1311243E+02;3; -2.5725176E+01;  0.0000000E+00; -4.5280573E-01;0; -3.6903849E-01;  1.0021083E+04;  0.0000000E+00;  1.0345943E-08;  1.0000000E+04;  0.0000000E+00;  9.9985566E+03; -4.1514608E-01;  0.0000000E+00;  4.6107594E-02;  7.3716113E+02;
  3.5981533E-01;  9.9999998E-03; -1.8001920E-01;1593; -8.4379330E-02;  0.0000000E+00; -1.0382187E-02;  1.0011357E+03;  4.0000001E-01;  9.4091119E+02;3; -2.6515049E+01;  0.0000000E+00; -3.9635713E+00;0; -4.0511376E-01;  1.0026139E+04;  0.0000000E+00;  1.2817567E-06;  1.0000000E+04;  0.0000000E+00;  9.9965957E+03; -4.6525520E-01;  0.0000000E+00;  6.0141459E-02;  1.7114633E+03;
  3.5981750E-01;  9.9999998E-03; -1.6001612E-01;1594; -8.4132962E-02;  0.0000000E+00; -9.1700600E-03;  1.0011337E+03;  4.0000001E-01;  9.3923218E+02;3; -2.6931292E+01;  0.0000000E+00; -3.6384919E+00;0; -4.0603867E-01;  1.0025750E+04;  0.0000000E+00; -1.9776387E-07;  1.0000000E+04;  0.0000000E+00;  9.9969434E+03; -4.6415025E-01;  0.0000000E+00;  5.8111571E-02;  1.5409456E+03;
  3.5981998E-01;  9.9999998E-03; -1.4001335E-01;1595; -8.3698794E-02;  0.0000000E+00; -7.9893135E-03;  1.0011293E+03;  4.0000001E-01;  9.3557800E+02;3; -2.7283106E+01;  0.0000000E+00; -3.2809951E+00;0; -4.0610981E-01;  1.0025346E+04;  0.0000000E+00; -2.1501386E-07;  1.0000000E+04;  0.0000000E+00;  9.9972510E+03; -4.6279275E-01;  0.0000000E+00;  5.6682959E-02;  1.3876466E+03;
  3.5982251E-01;  9.9999998E-03; -1.2001087E-01;1596; -8.3161175E-02;  0.0000000E+00; -6.8305475E-03;  1.0011232E+03;  4.0000001E-01;  9.3054108E+02;3; -2.7558489E+01;  0.0000000E+00; -2.8981206E+00;0; -4.0564299E-01;  1.0024957E+04;  0.0000000E+00; -1.5541843E-07;  1.0000000E+04;  0.0000000E+00;  9.9975225E+03; -4.6137431E-01;  0.0000000E+00;  5.5731338E-02;  1.2539707E+03;
  3.5982493E-01;  9.9999998E-03; -1.0000863E-01;1597; -8.2592860E-02;  0.0000000E+00; -5.6832382E-03;  1.0011171E+03;  4.0000001E-01;  9.2550421E+02;3; -2.7762403E+01;  0.0000000E+00; -2.4907238E+00;0; -4.0498737E-01;  1.0024604E+04;  0.0000000E+00; -2.3563715E-08;  1.0000000E+04;  0.0000000E+00;  9.9977520E+03; -4.6004859E-01;  0.0000000E+00;  5.5061221E-02;  1.1376281E+03;
  3.5982707E-01;  9.9999998E-03; -8.0006622E-02;1598; -8.2054392E-02;  0.0000000E+00; -4.5420821E-03;  1.0011119E+03;  4.0000001E-01;  9.2115863E+02;3; -2.7912601E+01;  0.0000000E+00; -2.0421810E+00;0; -4.0435436E-01;  1.0024300E+04;  0.0000000E+00;  6.1611026E-08;  1.0000000E+04;  0.0000000E+00;  9.9979521E+03; -4.5891339E-01;  0.0000000E+00;  5.4559011E-02;  1.0389066E+03;
  3.5982880E-01;  9.9999998E-03; -6.0004801E-02;1599; -8.1591018E-02;  0.0000000E+00; -3.4062145E-03;  1.0011077E+03;  4.0000001E-01;  9.1770197E+02;3; -2.8017391E+01;  0.0000000E+00; -1.5641316E+00;0; -4.0383813E-01;  1.0024058E+04;  0.0000000E+00;  7.8200131E-08;  1.0000000E+04;  0.0000000E+00;  9.9981094E+03; -4.5801800E-01;  0.0000000E+00;  5.4179877E-02;  9.5953119E+02;
  3.5983011E-01;  9.9999998E-03; -4.0003121E-02;1600; -8.1236884E-02;  0.0000000E+00; -2.2714627E-03;  1.0011047E+03;  4.0000001E-01;  9.1523291E+02;3; -2.8084717E+01;  0.0000000E+00; -1.0608950E+00;0; -4.0346804E-01;  1.0023880E+04;  0.0000000E+00;  4.3147452E-08;  1.0000000E+04;  0.0000000E+00;  9.9982275E+03; -4.5737988E-01;  0.0000000E+00;  5.3911842E-02;  9.0138031E+02;
  3.5983089E-01;  9.9999998E-03; -2.0001536E-02;1601; -8.1014745E-02;  0.0000000E+00; -1.1356099E-03;  1.0011028E+03;  4.0000001E-01;  9.1365271E+02;3; -2.8121527E+01;  0.0000000E+00; -5.3512472E-01;0; -4.0324706E-01;  1.0023772E+04;  0.0000000E+00;  1.4877203E-08;  1.0000000E+04;  0.0000000E+00;  9.9982969E+03; -4.5699924E-01;  0.0000000E+00;  5.3752191E-02;  8.6591077E+02;
  3.7978831E-01;  9.9999998E-03; -1.8002236E-01;1624; -9.4240293E-02;  0.0000000E+00; -1.1852085E-02;  1.0012734E+03;  4.0000001E-01;  1.0549817E+03;3; -2.8645727E+01;  0.0000000E+00; -4.3571119E+00;0; -4.3960238E-01;  1.0029399E+04;  0.0000000E+00;  7.2347609E-07;  1.0000000E+04;  0.0000000E+00;  9.9960898E+03; -5.0651646E-01;  0.0000000E+00;  6.6914074E-02;  1.9677856E+03;
  3.7979096E-01;  9.9999998E-03; -1.6001877E-01;1625; -9.3966648E-02;  0.0000000E+00; -1.0506503E-02;  1.0012705E+03;  4.0000001E-01;  1.0526115E+03;3; -2.9133924E+01;  0.0000000E+00; -4.0186300E+00;0; -4.4080240E-01;  1.0028965E+04;  0.0000000E+00; -3.2065662E-07;  1.0000000E+04;  0.0000000E+00;  9.9964688E+03; -5.0612622E-01;  0.0000000E+00;  6.5323822E-02;  1.7808884E+03;
  3.7979394E-01;  9.9999998E-03; -1.4001553E-01;1626; -9.3503073E-02;  0.0000000E+00; -9.1794506E-03;  1.0012651E+03;  4.0000001E-01;  1.0481671E+03;3; -2.9557528E+01;  0.0000000E+00; -3.6574810E+00;0; -4.4115353E-01;  1.0028511E+04;  0.0000000E+00; -2.4809003E-07;  1.0000000E+04;  0.0000000E+00;  9.9968125E+03; -5.0535101E-01;  0.0000000E+00;  6.4197466E-02;  1.6095648E+03;
  3.7979692E-01;  9.9999998E-03; -1.2001262E-01;1627; -9.2939459E-02;  0.0000000E+00; -7.8629320E-03;  1.0012584E+03;  4.0000001E-01;  1.0425376E+03;3; -2.9898209E+01;  0.0000000E+00; -3.2559824E+00;0; -4.4102204E-01;  1.0028071E+04;  0.0000000E+00; -1.8560745E-07;  1.0000000E+04;  0.0000000E+00;  9.9971172E+03; -5.0443494E-01;  0.0000000E+00;  6.3412912E-02;  1.4574292E+03;
  3.7979972E-01;  9.9999998E-03; -1.0001001E-01;1628; -9.2350967E-02;  0.0000000E+00; -6.5520527E-03;  1.0012518E+03;  4.0000001E-01;  1.0371057E+03;3; -3.0162489E+01;  0.0000000E+00; -2.8178873E+00;0; -4.4074243E-01;  1.0027669E+04;  0.0000000E+00; -3.8587025E-08;  1.0000000E+04;  0.0000000E+00;  9.9973838E+03; -5.0355792E-01;  0.0000000E+00;  6.2815502E-02;  1.3234293E+03;
  3.7980217E-01;  9.9999998E-03; -8.0007672E-02;1629; -9.1797784E-02;  0.0000000E+00; -5.2405735E-03;  1.0012462E+03;  4.0000001E-01;  1.0324639E+03;3; -3.0364941E+01;  0.0000000E+00; -2.3271611E+00;0; -4.4048810E-01;  1.0027327E+04;  0.0000000E+00;  7.6523854E-08;  1.0000000E+04;  0.0000000E+00;  9.9976133E+03; -5.0282067E-01;  0.0000000E+00;  6.2332556E-02;  1.2090854E+03;
  3.7980419E-01;  9.9999998E-03; -6.0005561E-02;1630; -9.1324180E-02;  0.0000000E+00; -3.9303470E-03;  1.0012416E+03;  4.0000001E-01;  1.0287108E+03;3; -3.0510050E+01;  0.0000000E+00; -1.7883457E+00;0; -4.4030991E-01;  1.0027057E+04;  0.0000000E+00;  8.2447912E-08;  1.0000000E+04;  0.0000000E+00;  9.9977930E+03; -5.0226009E-01;  0.0000000E+00;  6.1950188E-02;  1.1170452E+03;
  3.7980565E-01;  9.9999998E-03; -4.0003613E-02;1631; -9.0962730E-02;  0.0000000E+00; -2.6212158E-03;  1.0012385E+03;  4.0000001E-01;  1.0260443E+03;3; -3.0608797E+01;  0.0000000E+00; -1.2137439E+00;0; -4.4020256E-01;  1.0026855E+04;  0.0000000E+00;  5.5577917E-08;  1.0000000E+04;  0.0000000E+00;  9.9979297E+03; -5.0187677E-01;  0.0000000E+00;  6.1674207E-02;  1.0496959E+03;
  3.7980658E-01;  9.9999998E-03; -2.0001778E-02;1632; -9.0737127E-02;  0.0000000E+00; -1.3111210E-03;  1.0012365E+03;  4.0000001E-01;  1.0243654E+03;3; -3.0664621E+01;  0.0000000E+00; -6.1334229E-01;0; -4.4014701E-01;  1.0026732E+04;  0.0000000E+00;  1.6625229E-08;  1.0000000E+04;  0.0000000E+00;  9.9980098E+03; -5.0165594E-01;  0.0000000E+00;  6.1508916E-02;  1.0086865E+03;
  3.9975795E-01;  9.9999998E-03; -1.8002565E-01;1655; -1.0495121E-01;  0.0000000E+00; -1.3296354E-02;  1.0014271E+03;  4.0000001E-01;  1.1822864E+03;3; -3.0825680E+01;  0.0000000E+00; -4.6669631E+00;0; -4.7669148E-01;  1.0033013E+04;  0.0000000E+00;  1.0756929E-07;  1.0000000E+04;  0.0000000E+00;  9.9955566E+03; -5.5033767E-01;  0.0000000E+00;  7.3646188E-02;  2.2386934E+03;
  3.9976117E-01;  9.9999998E-03; -1.6002153E-01;1656; -1.0466595E-01;  0.0000000E+00; -1.1816014E-02;  1.0014227E+03;  4.0000001E-01;  1.1787310E+03;3; -3.1399502E+01;  0.0000000E+00; -4.3445296E+00;0; -4.7810537E-01;  1.0032514E+04;  0.0000000E+00; -4.3457257E-07;  1.0000000E+04;  0.0000000E+00;  9.9959678E+03; -5.5060184E-01;  0.0000000E+00;  7.2496466E-02;  2.0341808E+03;
  3.9976466E-01;  9.9999998E-03; -1.4001781E-01;1657; -1.0418937E-01;  0.0000000E+00; -1.0340269E-02;  1.0014158E+03;  4.0000001E-01;  1.1730027E+03;3; -3.1907106E+01;  0.0000000E+00; -3.9835036E+00;0; -4.7869617E-01;  1.0031998E+04;  0.0000000E+00; -3.1256613E-07;  1.0000000E+04;  0.0000000E+00;  9.9963457E+03; -5.5039722E-01;  0.0000000E+00;  7.1701042E-02;  1.8454213E+03;
  3.9976814E-01;  9.9999998E-03; -1.2001445E-01;1658; -1.0361673E-01;  0.0000000E+00; -8.8675702E-03;  1.0014078E+03;  4.0000001E-01;  1.1663856E+03;3; -3.2328526E+01;  0.0000000E+00; -3.5761788E+00;0; -4.7888210E-01;  1.0031497E+04;  0.0000000E+00; -3.2165823E-07;  1.0000000E+04;  0.0000000E+00;  9.9966826E+03; -5.4999650E-01;  0.0000000E+00;  7.1114399E-02;  1.6763734E+03;
  3.9977139E-01;  9.9999998E-03; -1.0001145E-01;1659; -1.0302390E-01;  0.0000000E+00; -7.3910109E-03;  1.0014000E+03;  4.0000001E-01;  1.1598673E+03;3; -3.2668888E+01;  0.0000000E+00; -3.1188526E+00;0; -4.7898495E-01;  1.0031042E+04;  0.0000000E+00; -1.5772576E-07;  1.0000000E+04;  0.0000000E+00;  9.9969814E+03; -5.4958922E-01;  0.0000000E+00;  7.0604250E-02;  1.5263794E+03;
  3.9977419E-01;  9.9999998E-03; -8.0008768E-02;1660; -1.0247006E-01;  0.0000000E+00; -5.9137433E-03;  1.0013936E+03;  4.0000001E-01;  1.1545341E+03;3; -3.2935776E+01;  0.0000000E+00; -2.5851369E+00;0; -4.7913232E-01;  1.0030655E+04;  0.0000000E+00; -5.2329234E-09;  1.0000000E+04;  0.0000000E+00;  9.9972363E+03; -5.4926944E-01;  0.0000000E+00;  7.0137106E-02;  1.3978132E+03;
  3.9977649E-01;  9.9999998E-03; -6.0006350E-02;1661; -1.0199788E-01;  0.0000000E+00; -4.4374298E-03;  1.0013884E+03;  4.0000001E-01;  1.1501886E+03;3; -3.3135326E+01;  0.0000000E+00; -1.9968878E+00;0; -4.7932261E-01;  1.0030344E+04;  0.0000000E+00;  3.8393921E-08;  1.0000000E+04;  0.0000000E+00;  9.9974443E+03; -5.4905981E-01;  0.0000000E+00;  6.9737211E-02;  1.2941675E+03;
  3.9977819E-01;  9.9999998E-03; -4.0004127E-02;1662; -1.0163837E-01;  0.0000000E+00; -2.9598728E-03;  1.0013846E+03;  4.0000001E-01;  1.1471270E+03;3; -3.3273113E+01;  0.0000000E+00; -1.3598894E+00;0; -4.7950575E-01;  1.0030122E+04;  0.0000000E+00;  2.6381946E-08;  1.0000000E+04;  0.0000000E+00;  9.9975957E+03; -5.4894221E-01;  0.0000000E+00;  6.9436453E-02;  1.2183627E+03;
  3.9977920E-01;  9.9999998E-03; -2.0002032E-02;1663; -1.0141388E-01;  0.0000000E+00; -1.4803723E-03;  1.0013826E+03;  4.0000001E-01;  1.1454480E+03;3; -3.3353664E+01;  0.0000000E+00; -6.8951774E-01;0; -4.7963542E-01;  1.0029984E+04;  0.0000000E+00;  1.0897471E-08;  1.0000000E+04;  0.0000000E+00;  9.9976865E+03; -5.4888827E-01;  0.0000000E+00;  6.9252849E-02;  1.1722612E+03;
  4.1972390E-01;  9.9999998E-03; -1.8002917E-01;1686; -1.1655738E-01;  0.0000000E+00; -1.4709979E-02;  1.0015978E+03;  4.0000001E-01;  1.3237140E+03;3; -3.3046848E+01;  0.0000000E+00; -4.9040093E+00;0; -5.1621801E-01;  1.0036994E+04;  0.0000000E+00; -2.6025009E-07;  1.0000000E+04;  0.0000000E+00;  9.9949951E+03; -5.9665269E-01;  0.0000000E+00;  8.0434702E-02;  2.5239875E+03;
  4.1972771E-01;  9.9999998E-03; -1.6002448E-01;1687; -1.1627576E-01;  0.0000000E+00; -1.3081015E-02;  1.0015909E+03;  4.0000001E-01;  1.3180845E+03;3; -3.3716633E+01;  0.0000000E+00; -4.5935183E+00;0; -5.1776731E-01;  1.0036409E+04;  0.0000000E+00; -4.1200056E-07;  1.0000000E+04;  0.0000000E+00;  9.9954443E+03; -5.9746999E-01;  0.0000000E+00;  7.9702646E-02;  2.3016633E+03;
  4.1973186E-01;  9.9999998E-03; -1.4002024E-01;1688; -1.1580267E-01;  0.0000000E+00; -1.1451068E-02;  1.0015817E+03;  4.0000001E-01;  1.3103810E+03;3; -3.4322922E+01;  0.0000000E+00; -4.2407503E+00;0; -5.1853740E-01;  1.0035817E+04;  0.0000000E+00; -4.0683886E-07;  1.0000000E+04;  0.0000000E+00;  9.9958467E+03; -5.9778517E-01;  0.0000000E+00;  7.9247780E-02;  2.0979988E+03;
  4.1973591E-01;  9.9999998E-03; -1.2001642E-01;1689; -1.1523740E-01;  0.0000000E+00; -9.8190820E-03;  1.0015711E+03;  4.0000001E-01;  1.3015912E+03;3; -3.4844334E+01;  0.0000000E+00; -3.8409269E+00;0; -5.1900107E-01;  1.0035246E+04;  0.0000000E+00; -5.7613119E-07;  1.0000000E+04;  0.0000000E+00;  9.9962109E+03; -5.9787327E-01;  0.0000000E+00;  7.8872226E-02;  1.9158868E+03;
  4.1973963E-01;  9.9999998E-03; -1.0001301E-01;1690; -1.1465624E-01;  0.0000000E+00; -8.1834784E-03;  1.0015616E+03;  4.0000001E-01;  1.2937889E+03;3; -3.5273193E+01;  0.0000000E+00; -3.3629313E+00;0; -5.1947153E-01;  1.0034732E+04;  0.0000000E+00; -4.2942494E-07;  1.0000000E+04;  0.0000000E+00;  9.9965322E+03; -5.9791833E-01;  0.0000000E+00;  7.8446776E-02;  1.7537535E+03;
  4.1974285E-01;  9.9999998E-03; -8.0009967E-02;1691; -1.1411703E-01;  0.0000000E+00; -6.5493314E-03;  1.0015536E+03;  4.0000001E-01;  1.2871719E+03;3; -3.5621117E+01;  0.0000000E+00; -2.8065655E+00;0; -5.2002627E-01;  1.0034292E+04;  0.0000000E+00; -2.0541201E-07;  1.0000000E+04;  0.0000000E+00;  9.9968086E+03; -5.9800082E-01;  0.0000000E+00;  7.7974536E-02;  1.6141869E+03;
  4.1974548E-01;  9.9999998E-03; -6.0007226E-02;1692; -1.1365854E-01;  0.0000000E+00; -4.9154880E-03;  1.0015474E+03;  4.0000001E-01;  1.2820361E+03;3; -3.5887459E+01;  0.0000000E+00; -2.1779528E+00;0; -5.2060062E-01;  1.0033944E+04;  0.0000000E+00; -8.7967059E-08;  1.0000000E+04;  0.0000000E+00;  9.9970322E+03; -5.9812599E-01;  0.0000000E+00;  7.7525385E-02;  1.5013540E+03;
  4.1974738E-01;  9.9999998E-03; -4.0004700E-02;1693; -1.1331014E-01;  0.0000000E+00; -3.2796243E-03;  1.0015430E+03;  4.0000001E-01;  1.2783820E+03;3; -3.6074837E+01;  0.0000000E+00; -1.4893966E+00;0; -5.2109379E-01;  1.0033688E+04;  0.0000000E+00; -3.1071536E-08;  1.0000000E+04;  0.0000000E+00;  9.9971953E+03; -5.9826177E-01;  0.0000000E+00;  7.7167995E-02;  1.4187491E+03;
  4.1974854E-01;  9.9999998E-03; -2.0002315E-02;1694; -1.1309200E-01;  0.0000000E+00; -1.6409658E-03;  1.0015403E+03;  4.0000001E-01;  1.2761105E+03;3; -3.6187099E+01;  0.0000000E+00; -7.5599653E-01;0; -5.2142155E-01;  1.0033538E+04;  0.0000000E+00; -7.7734565E-09;  1.0000000E+04;  0.0000000E+00;  9.9972979E+03; -5.9836489E-01;  0.0000000E+00;  7.6943308E-02;  1.3685231E+03;
  4.3968579E-01;  9.9999998E-03; -1.8003301E-01;1717; -1.2910779E-01;  0.0000000E+00; -1.6083119E-02;  1.0017851E+03;  4.0000001E-01;  1.4788693E+03;3; -3.5295727E+01;  0.0000000E+00; -5.0381122E+00;0; -5.5788112E-01;  1.0041341E+04;  0.0000000E+00;  2.3867958E-07;  1.0000000E+04;  0.0000000E+00;  9.9944160E+03; -6.4515692E-01;  0.0000000E+00;  8.7275781E-02;  2.8221812E+03;
  4.3969035E-01;  9.9999998E-03; -1.6002774E-01;1718; -1.2884276E-01;  0.0000000E+00; -1.4295066E-02;  1.0017748E+03;  4.0000001E-01;  1.4703757E+03;3; -3.6074955E+01;  0.0000000E+00; -4.7422619E+00;0; -5.5942285E-01;  1.0040658E+04;  0.0000000E+00;  1.0647588E-07;  1.0000000E+04;  0.0000000E+00;  9.9948867E+03; -6.4639509E-01;  0.0000000E+00;  8.6972222E-02;  2.5850442E+03;
  4.3969518E-01;  9.9999998E-03; -1.4002298E-01;1719; -1.2838663E-01;  0.0000000E+00; -1.2505135E-02;  1.0017616E+03;  4.0000001E-01;  1.4594131E+03;3; -3.6796898E+01;  0.0000000E+00; -4.4138951E+00;0; -5.6025219E-01;  1.0039970E+04;  0.0000000E+00; -3.1926359E-07;  1.0000000E+04;  0.0000000E+00;  9.9953076E+03; -6.4715660E-01;  0.0000000E+00;  8.6904384E-02;  2.3728855E+03;
  4.3969989E-01;  9.9999998E-03; -1.2001868E-01;1720; -1.2784208E-01;  0.0000000E+00; -1.0712327E-02;  1.0017479E+03;  4.0000001E-01;  1.4481542E+03;3; -3.7429153E+01;  0.0000000E+00; -4.0133934E+00;0; -5.6090039E-01;  1.0039320E+04;  0.0000000E+00; -8.5568820E-07;  1.0000000E+04;  0.0000000E+00;  9.9956797E+03; -6.4768332E-01;  0.0000000E+00;  8.6782947E-02;  2.1853384E+03;
  4.3970418E-01;  9.9999998E-03; -1.0001484E-01;1721; -1.2728775E-01;  0.0000000E+00; -8.9247711E-03;  1.0017354E+03;  4.0000001E-01;  1.4376853E+03;3; -3.7966007E+01;  0.0000000E+00; -3.5363011E+00;0; -5.6168103E-01;  1.0038736E+04;  0.0000000E+00; -7.7916320E-07;  1.0000000E+04;  0.0000000E+00;  9.9960098E+03; -6.4813620E-01;  0.0000000E+00;  8.6455166E-02;  2.0180842E+03;
  4.3970788E-01;  9.9999998E-03; -8.0011398E-02;1722; -1.2677705E-01;  0.0000000E+00; -7.1418099E-03;  1.0017253E+03;  4.0000001E-01;  1.4293893E+03;3; -3.8410805E+01;  0.0000000E+00; -2.9693263E+00;0; -5.6261754E-01;  1.0038243E+04;  0.0000000E+00; -4.7130715E-07;  1.0000000E+04;  0.0000000E+00;  9.9963008E+03; -6.4857560E-01;  0.0000000E+00;  8.5958071E-02;  1.8731149E+03;
  4.3971083E-01;  9.9999998E-03; -6.0008280E-02;1723; -1.2634447E-01;  0.0000000E+00; -5.3613167E-03;  1.0017175E+03;  4.0000001E-01;  1.4229697E+03;3; -3.8758739E+01;  0.0000000E+00; -2.3165004E+00;0; -5.6357360E-01;  1.0037851E+04;  0.0000000E+00; -2.3876549E-07;  1.0000000E+04;  0.0000000E+00;  9.9965371E+03; -6.4899260E-01;  0.0000000E+00;  8.5419029E-02;  1.7551470E+03;
  4.3971300E-01;  9.9999998E-03; -4.0005393E-02;1724; -1.2601607E-01;  0.0000000E+00; -3.5780149E-03;  1.0017119E+03;  4.0000001E-01;  1.4183279E+03;3; -3.9007172E+01;  0.0000000E+00; -1.5906768E+00;0; -5.6438339E-01;  1.0037569E+04;  0.0000000E+00; -1.0920763E-07;  1.0000000E+04;  0.0000000E+00;  9.9967061E+03; -6.4934427E-01;  0.0000000E+00;  8.4960908E-02;  1.6684220E+03;
  4.3971434E-01;  9.9999998E-03; -2.0002661E-02;1725; -1.2581007E-01;  0.0000000E+00; -1.7906838E-03;  1.0017084E+03;  4.0000001E-01;  1.4153650E+03;3; -3.9157631E+01;  0.0000000E+00; -8.0926508E-01;0; -5.6491661E-01;  1.0037395E+04;  0.0000000E+00; -2.7556990E-08;  1.0000000E+04;  0.0000000E+00;  9.9968115E+03; -6.4957905E-01;  0.0000000E+00;  8.4662415E-02;  1.6155903E+03;
  4.5964316E-01;  9.9999998E-03; -1.8003744E-01;1748; -1.4265803E-01;  0.0000000E+00; -1.7421130E-02;  1.0019896E+03;  4.0000081E-01;  1.6483447E+03;3; -3.7561535E+01;  0.0000000E+00; -5.0410476E+00;0; -6.0091883E-01;  1.0046004E+04;  0.0000000E+00;  3.2818184E-06;  1.0000000E+04;  0.0000000E+00;  9.9938066E+03; -6.9500798E-01;  0.0000000E+00;  9.4089143E-02;  3.1329753E+03;
  4.5964858E-01;  9.9999998E-03; -1.6003162E-01;1749; -1.4241824E-01;  0.0000000E+00; -1.5475017E-02;  1.0019736E+03;  4.0000078E-01;  1.6351106E+03;3; -3.8461674E+01;  0.0000000E+00; -4.7639103E+00;0; -6.0220528E-01;  1.0045200E+04;  0.0000000E+00;  2.0959380E-06;  1.0000000E+04;  0.0000000E+00;  9.9942910E+03; -6.9652128E-01;  0.0000000E+00;  9.4316006E-02;  2.8892410E+03;
  4.5965427E-01;  9.9999998E-03; -1.4002632E-01;1750; -1.4198716E-01;  0.0000000E+00; -1.3522252E-02;  1.0019548E+03;  4.0000084E-01;  1.6195061E+03;3; -3.9314217E+01;  0.0000000E+00; -4.4660492E+00;0; -6.0287809E-01;  1.0044412E+04;  0.0000000E+00;  6.4983345E-07;  1.0000000E+04;  0.0000000E+00;  9.9947061E+03; -6.9765335E-01;  0.0000000E+00;  9.4775282E-02;  2.6805557E+03;
  4.5965973E-01;  9.9999998E-03; -1.2002151E-01;1751; -1.4147381E-01;  0.0000000E+00; -1.1569249E-02;  1.0019362E+03;  4.0000084E-01;  1.6040991E+03;3; -4.0071678E+01;  0.0000000E+00; -4.0785980E+00;0; -6.0354370E-01;  1.0043679E+04;  0.0000000E+00; -6.9955212E-07;  1.0000000E+04;  0.0000000E+00;  9.9950596E+03; -6.9857067E-01;  0.0000000E+00;  9.5026970E-02;  2.5001030E+03;
  4.5966464E-01;  9.9999998E-03; -1.0001717E-01;1752; -1.4095776E-01;  0.0000000E+00; -9.6306792E-03;  1.0019198E+03;  4.0000078E-01;  1.5904700E+03;3; -4.0733410E+01;  0.0000000E+00; -3.6170557E+00;0; -6.0452449E-01;  1.0043028E+04;  0.0000000E+00; -9.1718573E-07;  1.0000000E+04;  0.0000000E+00;  9.9953799E+03; -6.9938219E-01;  0.0000000E+00;  9.4857708E-02;  2.3384768E+03;
  4.5966887E-01;  9.9999998E-03; -8.0013253E-02;1753; -1.4048727E-01;  0.0000000E+00; -7.7029862E-03;  1.0019064E+03;  4.0000075E-01;  1.5794086E+03;3; -4.1291183E+01;  0.0000000E+00; -3.0548568E+00;0; -6.0578668E-01;  1.0042477E+04;  0.0000000E+00; -6.3602209E-07;  1.0000000E+04;  0.0000000E+00;  9.9956650E+03; -7.0012236E-01;  0.0000000E+00;  9.4335690E-02;  2.1962583E+03;
  4.5967224E-01;  9.9999998E-03; -6.0009666E-02;1754; -1.4009109E-01;  0.0000000E+00; -5.7818415E-03;  1.0018964E+03;  4.0000072E-01;  1.5711125E+03;3; -4.1735542E+01;  0.0000000E+00; -2.3972721E+00;0; -6.0710508E-01;  1.0042041E+04;  0.0000000E+00; -3.4470480E-07;  1.0000000E+04;  0.0000000E+00;  9.9958945E+03; -7.0077145E-01;  0.0000000E+00;  9.3666390E-02;  2.0788247E+03;
  4.5967472E-01;  9.9999998E-03; -4.0006321E-02;1755; -1.3979033E-01;  0.0000000E+00; -3.8595733E-03;  1.0018891E+03;  4.0000072E-01;  1.5650880E+03;3; -4.2058067E+01;  0.0000000E+00; -1.6516632E+00;0; -6.0822999E-01;  1.0041727E+04;  0.0000000E+00; -1.5153900E-07;  1.0000000E+04;  0.0000000E+00;  9.9960703E+03; -7.0128441E-01;  0.0000000E+00;  9.3054436E-02;  1.9916000E+03;
  4.5967624E-01;  9.9999998E-03; -2.0003125E-02;1756; -1.3960171E-01;  0.0000000E+00; -1.9317637E-03;  1.0018851E+03;  4.0000072E-01;  1.5617301E+03;3; -4.2254093E+01;  0.0000000E+00; -8.4283394E-01;0; -6.0897434E-01;  1.0041536E+04;  0.0000000E+00; -4.0734044E-08;  1.0000000E+04;  0.0000000E+00;  9.9961748E+03; -7.0161456E-01;  0.0000000E+00;  9.2640199E-02;  1.9381543E+03;
  4.7959557E-01;  9.9999998E-03; -1.8004289E-01;1779; -1.5726726E-01;  0.0000000E+00; -1.8761804E-02;  1.0022029E+03;  4.0000230E-01;  1.8250293E+03;3; -3.9833328E+01;  0.0000000E+00; -4.8800926E+00;0; -6.4349401E-01;  1.0050853E+04;  0.0000000E+00;  1.2432589E-05;  1.0000000E+04;  0.0000000E+00;  9.9931660E+03; -7.4430567E-01;  0.0000000E+00;  1.0081168E-01;  3.4619529E+03;
  4.7960201E-01;  9.9999998E-03; -1.6003658E-01;1780; -1.5705591E-01;  0.0000000E+00; -1.6674303E-02;  1.0021796E+03;  4.0000239E-01;  1.8057706E+03;3; -4.0865055E+01;  0.0000000E+00; -4.6320004E+00;0; -6.4415723E-01;  1.0049914E+04;  0.0000000E+00;  8.1973194E-06;  1.0000000E+04;  0.0000000E+00;  9.9936357E+03; -7.4595344E-01;  0.0000000E+00;  1.0179623E-01;  3.2258630E+03;
  4.7960865E-01;  9.9999998E-03; -1.4003073E-01;1781; -1.5665446E-01;  0.0000000E+00; -1.4562234E-02;  1.0021538E+03;  4.0000236E-01;  1.7843392E+03;3; -4.1856644E+01;  0.0000000E+00; -4.3651052E+00;0; -6.4435810E-01;  1.0049024E+04;  0.0000000E+00;  4.3664463E-06;  1.0000000E+04;  0.0000000E+00;  9.9940010E+03; -7.4740767E-01;  0.0000000E+00;  1.0304960E-01;  3.0386196E+03;
  4.7961497E-01;  9.9999998E-03; -1.2002531E-01;1782; -1.5617926E-01;  0.0000000E+00; -1.2443641E-02;  1.0021283E+03;  4.0000233E-01;  1.7632041E+03;3; -4.2755905E+01;  0.0000000E+00; -4.0107346E+00;0; -6.4479882E-01;  1.0048212E+04;  0.0000000E+00;  1.0156600E-06;  1.0000000E+04;  0.0000000E+00;  9.9943057E+03; -7.4869525E-01;  0.0000000E+00;  1.0389644E-01;  2.8827529E+03;
  4.7962064E-01;  9.9999998E-03; -1.0002036E-01;1783; -1.5570891E-01;  0.0000000E+00; -1.0343599E-02;  1.0021064E+03;  4.0000242E-01;  1.7451306E+03;3; -4.3557095E+01;  0.0000000E+00; -3.5782688E+00;0; -6.4582688E-01;  1.0047498E+04;  0.0000000E+00; -2.9751112E-07;  1.0000000E+04;  0.0000000E+00;  9.9945820E+03; -7.4983865E-01;  0.0000000E+00;  1.0401179E-01;  2.7410142E+03;
  4.7962546E-01;  9.9999998E-03; -8.0015816E-02;1784; -1.5528609E-01;  0.0000000E+00; -8.2645016E-03;  1.0020892E+03;  4.0000218E-01;  1.7309088E+03;3; -4.4244617E+01;  0.0000000E+00; -3.0415168E+00;0; -6.4733875E-01;  1.0046896E+04;  0.0000000E+00; -4.4270803E-07;  1.0000000E+04;  0.0000000E+00;  9.9948359E+03; -7.5083327E-01;  0.0000000E+00;  1.0349450E-01;  2.6118887E+03;
  4.7962928E-01;  9.9999998E-03; -6.0011607E-02;1785; -1.5493353E-01;  0.0000000E+00; -6.1993604E-03;  1.0020763E+03;  4.0000242E-01;  1.7201437E+03;3; -4.4800480E+01;  0.0000000E+00; -2.3993373E+00;0; -6.4899492E-01;  1.0046418E+04;  0.0000000E+00; -2.8401547E-07;  1.0000000E+04;  0.0000000E+00;  9.9950547E+03; -7.5165492E-01;  0.0000000E+00;  1.0265999E-01;  2.5018955E+03;
  4.7963208E-01;  9.9999998E-03; -4.0007621E-02;1786; -1.5466635E-01;  0.0000000E+00; -4.1368250E-03;  1.0020673E+03;  4.0000230E-01;  1.7126377E+03;3; -4.5209717E+01;  0.0000000E+00; -1.6615223E+00;0; -6.5043575E-01;  1.0046072E+04;  0.0000000E+00; -1.3562534E-07;  1.0000000E+04;  0.0000000E+00;  9.9952227E+03; -7.5227016E-01;  0.0000000E+00;  1.0183440E-01;  2.4184238E+03;
  4.7963381E-01;  9.9999998E-03; -2.0003779E-02;1787; -1.5449859E-01;  0.0000000E+00; -2.0708635E-03;  1.0020620E+03;  4.0000224E-01;  1.7082922E+03;3; -4.5460125E+01;  0.0000000E+00; -8.4905952E-01;0; -6.5139914E-01;  1.0045860E+04;  0.0000000E+00; -3.8662900E-08;  1.0000000E+04;  0.0000000E+00;  9.9953271E+03; -7.5265306E-01;  0.0000000E+00;  1.0125390E-01;  2.3666345E+03;
  4.9954256E-01;  9.9999998E-03; -1.8005008E-01;1810; -1.7298704E-01;  0.0000000E+00; -2.0193342E-02;  1.0024120E+03;  4.0000540E-01;  1.9982566E+03;3; -4.2101112E+01;  0.0000000E+00; -4.5252161E+00;0; -6.8192911E-01;  1.0055599E+04;  0.0000000E+00;  3.3596472E-05;  1.0000000E+04;  0.0000000E+00;  9.9924570E+03; -7.8948265E-01;  0.0000000E+00;  1.0755356E-01;  3.8272346E+03;
  4.9955016E-01;  9.9999998E-03; -1.6004333E-01;1811; -1.7280623E-01;  0.0000000E+00; -1.7995119E-02;  1.0023788E+03;  4.0000522E-01;  1.9708008E+03;3; -4.3271969E+01;  0.0000000E+00; -4.3164043E+00;0; -6.8153125E-01;  1.0054528E+04;  0.0000000E+00;  2.3654937E-05;  1.0000000E+04;  0.0000000E+00;  9.9928662E+03; -7.9115820E-01;  0.0000000E+00;  1.0962697E-01;  3.6170779E+03;
  4.9955788E-01;  9.9999998E-03; -1.4003685E-01;1812; -1.7243941E-01;  0.0000000E+00; -1.5728779E-02;  1.0023437E+03;  4.0000531E-01;  1.9416659E+03;3; -4.4412022E+01;  0.0000000E+00; -4.0963621E+00;0; -6.8087995E-01;  1.0053546E+04;  0.0000000E+00;  1.4902582E-05;  1.0000000E+04;  0.0000000E+00;  9.9931387E+03; -7.9292512E-01;  0.0000000E+00;  1.1204520E-01;  3.4732595E+03;
  4.9956518E-01;  9.9999998E-03; -1.2003067E-01;1813; -1.7200616E-01;  0.0000000E+00; -1.3423365E-02;  1.0023107E+03;  4.0000525E-01;  1.9144075E+03;3; -4.5464439E+01;  0.0000000E+00; -3.7871053E+00;0; -6.8081117E-01;  1.0052668E+04;  0.0000000E+00;  6.6126795E-06;  1.0000000E+04;  0.0000000E+00;  9.9933486E+03; -7.9460597E-01;  0.0000000E+00;  1.1379478E-01;  3.3627410E+03;
  4.9957165E-01;  9.9999998E-03; -1.0002487E-01;1814; -1.7158489E-01;  0.0000000E+00; -1.1132714E-02;  1.0022824E+03;  4.0000528E-01;  1.8909021E+03;3; -4.6418827E+01;  0.0000000E+00; -3.3959560E+00;0; -6.8171293E-01;  1.0051902E+04;  0.0000000E+00;  2.1242915E-06;  1.0000000E+04;  0.0000000E+00;  9.9935537E+03; -7.9609108E-01;  0.0000000E+00;  1.1437818E-01;  3.2573823E+03;
  4.9957713E-01;  9.9999998E-03; -8.0019452E-02;1815; -1.7121285E-01;  0.0000000E+00; -8.8754594E-03;  1.0022604E+03;  4.0000531E-01;  1.8726311E+03;3; -4.7250660E+01;  0.0000000E+00; -2.9015870E+00;0; -6.8339700E-01;  1.0051258E+04;  0.0000000E+00;  4.6286971E-07;  1.0000000E+04;  0.0000000E+00;  9.9937549E+03; -7.9732174E-01;  0.0000000E+00;  1.1392473E-01;  3.1529648E+03;
  4.9958149E-01;  9.9999998E-03; -6.0014356E-02;1816; -1.7090553E-01;  0.0000000E+00; -6.6480311E-03;  1.0022446E+03;  4.0000525E-01;  1.8595945E+03;3; -4.7933441E+01;  0.0000000E+00; -2.3000846E+00;0; -6.8537277E-01;  1.0050743E+04;  0.0000000E+00;  1.9940268E-08;  1.0000000E+04;  0.0000000E+00;  9.9939453E+03; -7.9827166E-01;  0.0000000E+00;  1.1289888E-01;  3.0579280E+03;
  4.9958465E-01;  9.9999998E-03; -4.0009473E-02;1817; -1.7067374E-01;  0.0000000E+00; -4.4326298E-03;  1.0022332E+03;  4.0000540E-01;  1.8502120E+03;3; -4.8439625E+01;  0.0000000E+00; -1.6023875E+00;0; -6.8714219E-01;  1.0050371E+04;  0.0000000E+00; -3.4304037E-08;  1.0000000E+04;  0.0000000E+00;  9.9940977E+03; -7.9894018E-01;  0.0000000E+00;  1.1179797E-01;  2.9826953E+03;
  4.9958658E-01;  9.9999998E-03; -2.0004708E-02;1818; -1.7052847E-01;  0.0000000E+00; -2.2171286E-03;  1.0022272E+03;  4.0000540E-01;  1.8451752E+03;3; -4.8752140E+01;  0.0000000E+00; -8.2264954E-01;0; -6.8833888E-01;  1.0050142E+04;  0.0000000E+00; -6.5404357E-09;  1.0000000E+04;  0.0000000E+00;  9.9941904E+03; -7.9933482E-01;  0.0000000E+00;  1.1099597E-01;  2.9349016E+03;
  5.1948386E-01;  9.9999998E-03; -1.8005995E-01;1841; -1.8983108E-01;  0.0000000E+00; -2.1861592E-02;  1.0026011E+03;  4.0001476E-01;  2.1549895E+03;3; -4.4355278E+01;  0.0000000E+00; -3.9526918E+00;0; -7.1008217E-01;  1.0059783E+04;  0.0000000E+00;  7.0180758E-05;  1.0000000E+04;  0.0000000E+00;  9.9915830E+03; -8.2489622E-01;  0.0000000E+00;  1.1481407E-01;  4.2682056E+03;
  5.1949275E-01;  9.9999998E-03; -1.6005275E-01;1842; -1.8968782E-01;  0.0000000E+00; -1.9577086E-02;  1.0025579E+03;  4.0001482E-01;  2.1191387E+03;3; -4.5670383E+01;  0.0000000E+00; -3.7972293E+00;0; -7.0827734E-01;  1.0058592E+04;  0.0000000E+00;  5.3603486E-05;  1.0000000E+04;  0.0000000E+00;  9.9919053E+03; -8.2656568E-01;  0.0000000E+00;  1.1828831E-01;  4.0996826E+03;
  5.1950163E-01;  9.9999998E-03; -1.4004545E-01;1843; -1.8936498E-01;  0.0000000E+00; -1.7143643E-02;  1.0025126E+03;  4.0001482E-01;  2.0816091E+03;3; -4.6959831E+01;  0.0000000E+00; -3.6123221E+00;0; -7.0645082E-01;  1.0057538E+04;  0.0000000E+00;  3.7748301E-05;  1.0000000E+04;  0.0000000E+00;  9.9920449E+03; -8.2868212E-01;  0.0000000E+00;  1.2223133E-01;  4.0195173E+03;
  5.1950991E-01;  9.9999998E-03; -1.2003823E-01;1844; -1.8898092E-01;  0.0000000E+00; -1.4618302E-02;  1.0024702E+03;  4.0001473E-01;  2.0465486E+03;3; -4.8181896E+01;  0.0000000E+00; -3.3797691E+00;0; -7.0561868E-01;  1.0056615E+04;  0.0000000E+00;  2.0077880E-05;  1.0000000E+04;  0.0000000E+00;  9.9921182E+03; -8.3081406E-01;  0.0000000E+00;  1.2519538E-01;  3.9742998E+03;
  5.1951730E-01;  9.9999998E-03; -1.0003124E-01;1845; -1.8860909E-01;  0.0000000E+00; -1.2087930E-02;  1.0024351E+03;  4.0001476E-01;  2.0174138E+03;3; -4.9299713E+01;  0.0000000E+00; -3.0457702E+00;0; -7.0623964E-01;  1.0055817E+04;  0.0000000E+00;  8.4286257E-06;  1.0000000E+04;  0.0000000E+00;  9.9922148E+03; -8.3268398E-01;  0.0000000E+00;  1.2644434E-01;  3.9215181E+03;
  5.1952350E-01;  9.9999998E-03; -8.0024585E-02;1846; -1.8828538E-01;  0.0000000E+00; -9.6024787E-03;  1.0024083E+03;  4.0001470E-01;  1.9951923E+03;3; -5.0286469E+01;  0.0000000E+00; -2.6136167E+00;0; -7.0803273E-01;  1.0055146E+04;  0.0000000E+00;  2.9109974E-06;  1.0000000E+04;  0.0000000E+00;  9.9923496E+03; -8.3416331E-01;  0.0000000E+00;  1.2613057E-01;  3.8532688E+03;
  5.1952839E-01;  9.9999998E-03; -6.0018223E-02;1847; -1.8802102E-01;  0.0000000E+00; -7.1687135E-03;  1.0023887E+03;  4.0001485E-01;  1.9789954E+03;3; -5.1106236E+01;  0.0000000E+00; -2.0801685E+00;0; -7.1032655E-01;  1.0054610E+04;  0.0000000E+00;  8.6115421E-07;  1.0000000E+04;  0.0000000E+00;  9.9924932E+03; -8.3522862E-01;  0.0000000E+00;  1.2490206E-01;  3.7805730E+03;
  5.1953202E-01;  9.9999998E-03; -4.0012065E-02;1848; -1.8782169E-01;  0.0000000E+00; -4.7693639E-03;  1.0023755E+03;  4.0001479E-01;  1.9680326E+03;3; -5.1722374E+01;  0.0000000E+00; -1.4509189E+00;0; -7.1244520E-01;  1.0054220E+04;  0.0000000E+00;  2.0771591E-07;  1.0000000E+04;  0.0000000E+00;  9.9926172E+03; -8.3591980E-01;  0.0000000E+00;  1.2347461E-01;  3.7179702E+03;
  5.1953417E-01;  9.9999998E-03; -2.0006012E-02;1849; -1.8769595E-01;  0.0000000E+00; -2.3847220E-03;  1.0023682E+03;  4.0001476E-01;  1.9620081E+03;3; -5.2105408E+01;  0.0000000E+00; -7.4587989E-01;0; -7.1389842E-01;  1.0053980E+04;  0.0000000E+00;  3.8432351E-08;  1.0000000E+04;  0.0000000E+00;  9.9927012E+03; -8.3630008E-01;  0.0000000E+00;  1.2240166E-01;  3.6764546E+03;
  5.3941971E-01;  9.9999998E-03; -1.8007365E-01;1872; -2.0769604E-01;  0.0000000E+00; -2.3965081E-02;  1.0027526E+03;  4.0003952E-01;  2.2805117E+03;3; -4.6574059E+01;  0.0000000E+00; -3.1527271E+00;0; -7.1914113E-01;  1.0062734E+04;  0.0000000E+00;  1.1242535E-04;  1.0000000E+04;  0.0000000E+00;  9.9904033E+03; -8.4286207E-01;  0.0000000E+00;  1.2372091E-01;  4.8545249E+03;
  5.3942984E-01;  9.9999998E-03; -1.6006570E-01;1873; -2.0761564E-01;  0.0000000E+00; -2.1572702E-02;  1.0027010E+03;  4.0003976E-01;  2.2377478E+03;3; -4.8038021E+01;  0.0000000E+00; -3.0695558E+00;0; -7.1597564E-01;  1.0061463E+04;  0.0000000E+00;  9.1718633E-05;  1.0000000E+04;  0.0000000E+00;  9.9906309E+03; -8.4464407E-01;  0.0000000E+00;  1.2866840E-01;  4.7300156E+03;
  5.3943992E-01;  9.9999998E-03; -1.4005728E-01;1874; -2.0735960E-01;  0.0000000E+00; -1.8928688E-02;  1.0026468E+03;  4.0003937E-01;  2.1928110E+03;3; -4.9493710E+01;  0.0000000E+00; -2.9291198E+00;0; -7.1295458E-01;  1.0060380E+04;  0.0000000E+00;  7.3423646E-05;  1.0000000E+04;  0.0000000E+00;  9.9906260E+03; -8.4721494E-01;  0.0000000E+00;  1.3426037E-01;  4.7216973E+03;
  5.3944927E-01;  9.9999998E-03; -1.2004860E-01;1875; -2.0703879E-01;  0.0000000E+00; -1.6133146E-02;  1.0025959E+03;  4.0003958E-01;  2.1506399E+03;3; -5.0886314E+01;  0.0000000E+00; -2.7590635E+00;0; -7.1130252E-01;  1.0059445E+04;  0.0000000E+00;  4.4645021E-05;  1.0000000E+04;  0.0000000E+00;  9.9905381E+03; -8.4989035E-01;  0.0000000E+00;  1.3858786E-01;  4.7536987E+03;
  5.3945756E-01;  9.9999998E-03; -1.0003997E-01;1876; -2.0671859E-01;  0.0000000E+00; -1.3295727E-02;  1.0025541E+03;  4.0003970E-01;  2.1159744E+03;3; -5.2174892E+01;  0.0000000E+00; -2.4874053E+00;0; -7.1159524E-01;  1.0058643E+04;  0.0000000E+00;  2.1412596E-05;  1.0000000E+04;  0.0000000E+00;  9.9905039E+03; -8.5222185E-01;  0.0000000E+00;  1.4062662E-01;  4.7654492E+03;
  5.3946453E-01;  9.9999998E-03; -8.0031596E-02;1877; -2.0643851E-01;  0.0000000E+00; -1.0517357E-02;  1.0025224E+03;  4.0003973E-01;  2.0897036E+03;3; -5.3325459E+01;  0.0000000E+00; -2.1383159E+00;0; -7.1348768E-01;  1.0057967E+04;  0.0000000E+00;  8.4312451E-06;  1.0000000E+04;  0.0000000E+00;  9.9905449E+03; -8.5400409E-01;  0.0000000E+00;  1.4051642E-01;  4.7428579E+03;
  5.3947008E-01;  9.9999998E-03; -6.0023498E-02;1878; -2.0620891E-01;  0.0000000E+00; -7.8186272E-03;  1.0025000E+03;  4.0003973E-01;  2.0712351E+03;3; -5.4289635E+01;  0.0000000E+00; -1.7053362E+00;0; -7.1611810E-01;  1.0057425E+04;  0.0000000E+00;  2.7968563E-06;  1.0000000E+04;  0.0000000E+00;  9.9906318E+03; -8.5521454E-01;  0.0000000E+00;  1.3909641E-01;  4.6991250E+03;
  5.3947413E-01;  9.9999998E-03; -4.0015586E-02;1879; -2.0603506E-01;  0.0000000E+00; -5.1824721E-03;  1.0024848E+03;  4.0003976E-01;  2.0585938E+03;3; -5.5021290E+01;  0.0000000E+00; -1.1932834E+00;0; -7.1861881E-01;  1.0057031E+04;  0.0000000E+00;  8.2713262E-07;  1.0000000E+04;  0.0000000E+00;  9.9907197E+03; -8.5594332E-01;  0.0000000E+00;  1.3732451E-01;  4.6533770E+03;
  5.3947657E-01;  9.9999998E-03; -2.0007774E-02;1880; -2.0592511E-01;  0.0000000E+00; -2.5826355E-03;  1.0024763E+03;  4.0003964E-01;  2.0514829E+03;3; -5.5478680E+01;  0.0000000E+00; -6.1309171E-01;0; -7.2035527E-01;  1.0056787E+04;  0.0000000E+00;  1.6908383E-07;  1.0000000E+04;  0.0000000E+00;  9.9907900E+03; -8.5631323E-01;  0.0000000E+00;  1.3595799E-01;  4.6204980E+03;
  5.5935144E-01;  9.9999998E-03; -1.8009226E-01;1903; -2.2620545E-01;  0.0000000E+00; -2.6723970E-02;  1.0028811E+03;  4.0010667E-01;  2.3868728E+03;3; -4.8696163E+01;  0.0000000E+00; -2.1324725E+00;0; -6.9793469E-01;  1.0063608E+04;  0.0000000E+00;  1.2955921E-04;  1.0000000E+04;  0.0000000E+00;  9.9887031E+03; -8.3404756E-01;  0.0000000E+00;  1.3611287E-01;  5.6866245E+03;
  5.5936271E-01;  9.9999998E-03; -1.6008312E-01;1904; -2.2625068E-01;  0.0000000E+00; -2.4136374E-02;  1.0028270E+03;  4.0010685E-01;  2.3421338E+03;3; -5.0337818E+01;  0.0000000E+00; -2.0856185E+00;0; -6.9418460E-01;  1.0062342E+04;  0.0000000E+00;  1.0636907E-04;  1.0000000E+04;  0.0000000E+00;  9.9888789E+03; -8.3635384E-01;  0.0000000E+00;  1.4216922E-01;  5.5862666E+03;
  5.5937386E-01;  9.9999998E-03; -1.4007302E-01;1905; -2.2610815E-01;  0.0000000E+00; -2.1194099E-02;  1.0027680E+03;  4.0010676E-01;  2.2932466E+03;3; -5.1953320E+01;  0.0000000E+00; -2.0100977E+00;0; -6.9061321E-01;  1.0061282E+04;  0.0000000E+00;  1.0344535E-04;  1.0000000E+04;  0.0000000E+00;  9.9887578E+03; -8.3965743E-01;  0.0000000E+00;  1.4904420E-01;  5.6351313E+03;
  5.5938423E-01;  9.9999998E-03; -1.2006235E-01;1906; -2.2588640E-01;  0.0000000E+00; -1.8038532E-02;  1.0027117E+03;  4.0010682E-01;  2.2465322E+03;3; -5.3524353E+01;  0.0000000E+00; -1.8843251E+00;0; -6.8858874E-01;  1.0060380E+04;  0.0000000E+00;  7.4538315E-05;  1.0000000E+04;  0.0000000E+00;  9.9885254E+03; -8.4308672E-01;  0.0000000E+00;  1.5449801E-01;  5.7391001E+03;
  5.5939341E-01;  9.9999998E-03; -1.0005154E-01;1907; -2.2563277E-01;  0.0000000E+00; -1.4814749E-02;  1.0026650E+03;  4.0010682E-01;  2.2078176E+03;3; -5.4990250E+01;  0.0000000E+00; -1.6793158E+00;0; -6.8881178E-01;  1.0059614E+04;  0.0000000E+00;  4.0943949E-05;  1.0000000E+04;  0.0000000E+00;  9.9883516E+03; -8.4605610E-01;  0.0000000E+00;  1.5724432E-01;  5.8178062E+03;
  5.5940115E-01;  9.9999998E-03; -8.0040909E-02;1908; -2.2539549E-01;  0.0000000E+00; -1.1674710E-02;  1.0026296E+03;  4.0010682E-01;  2.1784854E+03;3; -5.6307678E+01;  0.0000000E+00; -1.4360921E+00;0; -6.9094855E-01;  1.0058973E+04;  0.0000000E+00;  1.7913684E-05;  1.0000000E+04;  0.0000000E+00;  9.9882891E+03; -8.4829944E-01;  0.0000000E+00;  1.5735088E-01;  5.8463799E+03;
  5.5940735E-01;  9.9999998E-03; -6.0030494E-02;1909; -2.2519243E-01;  0.0000000E+00; -8.6518256E-03;  1.0026047E+03;  4.0010694E-01;  2.1579429E+03;3; -5.7423054E+01;  0.0000000E+00; -1.1377168E+00;0; -6.9400311E-01;  1.0058455E+04;  0.0000000E+00;  6.4999972E-06;  1.0000000E+04;  0.0000000E+00;  9.9883057E+03; -8.4979421E-01;  0.0000000E+00;  1.5579113E-01;  5.8371938E+03;
  5.5941182E-01;  9.9999998E-03; -4.0020254E-02;1910; -2.2503842E-01;  0.0000000E+00; -5.7168179E-03;  1.0025883E+03;  4.0010706E-01;  2.1443140E+03;3; -5.8275177E+01;  0.0000000E+00; -7.9200304E-01;0; -6.9693577E-01;  1.0058074E+04;  0.0000000E+00;  2.0337523E-06;  1.0000000E+04;  0.0000000E+00;  9.9883555E+03; -8.5066736E-01;  0.0000000E+00;  1.5373157E-01;  5.8128257E+03;
  5.5941457E-01;  9.9999998E-03; -2.0010106E-02;1911; -2.2493917E-01;  0.0000000E+00; -2.8446007E-03;  1.0025788E+03;  4.0010694E-01;  2.1365117E+03;3; -5.8812492E+01;  0.0000000E+00; -4.1092435E-01;0; -6.9898325E-01;  1.0057839E+04;  0.0000000E+00;  4.3263387E-07;  1.0000000E+04;  0.0000000E+00;  9.9884063E+03; -8.5109609E-01;  0.0000000E+00;  1.5211283E-01;  5.7915361E+03;
  5.7928175E-01;  9.9999998E-03; -1.8011642E-01;1934; -2.4458292E-01;  0.0000000E+00; -3.0157704E-02;  1.0030922E+03;  4.0028471E-01;  2.5617715E+03;3; -5.0603691E+01;  0.0000000E+00; -8.3330894E-01;0; -6.3291478E-01;  1.0061367E+04;  0.0000000E+00;  7.9423866E-05;  1.0000000E+04;  0.0000000E+00;  9.9862441E+03; -7.8707319E-01;  0.0000000E+00;  1.5415843E-01;  6.8767832E+03;
  5.7929397E-01;  9.9999998E-03; -1.6010520E-01;1935; -2.4485272E-01;  0.0000000E+00; -2.7251281E-02;  1.0030455E+03;  4.0028462E-01;  2.5231558E+03;3; -5.2418983E+01;  0.0000000E+00; -8.4983033E-01;0; -6.3020205E-01;  1.0060215E+04;  0.0000000E+00;  4.4767894E-05;  1.0000000E+04;  0.0000000E+00;  9.9864531E+03; -7.9080439E-01;  0.0000000E+00;  1.6060232E-01;  6.7605474E+03;
  5.7930601E-01;  9.9999998E-03; -1.4009272E-01;1936; -2.4491760E-01;  0.0000000E+00; -2.3899524E-02;  1.0029907E+03;  4.0028477E-01;  2.4777256E+03;3; -5.4247005E+01;  0.0000000E+00; -8.1865400E-01;0; -6.2761974E-01;  1.0059272E+04;  0.0000000E+00;  8.7551532E-05;  1.0000000E+04;  0.0000000E+00;  9.9862939E+03; -7.9547906E-01;  0.0000000E+00;  1.6785929E-01;  6.8269233E+03;
  5.7931727E-01;  9.9999998E-03; -1.2007946E-01;1937; -2.4483944E-01;  0.0000000E+00; -2.0305537E-02;  1.0029354E+03;  4.0028480E-01;  2.4319001E+03;3; -5.6011124E+01;  0.0000000E+00; -7.4003428E-01;0; -6.2646163E-01;  1.0058476E+04;  0.0000000E+00;  8.8390771E-05;  1.0000000E+04;  0.0000000E+00;  9.9859736E+03; -8.0015469E-01;  0.0000000E+00;  1.7369308E-01;  6.9754023E+03;
  5.7932729E-01;  9.9999998E-03; -1.0006586E-01;1938; -2.4467947E-01;  0.0000000E+00; -1.6626962E-02;  1.0028876E+03;  4.0028486E-01;  2.3922969E+03;3; -5.7654903E+01;  0.0000000E+00; -6.1475837E-01;0; -6.2742352E-01;  1.0057801E+04;  0.0000000E+00;  5.9320657E-05;  1.0000000E+04;  0.0000000E+00;  9.9856875E+03; -8.0417627E-01;  0.0000000E+00;  1.7675273E-01;  7.1092813E+03;
  5.7933581E-01;  9.9999998E-03; -8.0052353E-02;1939; -2.4448992E-01;  0.0000000E+00; -1.3060894E-02;  1.0028511E+03;  4.0028489E-01;  2.3620759E+03;3; -5.9134808E+01;  0.0000000E+00; -5.0065267E-01;0; -6.3023692E-01;  1.0057238E+04;  0.0000000E+00;  2.9366358E-05;  1.0000000E+04;  0.0000000E+00;  9.9855244E+03; -8.0724496E-01;  0.0000000E+00;  1.7700805E-01;  7.1881777E+03;
  5.7934260E-01;  9.9999998E-03; -6.0039077E-02;1940; -2.4430113E-01;  0.0000000E+00; -9.6621951E-03;  1.0028256E+03;  4.0028498E-01;  2.3409409E+03;3; -6.0388409E+01;  0.0000000E+00; -4.0663147E-01;0; -6.3390005E-01;  1.0056775E+04;  0.0000000E+00;  1.1631236E-05;  1.0000000E+04;  0.0000000E+00;  9.9854668E+03; -8.0933177E-01;  0.0000000E+00;  1.7543171E-01;  7.2176172E+03;
  5.7934755E-01;  9.9999998E-03; -4.0025994E-02;1941; -2.4415562E-01;  0.0000000E+00; -6.3702082E-03;  1.0028088E+03;  4.0028507E-01;  2.3270154E+03;3; -6.1379658E+01;  0.0000000E+00; -2.5529668E-01;0; -6.3731360E-01;  1.0056437E+04;  0.0000000E+00;  3.8990524E-06;  1.0000000E+04;  0.0000000E+00;  9.9854668E+03; -8.1058604E-01;  0.0000000E+00;  1.7327245E-01;  7.2198384E+03;
  5.7935065E-01;  9.9999998E-03; -2.0012990E-02;1942; -2.4405749E-01;  0.0000000E+00; -3.1653964E-03;  1.0027988E+03;  4.0028495E-01;  2.3187192E+03;3; -6.1995152E+01;  0.0000000E+00; -1.3783452E-01;0; -6.3966453E-01;  1.0056222E+04;  0.0000000E+00;  8.6792659E-07;  1.0000000E+04;  0.0000000E+00;  9.9854824E+03; -8.1122166E-01;  0.0000000E+00;  1.7155711E-01;  7.2142212E+03;
  5.9921443E-01;  9.9999998E-03; -1.8014491E-01;1965; -2.6182389E-01;  0.0000000E+00; -3.4068935E-02;  1.0037090E+03;  4.0073651E-01;  3.0727490E+03;3; -5.2184414E+01;  0.0000000E+00;  7.4634737E-01;0; -5.0489223E-01;  1.0054517E+04;  0.0000000E+00; -7.7682744E-05;  1.0000000E+04;  0.0000000E+00;  9.9828398E+03; -6.8431622E-01;  0.0000000E+00;  1.7942400E-01;  8.5075996E+03;
  5.9922779E-01;  9.9999998E-03; -1.6013147E-01;1966; -2.6229531E-01;  0.0000000E+00; -3.0845977E-02;  1.0036839E+03;  4.0073678E-01;  3.0520093E+03;3; -5.4202843E+01;  0.0000000E+00;  6.9652200E-01;0; -5.0551593E-01;  1.0053668E+04;  0.0000000E+00; -1.4463058E-04;  1.0000000E+04;  0.0000000E+00;  9.9831670E+03; -6.9118416E-01;  0.0000000E+00;  1.8566820E-01;  8.3340488E+03;
  5.9924072E-01;  9.9999998E-03; -1.4011639E-01;1967; -2.6259509E-01;  0.0000000E+00; -2.7045187E-02;  1.0036444E+03;  4.0073693E-01;  3.0193196E+03;3; -5.6239826E+01;  0.0000000E+00;  7.1426612E-01;0; -5.0605655E-01;  1.0052959E+04;  0.0000000E+00; -2.3337798E-05;  1.0000000E+04;  0.0000000E+00;  9.9830801E+03; -6.9833529E-01;  0.0000000E+00;  1.9227874E-01;  8.3670576E+03;
  5.9925276E-01;  9.9999998E-03; -1.2010004E-01;1968; -2.6269001E-01;  0.0000000E+00; -2.2928419E-02;  1.0035991E+03;  4.0073702E-01;  2.9816914E+03;3; -5.8181877E+01;  0.0000000E+00;  7.7554715E-01;0; -5.0761354E-01;  1.0052364E+04;  0.0000000E+00;  5.1029951E-05;  1.0000000E+04;  0.0000000E+00;  9.9827588E+03; -7.0509720E-01;  0.0000000E+00;  1.9748364E-01;  8.5171895E+03;
  5.9926349E-01;  9.9999998E-03; -1.0008308E-01;1969; -2.6264489E-01;  0.0000000E+00; -1.8730810E-02;  1.0035570E+03;  4.0073714E-01;  2.9468286E+03;3; -6.0004612E+01;  0.0000000E+00;  8.2903302E-01;0; -5.1062632E-01;  1.0051854E+04;  0.0000000E+00;  5.8162110E-05;  1.0000000E+04;  0.0000000E+00;  9.9824209E+03; -7.1086526E-01;  0.0000000E+00;  2.0023897E-01;  8.6809434E+03;
  5.9927261E-01;  9.9999998E-03; -8.0066137E-02;1970; -2.6250020E-01;  0.0000000E+00; -1.4687238E-02;  1.0035229E+03;  4.0073743E-01;  2.9185830E+03;3; -6.1619141E+01;  0.0000000E+00;  7.3898447E-01;0; -5.1481593E-01;  1.0051419E+04;  0.0000000E+00;  3.5099045E-05;  1.0000000E+04;  0.0000000E+00;  9.9821729E+03; -7.1534312E-01;  0.0000000E+00;  2.0052721E-01;  8.8017041E+03;
  5.9928000E-01;  9.9999998E-03; -6.0049448E-02;1971; -2.6233581E-01;  0.0000000E+00; -1.0815997E-02;  1.0034984E+03;  4.0073755E-01;  2.8983372E+03;3; -6.3036037E+01;  0.0000000E+00;  6.7881918E-01;0; -5.1933253E-01;  1.0051060E+04;  0.0000000E+00;  1.5271367E-05;  1.0000000E+04;  0.0000000E+00;  9.9820322E+03; -7.1850348E-01;  0.0000000E+00;  1.9917095E-01;  8.8713135E+03;
  5.9928542E-01;  9.9999998E-03; -4.0032960E-02;1972; -2.6217905E-01;  0.0000000E+00; -7.1057072E-03;  1.0034818E+03;  4.0073746E-01;  2.8846094E+03;3; -6.4112396E+01;  0.0000000E+00;  5.0827473E-01;0; -5.2321643E-01;  1.0050785E+04;  0.0000000E+00;  5.5387686E-06;  1.0000000E+04;  0.0000000E+00;  9.9819717E+03; -7.2049850E-01;  0.0000000E+00;  1.9728206E-01;  8.9054805E+03;
  5.9928882E-01;  9.9999998E-03; -2.0016501E-02;1973; -2.6206499E-01;  0.0000000E+00; -3.5199153E-03;  1.0034719E+03;  4.0073758E-01;  2.8764121E+03;3; -6.4766777E+01;  0.0000000E+00;  2.8061482E-01;0; -5.2577955E-01;  1.0050615E+04;  0.0000000E+00;  1.3005881E-06;  1.0000000E+04;  0.0000000E+00;  9.9819463E+03; -7.2156239E-01;  0.0000000E+00;  1.9578286E-01;  8.9205527E+03;
  6.1915356E-01;  9.9999998E-03; -1.8017709E-01;1996; -2.7691150E-01;  0.0000000E+00; -3.8054641E-02;  1.0054041E+03;  4.0177336E-01;  4.4771025E+03;3; -5.3399628E+01;  0.0000000E+00;  2.7150183E+00;0; -2.8564787E-01;  1.0041044E+04;  0.0000000E+00; -3.2226072E-04;  1.0000000E+04;  0.0000000E+00;  9.9784600E+03; -4.9758950E-01;  0.0000000E+00;  2.1194163E-01;  1.0586152E+04;
  6.1916822E-01;  9.9999998E-03; -1.6016130E-01;1997; -2.7751732E-01;  0.0000000E+00; -3.4476135E-02;  1.0054138E+03;  4.0177396E-01;  4.4851021E+03;3; -5.5627056E+01;  0.0000000E+00;  2.6490178E+00;0; -2.9187083E-01;  1.0040729E+04;  0.0000000E+00; -4.7383708E-04;  1.0000000E+04;  0.0000000E+00;  9.9789424E+03; -5.1005948E-01;  0.0000000E+00;  2.1818864E-01;  1.0338720E+04;
  6.1918199E-01;  9.9999998E-03; -1.4014329E-01;1998; -2.7800968E-01;  0.0000000E+00; -3.0273035E-02;  1.0054024E+03;  4.0177444E-01;  4.4757202E+03;3; -5.7821793E+01;  0.0000000E+00;  2.6614459E+00;0; -2.9755837E-01;  1.0040418E+04;  0.0000000E+00; -2.6034485E-04;  1.0000000E+04;  0.0000000E+00;  9.9790010E+03; -5.2122647E-01;  0.0000000E+00;  2.2366810E-01;  1.0301580E+04;
  6.1919469E-01;  9.9999998E-03; -1.2012349E-01;1999; -2.7827018E-01;  0.0000000E+00; -2.5700791E-02;  1.0053771E+03;  4.0177456E-01;  4.4547827E+03;3; -5.9917534E+01;  0.0000000E+00;  2.7019708E+00;0; -3.0358714E-01;  1.0040132E+04;  0.0000000E+00; -7.5658441E-05;  1.0000000E+04;  0.0000000E+00;  9.9787637E+03; -5.3113765E-01;  0.0000000E+00;  2.2755049E-01;  1.0414102E+04;
  6.1920589E-01;  9.9999998E-03; -1.0010293E-01;2000; -2.7832681E-01;  0.0000000E+00; -2.1043394E-02;  1.0053475E+03;  4.0177497E-01;  4.4301914E+03;3; -6.1863308E+01;  0.0000000E+00;  2.6807163E+00;0; -3.0996060E-01;  1.0039862E+04;  0.0000000E+00;  6.4953870E-06;  1.0000000E+04;  0.0000000E+00;  9.9784287E+03; -5.3949648E-01;  0.0000000E+00;  2.2953588E-01;  1.0578976E+04;
  6.1921555E-01;  9.9999998E-03; -8.0082297E-02;2001; -2.7825549E-01;  0.0000000E+00; -1.6478147E-02;  1.0053208E+03;  4.0177521E-01;  4.4080693E+03;3; -6.3580719E+01;  0.0000000E+00;  2.5028403E+00;0; -3.1621766E-01;  1.0039622E+04;  0.0000000E+00;  1.6624905E-05;  1.0000000E+04;  0.0000000E+00;  9.9781270E+03; -5.4608363E-01;  0.0000000E+00;  2.2986597E-01;  1.0728441E+04;
  6.1922348E-01;  9.9999998E-03; -6.0061723E-02;2002; -2.7810436E-01;  0.0000000E+00; -1.2116710E-02;  1.0052999E+03;  4.0177542E-01;  4.3907861E+03;3; -6.5055626E+01;  0.0000000E+00;  2.1653607E+00;0; -3.2172558E-01;  1.0039410E+04;  0.0000000E+00;  8.4252579E-06;  1.0000000E+04;  0.0000000E+00;  9.9779082E+03; -5.5088609E-01;  0.0000000E+00;  2.2916052E-01;  1.0837285E+04;
  6.1922932E-01;  9.9999998E-03; -4.0041234E-02;2003; -2.7793431E-01;  0.0000000E+00; -7.9544988E-03;  1.0052847E+03;  4.0177548E-01;  4.3781450E+03;3; -6.6157173E+01;  0.0000000E+00;  1.6345403E+00;0; -3.2591075E-01;  1.0039239E+04;  0.0000000E+00;  3.4999973E-06;  1.0000000E+04;  0.0000000E+00;  9.9777725E+03; -5.5405509E-01;  0.0000000E+00;  2.2814435E-01;  1.0908264E+04;
  6.1923295E-01;  9.9999998E-03; -2.0020695E-02;2004; -2.7781308E-01;  0.0000000E+00; -3.9472342E-03;  1.0052755E+03;  4.0177560E-01;  4.3705400E+03;3; -6.6863022E+01;  0.0000000E+00;  8.9233392E-01;0; -3.2845771E-01;  1.0039131E+04;  0.0000000E+00;  1.0338274E-06;  1.0000000E+04;  0.0000000E+00;  9.9776924E+03; -5.5581731E-01;  0.0000000E+00;  2.2735961E-01;  1.0949363E+04;
  6.3910246E-01;  9.9999998E-03; -1.8021283E-01;2027; -2.8910643E-01;  0.0000000E+00; -4.1912474E-02;  1.0088016E+03;  4.0368259E-01;  7.2917144E+03;3; -5.4248444E+01;  0.0000000E+00;  5.0948100E+00;0;  5.4735884E-02;  1.0018975E+04;  0.0000000E+00; -4.5512122E-04;  1.0000000E+04;  0.0000000E+00;  9.9733027E+03; -1.9489767E-01;  0.0000000E+00;  2.4963355E-01;  1.3009897E+04;
  6.3911813E-01;  9.9999998E-03; -1.6019365E-01;2028; -2.8984407E-01;  0.0000000E+00; -3.7821952E-02;  1.0088544E+03;  4.0368310E-01;  7.3354648E+03;3; -5.6595852E+01;  0.0000000E+00;  4.9998651E+00;0;  4.2453915E-02;  1.0019421E+04;  0.0000000E+00; -8.2086201E-04;  1.0000000E+04;  0.0000000E+00;  9.9738701E+03; -2.1493518E-01;  0.0000000E+00;  2.5738910E-01;  1.2720081E+04;
  6.3913238E-01;  9.9999998E-03; -1.4017205E-01;2029; -2.9051372E-01;  0.0000000E+00; -3.3179432E-02;  1.0088786E+03;  4.0368366E-01;  7.3555127E+03;3; -5.8922005E+01;  0.0000000E+00;  5.0143199E+00;0;  3.0957431E-02;  1.0019665E+04;  0.0000000E+00; -5.7290273E-04;  1.0000000E+04;  0.0000000E+00;  9.9740762E+03; -2.3145577E-01;  0.0000000E+00;  2.6241320E-01;  1.2616269E+04;
  6.3914531E-01;  9.9999998E-03; -1.2014844E-01;2030; -2.9094687E-01;  0.0000000E+00; -2.8309716E-02;  1.0088805E+03;  4.0368420E-01;  7.3570923E+03;3; -6.1098995E+01;  0.0000000E+00;  4.9679999E+00;0;  1.9794077E-02;  1.0019807E+04;  0.0000000E+00; -2.9390294E-04;  1.0000000E+04;  0.0000000E+00;  9.9739434E+03; -2.4540332E-01;  0.0000000E+00;  2.6519740E-01;  1.2678999E+04;
  6.3915706E-01;  9.9999998E-03; -1.0012377E-01;2031; -2.9111850E-01;  0.0000000E+00; -2.3303786E-02;  1.0088701E+03;  4.0368474E-01;  7.3484014E+03;3; -6.3125118E+01;  0.0000000E+00;  4.8035350E+00;0;  9.5679462E-03;  1.0019874E+04;  0.0000000E+00; -1.2107103E-04;  1.0000000E+04;  0.0000000E+00;  9.9736387E+03; -2.5701365E-01;  0.0000000E+00;  2.6658159E-01;  1.2829402E+04;
  6.3916737E-01;  9.9999998E-03; -8.0098994E-02;2032; -2.9111442E-01;  0.0000000E+00; -1.8313359E-02;  1.0088552E+03;  4.0368512E-01;  7.3361553E+03;3; -6.4925186E+01;  0.0000000E+00;  4.4132395E+00;0;  1.1132360E-03;  1.0019894E+04;  0.0000000E+00; -5.0458508E-05;  1.0000000E+04;  0.0000000E+00;  9.9733027E+03; -2.6625854E-01;  0.0000000E+00;  2.6737177E-01;  1.2997978E+04;
  6.3917571E-01;  9.9999998E-03; -6.0074329E-02;2033; -2.9097521E-01;  0.0000000E+00; -1.3522560E-02;  1.0088401E+03;  4.0368539E-01;  7.3236128E+03;3; -6.6383995E+01;  0.0000000E+00;  3.7196863E+00;0; -5.1010847E-03;  1.0019878E+04;  0.0000000E+00; -2.3614810E-05;  1.0000000E+04;  0.0000000E+00;  9.9730098E+03; -2.7316502E-01;  0.0000000E+00;  2.6806393E-01;  1.3145324E+04;
  6.3918191E-01;  9.9999998E-03; -4.0049747E-02;2034; -2.9080331E-01;  0.0000000E+00; -8.9199059E-03;  1.0088280E+03;  4.0368563E-01;  7.3136382E+03;3; -6.7537735E+01;  0.0000000E+00;  2.6099777E+00;0; -9.0740323E-03;  1.0019850E+04;  0.0000000E+00; -8.7650114E-06;  1.0000000E+04;  0.0000000E+00;  9.9727871E+03; -2.7787077E-01;  0.0000000E+00;  2.6879674E-01;  1.3258055E+04;
  6.3918579E-01;  9.9999998E-03; -2.0024970E-02;2035; -2.9064780E-01;  0.0000000E+00; -4.4333870E-03;  1.0088197E+03;  4.0368572E-01;  7.3067251E+03;3; -6.8258759E+01;  0.0000000E+00;  1.2819752E+00;0; -1.1153638E-02;  1.0019825E+04;  0.0000000E+00; -1.5421091E-06;  1.0000000E+04;  0.0000000E+00;  9.9726426E+03; -2.8057361E-01;  0.0000000E+00;  2.6941997E-01;  1.3330763E+04;
  6.5906578E-01;  9.9999998E-03; -1.8025556E-01;2058; -2.9766491E-01;  0.0000000E+00; -4.6384729E-02;  1.0129742E+03;  4.0610096E-01;  1.0748379E+04;3; -5.4710770E+01;  0.0000000E+00;  7.6983099E+00;0;  5.3032249E-01;  9.9875967E+03;  0.0000000E+00; -1.3488016E-04;  1.0000000E+04;  0.0000000E+00;  9.9678047E+03;  2.4197900E-01;  0.0000000E+00;  2.8834349E-01;  1.5564198E+04;
  6.5908158E-01;  9.9999998E-03; -1.6023108E-01;2059; -2.9864877E-01;  0.0000000E+00; -4.1239016E-02;  1.0130657E+03;  4.0610158E-01;  1.0824225E+04;3; -5.7188637E+01;  0.0000000E+00;  7.7976103E+00;0;  5.1536560E-01;  9.9888994E+03;  0.0000000E+00; -8.9973613E-04;  1.0000000E+04;  0.0000000E+00;  9.9682783E+03;  2.1486916E-01;  0.0000000E+00;  3.0049646E-01;  1.5319515E+04;
  6.5909582E-01;  9.9999998E-03; -1.4020509E-01;2060; -2.9951912E-01;  0.0000000E+00; -3.5994612E-02;  1.0131243E+03;  4.0610200E-01;  1.0872814E+04;3; -5.9580490E+01;  0.0000000E+00;  7.8103991E+00;0;  5.0032568E-01;  9.9898105E+03;  0.0000000E+00; -7.8168482E-04;  1.0000000E+04;  0.0000000E+00;  9.9684971E+03;  1.9316286E-01;  0.0000000E+00;  3.0716279E-01;  1.5208195E+04;
  6.5910870E-01;  9.9999998E-03; -1.2017660E-01;2061; -3.0011645E-01;  0.0000000E+00; -3.0580534E-02;  1.0131539E+03;  4.0610224E-01;  1.0897307E+04;3; -6.1810806E+01;  0.0000000E+00;  7.7275934E+00;0;  4.8559874E-01;  9.9904648E+03;  0.0000000E+00; -5.1935128E-04;  1.0000000E+04;  0.0000000E+00;  9.9684092E+03;  1.7528883E-01;  0.0000000E+00;  3.1030992E-01;  1.5252602E+04;
  6.5912038E-01;  9.9999998E-03; -1.0014711E-01;2062; -3.0048025E-01;  0.0000000E+00; -2.5114361E-02;  1.0131642E+03;  4.0610269E-01;  1.0905898E+04;3; -6.3878685E+01;  0.0000000E+00;  7.4041629E+00;0;  4.7270569E-01;  9.9909453E+03;  0.0000000E+00; -3.0287585E-04;  1.0000000E+04;  0.0000000E+00;  9.9681143E+03;  1.6050977E-01;  0.0000000E+00;  3.1219593E-01;  1.5400436E+04;
  6.5913075E-01;  9.9999998E-03; -8.0117829E-02;2063; -3.0055907E-01;  0.0000000E+00; -1.9743545E-02;  1.0131634E+03;  4.0610313E-01;  1.0905207E+04;3; -6.5679947E+01;  0.0000000E+00;  6.7541385E+00;0;  4.6313655E-01;  9.9912920E+03;  0.0000000E+00; -1.7084855E-04;  1.0000000E+04;  0.0000000E+00;  9.9677324E+03;  1.4864428E-01;  0.0000000E+00;  3.1449226E-01;  1.5591959E+04;
  6.5913934E-01;  9.9999998E-03; -6.0088888E-02;2064; -3.0047521E-01;  0.0000000E+00; -1.4605605E-02;  1.0131569E+03;  4.0610337E-01;  1.0899775E+04;3; -6.7118469E+01;  0.0000000E+00;  5.7357302E+00;0;  4.5734799E-01;  9.9915303E+03;  0.0000000E+00; -8.9498353E-05;  1.0000000E+04;  0.0000000E+00;  9.9673486E+03;  1.3961920E-01;  0.0000000E+00;  3.1772879E-01;  1.5782110E+04;
  6.5914571E-01;  9.9999998E-03; -4.0059716E-02;2065; -3.0032155E-01;  0.0000000E+00; -9.6300412E-03;  1.0131484E+03;  4.0610364E-01;  1.0892764E+04;3; -6.8209976E+01;  0.0000000E+00;  4.1177907E+00;0;  4.5468429E-01;  9.9916807E+03;  0.0000000E+00; -3.6135720E-05;  1.0000000E+04;  0.0000000E+00;  9.9670225E+03;  1.3332927E-01;  0.0000000E+00;  3.2135502E-01;  1.5943208E+04;
  6.5914959E-01;  9.9999998E-03; -2.0029996E-02;2066; -3.0014834E-01;  0.0000000E+00; -4.7427192E-03;  1.0131412E+03;  4.0610361E-01;  1.0886838E+04;3; -6.8836876E+01;  0.0000000E+00;  2.1493275E+00;0;  4.5388412E-01;  9.9917617E+03;  0.0000000E+00; -7.8535040E-06;  1.0000000E+04;  0.0000000E+00;  9.9667959E+03;  1.2963448E-01;  0.0000000E+00;  3.2424963E-01;  1.6053724E+04;
  6.7905265E-01;  9.9999998E-03; -1.8031666E-01;2089; -3.0044833E-01;  0.0000000E+00; -5.5180512E-02;  1.0155917E+03;  4.0804884E-01;  1.2916628E+04;3; -5.4582985E+01;  0.0000000E+00;  1.0269560E+01;0;  1.1194625E+00;  9.9487559E+03;  0.0000000E+00;  7.2417554E-04;  1.0000000E+04;  0.0000000E+00;  9.9625508E+03;  7.9653263E-01;  0.0000000E+00;  3.2292992E-01;  1.7967541E+04;
  6.7906779E-01;  9.9999998E-03; -1.6028440E-01;2090; -3.0183852E-01;  0.0000000E+00; -4.8249114E-02;  1.0157028E+03;  4.0804872E-01;  1.3008769E+04;3; -5.7263210E+01;  0.0000000E+00;  1.0729371E+01;0;  1.1096439E+00;  9.9508135E+03;  0.0000000E+00; -4.9911800E-04;  1.0000000E+04;  0.0000000E+00;  9.9626748E+03;  7.6665527E-01;  0.0000000E+00;  3.4298864E-01;  1.7892301E+04;
  6.7908114E-01;  9.9999998E-03; -1.4025232E-01;2091; -3.0316377E-01;  0.0000000E+00; -4.1886862E-02;  1.0157828E+03;  4.0804866E-01;  1.3075034E+04;3; -5.9896542E+01;  0.0000000E+00;  1.1159533E+01;0;  1.0970119E+00;  9.9523740E+03;  0.0000000E+00; -6.8952126E-04;  1.0000000E+04;  0.0000000E+00;  9.9626855E+03;  7.4259079E-01;  0.0000000E+00;  3.5442111E-01;  1.7881480E+04;
  6.7909312E-01;  9.9999998E-03; -1.2021800E-01;2092; -3.0422515E-01;  0.0000000E+00; -3.5666283E-02;  1.0158332E+03;  4.0804863E-01;  1.3116710E+04;3; -6.2288506E+01;  0.0000000E+00;  1.1305048E+01;0;  1.0831485E+00;  9.9535713E+03;  0.0000000E+00; -6.0599745E-04;  1.0000000E+04;  0.0000000E+00;  9.9624854E+03;  7.2275376E-01;  0.0000000E+00;  3.6039472E-01;  1.7981707E+04;
  6.7910409E-01;  9.9999998E-03; -1.0018267E-01;2093; -3.0492976E-01;  0.0000000E+00; -2.9602366E-02;  1.0158618E+03;  4.0804869E-01;  1.3140412E+04;3; -6.4429482E+01;  0.0000000E+00;  1.0976787E+01;0;  1.0709727E+00;  9.9544980E+03;  0.0000000E+00; -4.5035570E-04;  1.0000000E+04;  0.0000000E+00;  9.9621064E+03;  7.0626050E-01;  0.0000000E+00;  3.6471212E-01;  1.8169676E+04;
  6.7911386E-01;  9.9999998E-03; -8.0147602E-02;2094; -3.0528599E-01;  0.0000000E+00; -2.3732631E-02;  1.0158738E+03;  4.0804872E-01;  1.3150386E+04;3; -6.6278778E+01;  0.0000000E+00;  1.0212848E+01;0;  1.0629662E+00;  9.9552090E+03;  0.0000000E+00; -2.9919264E-04;  1.0000000E+04;  0.0000000E+00;  9.9616328E+03;  6.9285029E-01;  0.0000000E+00;  3.7011591E-01;  1.8405850E+04;
  6.7912191E-01;  9.9999998E-03; -6.0112491E-02;2095; -3.0546352E-01;  0.0000000E+00; -1.7969498E-02;  1.0158754E+03;  4.0804881E-01;  1.3151670E+04;3; -6.7697121E+01;  0.0000000E+00;  8.8367558E+00;0;  1.0598125E+00;  9.9557344E+03;  0.0000000E+00; -1.6931328E-04;  1.0000000E+04;  0.0000000E+00;  9.9611348E+03;  6.8247867E-01;  0.0000000E+00;  3.7733388E-01;  1.8650793E+04;
  6.7912787E-01;  9.9999998E-03; -4.0076520E-02;2096; -3.0555415E-01;  0.0000000E+00; -1.2156957E-02;  1.0158706E+03;  4.0804878E-01;  1.3147720E+04;3; -6.8677971E+01;  0.0000000E+00;  6.5581393E+00;0;  1.0602357E+00;  9.9560957E+03;  0.0000000E+00; -7.1630289E-05;  1.0000000E+04;  0.0000000E+00;  9.9606836E+03;  6.7512685E-01;  0.0000000E+00;  3.8510895E-01;  1.8868852E+04;
  6.7913151E-01;  9.9999998E-03; -2.0038893E-02;2097; -3.0562040E-01;  0.0000000E+00; -6.1798343E-03;  1.0158647E+03;  4.0804875E-01;  1.3142880E+04;3; -6.9254395E+01;  0.0000000E+00;  3.5559270E+00;0;  1.0619195E+00;  9.9562988E+03;  0.0000000E+00; -1.6457792E-05;  1.0000000E+04;  0.0000000E+00;  9.9603643E+03;  6.7074674E-01;  0.0000000E+00;  3.9117268E-01;  1.9023430E+04;
  6.9908202E-01;  9.9999998E-03; -1.8040514E-01;2120; -2.9245993E-01;  0.0000000E+00; -7.3931806E-02;  1.0159376E+03;  4.0912393E-01;  1.3202959E+04;3; -5.3088123E+01;  0.0000000E+00;  1.1639856E+01;0;  1.7530202E+00;  9.9075244E+03;  0.0000000E+00;  1.5840806E-03;  1.0000000E+04;  0.0000000E+00;  9.9581289E+03;  1.4037519E+00;  0.0000000E+00;  3.4926829E-01;  1.9958412E+04;
  6.9909441E-01;  9.9999998E-03; -1.6036268E-01;2121; -2.9512107E-01;  0.0000000E+00; -6.4116985E-02;  1.0160419E+03;  4.0912318E-01;  1.3289370E+04;3; -5.6390255E+01;  0.0000000E+00;  1.2988235E+01;0;  1.7584391E+00;  9.9100479E+03;  0.0000000E+00;  1.6286391E-04;  1.0000000E+04;  0.0000000E+00;  9.9576602E+03;  1.3787620E+00;  0.0000000E+00;  3.7967703E-01;  2.0165115E+04;
  6.9910425E-01;  9.9999998E-03; -1.4032003E-01;2122; -2.9783377E-01;  0.0000000E+00; -5.5292696E-02;  1.0161226E+03;  4.0912279E-01;  1.3356228E+04;3; -5.9496807E+01;  0.0000000E+00;  1.3967067E+01;0;  1.7566009E+00;  9.9120986E+03;  0.0000000E+00; -3.2277853E-04;  1.0000000E+04;  0.0000000E+00;  9.9572119E+03;  1.3577619E+00;  0.0000000E+00;  3.9883900E-01;  2.0375559E+04;
  6.9911236E-01;  9.9999998E-03; -1.2027534E-01;2123; -3.0025575E-01;  0.0000000E+00; -4.7300197E-02;  1.0161810E+03;  4.0912244E-01;  1.3404617E+04;3; -6.2133198E+01;  0.0000000E+00;  1.4334859E+01;0;  1.7500898E+00;  9.9137695E+03;  0.0000000E+00; -4.7828659E-04;  1.0000000E+04;  0.0000000E+00;  9.9567021E+03;  1.3398479E+00;  0.0000000E+00;  4.1024187E-01;  2.0625459E+04;
  6.9912064E-01;  9.9999998E-03; -1.0023060E-01;2124; -3.0188948E-01;  0.0000000E+00; -4.0032893E-02;  1.0162197E+03;  4.0912196E-01;  1.3436613E+04;3; -6.4320396E+01;  0.0000000E+00;  1.3937672E+01;0;  1.7436485E+00;  9.9151250E+03;  0.0000000E+00; -4.5887008E-04;  1.0000000E+04;  0.0000000E+00;  9.9561143E+03;  1.3245261E+00;  0.0000000E+00;  4.1912246E-01;  2.0915271E+04;
  6.9912869E-01;  9.9999998E-03; -8.0186665E-02;2125; -3.0304939E-01;  0.0000000E+00; -3.3065084E-02;  1.0162417E+03;  4.0912190E-01;  1.3454883E+04;3; -6.6194687E+01;  0.0000000E+00;  1.2858425E+01;0;  1.7410432E+00;  9.9162100E+03;  0.0000000E+00; -3.4915147E-04;  1.0000000E+04;  0.0000000E+00;  9.9554707E+03;  1.3117279E+00;  0.0000000E+00;  4.2931530E-01;  2.1231297E+04;
  6.9913554E-01;  9.9999998E-03; -6.0142476E-02;2126; -3.0395904E-01;  0.0000000E+00; -2.5731798E-02;  1.0162500E+03;  4.0912163E-01;  1.3461795E+04;3; -6.7761803E+01;  0.0000000E+00;  1.0896857E+01;0;  1.7434142E+00;  9.9170371E+03;  0.0000000E+00; -2.1018722E-04;  1.0000000E+04;  0.0000000E+00;  9.9548125E+03;  1.3015796E+00;  0.0000000E+00;  4.4183454E-01;  2.1549775E+04;
  6.9914067E-01;  9.9999998E-03; -4.0096924E-02;2127; -3.0467695E-01;  0.0000000E+00; -1.7743416E-02;  1.0162491E+03;  4.0912154E-01;  1.3461005E+04;3; -6.8963104E+01;  0.0000000E+00;  7.9761438E+00;0;  1.7490177E+00;  9.9176191E+03;  0.0000000E+00; -9.1991948E-05;  1.0000000E+04;  0.0000000E+00;  9.9542207E+03;  1.2942448E+00;  0.0000000E+00;  4.5477289E-01;  2.1835092E+04;
  6.9914365E-01;  9.9999998E-03; -2.0049240E-02;2128; -3.0515069E-01;  0.0000000E+00; -9.0397988E-03;  1.0162449E+03;  4.0912130E-01;  1.3457549E+04;3; -6.9662720E+01;  0.0000000E+00;  4.2511692E+00;0;  1.7544839E+00;  9.9179688E+03;  0.0000000E+00; -2.1712203E-05;  1.0000000E+04;  0.0000000E+00;  9.9537900E+03;  1.2898142E+00;  0.0000000E+00;  4.6466967E-01;  2.2039270E+04;
  7.1921158E-01;  9.9999998E-03; -1.8051231E-01;2151; -2.5882632E-01;  0.0000000E+00; -1.0720184E-01;  1.0151005E+03;  4.0959844E-01;  1.2509163E+04;3; -4.6205975E+01;  0.0000000E+00;  9.1066904E+00;0;  2.3222394E+00;  9.8714482E+03;  0.0000000E+00;  1.7235106E-03;  1.0000000E+04;  0.0000000E+00;  9.9548887E+03;  1.9557559E+00;  0.0000000E+00;  3.6648339E-01;  2.1389252E+04;
  7.1922266E-01;  9.9999998E-03; -1.6046308E-01;2152; -2.6239875E-01;  0.0000000E+00; -9.6136153E-02;  1.0151739E+03;  4.0959749E-01;  1.2569995E+04;3; -5.0048653E+01;  0.0000000E+00;  1.0668859E+01;0;  2.3506894E+00;  9.8740430E+03;  0.0000000E+00;  5.7632639E-04;  1.0000000E+04;  0.0000000E+00;  9.9537480E+03;  1.9441251E+00;  0.0000000E+00;  4.0656447E-01;  2.1920686E+04;
  7.1923274E-01;  9.9999998E-03; -1.4040892E-01;2153; -2.6623541E-01;  0.0000000E+00; -8.4689356E-02;  1.0152366E+03;  4.0959689E-01;  1.2621938E+04;3; -5.3985264E+01;  0.0000000E+00;  1.1979612E+01;0;  2.3671243E+00;  9.8763545E+03;  0.0000000E+00;  5.1350216E-05;  1.0000000E+04;  0.0000000E+00;  9.9526738E+03;  1.9325700E+00;  0.0000000E+00;  4.3455431E-01;  2.2430121E+04;
  7.1924233E-01;  9.9999998E-03; -1.2034938E-01;2154; -2.6981837E-01;  0.0000000E+00; -7.3021628E-02;  1.0152892E+03;  4.0959626E-01;  1.2665488E+04;3; -5.7891228E+01;  0.0000000E+00;  1.2430282E+01;0;  2.3742449E+00;  9.8783691E+03;  0.0000000E+00; -2.1394652E-04;  1.0000000E+04;  0.0000000E+00;  9.9516943E+03;  1.9213945E+00;  0.0000000E+00;  4.5285040E-01;  2.2905082E+04;
  7.1925229E-01;  9.9999998E-03; -1.0028988E-01;2155; -2.7227128E-01;  0.0000000E+00; -6.1544228E-02;  1.0153297E+03;  4.0959564E-01;  1.2699064E+04;3; -6.1449329E+01;  0.0000000E+00;  1.2126744E+01;0;  2.3785365E+00;  9.8800889E+03;  0.0000000E+00; -2.9993706E-04;  1.0000000E+04;  0.0000000E+00;  9.9507783E+03;  1.9108301E+00;  0.0000000E+00;  4.6770638E-01;  2.3356012E+04;
  7.1926188E-01;  9.9999998E-03; -8.0232501E-02;2156; -2.7363753E-01;  0.0000000E+00; -5.0284613E-02;  1.0153569E+03;  4.0959555E-01;  1.2721580E+04;3; -6.4490440E+01;  0.0000000E+00;  1.1128963E+01;0;  2.3850689E+00;  9.8815244E+03;  0.0000000E+00; -2.6186413E-04;  1.0000000E+04;  0.0000000E+00;  9.9498828E+03;  1.9012665E+00;  0.0000000E+00;  4.8380250E-01;  2.3791703E+04;
  7.1927035E-01;  9.9999998E-03; -6.0176447E-02;2157; -2.7434474E-01;  0.0000000E+00; -3.8875509E-02;  1.0153701E+03;  4.0959498E-01;  1.2732539E+04;3; -6.7033539E+01;  0.0000000E+00;  9.3474741E+00;0;  2.3955762E+00;  9.8826523E+03;  0.0000000E+00; -1.6621924E-04;  1.0000000E+04;  0.0000000E+00;  9.9490186E+03;  1.8931946E+00;  0.0000000E+00;  5.0238168E-01;  2.4207773E+04;
  7.1927708E-01;  9.9999998E-03; -4.0119652E-02;2158; -2.7457950E-01;  0.0000000E+00; -2.6736932E-02;  1.0153721E+03;  4.0959463E-01;  1.2734218E+04;3; -6.8936386E+01;  0.0000000E+00;  6.7845106E+00;0;  2.4080477E+00;  9.8834688E+03;  0.0000000E+00; -7.3892741E-05;  1.0000000E+04;  0.0000000E+00;  9.9482500E+03;  1.8870898E+00;  0.0000000E+00;  5.2095777E-01;  2.4574063E+04;
  7.1928138E-01;  9.9999998E-03; -2.0060726E-02;2159; -2.7461037E-01;  0.0000000E+00; -1.3682744E-02;  1.0153692E+03;  4.0959448E-01;  1.2731749E+04;3; -7.0059441E+01;  0.0000000E+00;  3.5952809E+00;0;  2.4182472E+00;  9.8839619E+03;  0.0000000E+00; -1.7439317E-05;  1.0000000E+04;  0.0000000E+00;  9.9477002E+03;  1.8832958E+00;  0.0000000E+00;  5.3495157E-01;  2.4834830E+04;
  7.3948920E-01;  9.9999998E-03; -1.8053648E-01;2182; -1.6815859E-01;  0.0000000E+00; -1.0845314E-01;  1.0142500E+03;  4.0978652E-01;  1.1804229E+04;3; -2.8834303E+01;  0.0000000E+00;  1.2522227E+01;0;  2.7106807E+00;  9.8477881E+03;  0.0000000E+00;  1.1369891E-03;  1.0000000E+04;  0.0000000E+00;  9.9529463E+03;  2.3359780E+00;  0.0000000E+00;  3.7470266E-01;  2.2228842E+04;
  7.3949492E-01;  9.9999998E-03; -1.6048826E-01;2183; -1.7183718E-01;  0.0000000E+00; -9.7995296E-02;  1.0142757E+03;  4.0978587E-01;  1.1825460E+04;3; -3.1875580E+01;  0.0000000E+00;  1.4285089E+01;0;  2.7655070E+00;  9.8501133E+03;  0.0000000E+00;  5.3948379E-04;  1.0000000E+04;  0.0000000E+00;  9.9511504E+03;  2.3426635E+00;  0.0000000E+00;  4.2284340E-01;  2.3077129E+04;
  7.3950136E-01;  9.9999998E-03; -1.4043275E-01;2184; -1.7526427E-01;  0.0000000E+00; -8.6630933E-02;  1.0143091E+03;  4.0978494E-01;  1.1853208E+04;3; -3.5137264E+01;  0.0000000E+00;  1.5470464E+01;0;  2.8020518E+00;  9.8524502E+03;  0.0000000E+00;  2.2670030E-04;  1.0000000E+04;  0.0000000E+00;  9.9494766E+03;  2.3443477E+00;  0.0000000E+00;  4.5770407E-01;  2.3878102E+04;
  7.3950797E-01;  9.9999998E-03; -1.2037080E-01;2185; -1.7824650E-01;  0.0000000E+00; -7.4737303E-02;  1.0143456E+03;  4.0978432E-01;  1.1883327E+04;3; -3.8386269E+01;  0.0000000E+00;  1.5731347E+01;0;  2.8248739E+00;  9.8546592E+03;  0.0000000E+00;  2.8636114E-05;  1.0000000E+04;  0.0000000E+00;  9.9479980E+03;  2.3428059E+00;  0.0000000E+00;  4.8206794E-01;  2.4597645E+04;
  7.3951453E-01;  9.9999998E-03; -1.0030904E-01;2186; -1.8061970E-01;  0.0000000E+00; -6.3343935E-02;  1.0143798E+03;  4.0978372E-01;  1.1911767E+04;3; -4.1433006E+01;  0.0000000E+00;  1.5099936E+01;0;  2.8419878E+00;  9.8566484E+03;  0.0000000E+00; -7.3307507E-05;  1.0000000E+04;  0.0000000E+00;  9.9466777E+03;  2.3392739E+00;  0.0000000E+00;  5.0271386E-01;  2.5240092E+04;
  7.3952079E-01;  9.9999998E-03; -8.0249175E-02;2187; -1.8233818E-01;  0.0000000E+00; -5.2248187E-02;  1.0144053E+03;  4.0978324E-01;  1.1932898E+04;3; -4.4136650E+01;  0.0000000E+00;  1.3630159E+01;0;  2.8594341E+00;  9.8583525E+03;  0.0000000E+00; -9.1667738E-05;  1.0000000E+04;  0.0000000E+00;  9.9454736E+03;  2.3347232E+00;  0.0000000E+00;  5.2471083E-01;  2.5824340E+04;
  7.3952639E-01;  9.9999998E-03; -6.0189988E-02;2188; -1.8345512E-01;  0.0000000E+00; -4.0736586E-02;  1.0144186E+03;  4.0978271E-01;  1.1943859E+04;3; -4.6383591E+01;  0.0000000E+00;  1.1323022E+01;0;  2.8792901E+00;  9.8597393E+03;  0.0000000E+00; -6.3077554E-05;  1.0000000E+04;  0.0000000E+00;  9.9443584E+03;  2.3300436E+00;  0.0000000E+00;  5.4924649E-01;  2.6359527E+04;
  7.3953092E-01;  9.9999998E-03; -4.0129293E-02;2189; -1.8409333E-01;  0.0000000E+00; -2.8208656E-02;  1.0144208E+03;  4.0978241E-01;  1.1945636E+04;3; -4.8074875E+01;  0.0000000E+00;  8.1765375E+00;0;  2.8992660E+00;  9.8607539E+03;  0.0000000E+00; -2.7300244E-05;  1.0000000E+04;  0.0000000E+00;  9.9433906E+03;  2.3260436E+00;  0.0000000E+00;  5.7322240E-01;  2.6820078E+04;
  7.3953384E-01;  9.9999998E-03; -2.0065755E-02;2190; -1.8439898E-01;  0.0000000E+00; -1.4498625E-02;  1.0144175E+03;  4.0978232E-01;  1.1942970E+04;3; -4.9128166E+01;  0.0000000E+00;  4.3033381E+00;0;  2.9144332E+00;  9.8613760E+03;  0.0000000E+00; -5.9826439E-06;  1.0000000E+04;  0.0000000E+00;  9.9427002E+03;  2.3233633E+00;  0.0000000E+00;  5.9106988E-01;  2.7144113E+04;
  7.5971258E-01;  9.9999998E-03; -1.8053962E-01;2213; -9.6598856E-02;  0.0000000E+00; -1.0240670E-01;  1.0139175E+03;  4.0985727E-01;  1.1528146E+04;3; -1.7162031E+01;  0.0000000E+00;  1.7117867E+01;0;  2.8751674E+00;  9.8389941E+03;  0.0000000E+00;  4.2893158E-04;  1.0000000E+04;  0.0000000E+00;  9.9519395E+03;  2.4952278E+00;  0.0000000E+00;  3.7993959E-01;  2.2665588E+04;
  7.5971311E-01;  9.9999998E-03; -1.6049489E-01;2214; -1.0008870E-01;  0.0000000E+00; -9.3415663E-02;  1.0138994E+03;  4.0985650E-01;  1.1513138E+04;3; -1.9272102E+01;  0.0000000E+00;  1.8647722E+01;0;  2.9500940E+00;  9.8408604E+03;  0.0000000E+00;  2.7607608E-04;  1.0000000E+04;  0.0000000E+00;  9.9497471E+03;  2.5190308E+00;  0.0000000E+00;  4.3106312E-01;  2.3705428E+04;
  7.5971466E-01;  9.9999998E-03; -1.4044154E-01;2215; -1.0345890E-01;  0.0000000E+00; -8.3394036E-02;  1.0139024E+03;  4.0985587E-01;  1.1515705E+04;3; -2.1637976E+01;  0.0000000E+00;  1.9495838E+01;0;  3.0021906E+00;  9.8430293E+03;  0.0000000E+00;  1.9372080E-04;  1.0000000E+04;  0.0000000E+00;  9.9476465E+03;  2.5333693E+00;  0.0000000E+00;  4.6882132E-01;  2.4714875E+04;
  7.5971675E-01;  9.9999998E-03; -1.2038067E-01;2216; -1.0654103E-01;  0.0000000E+00; -7.2716877E-02;  1.0139185E+03;  4.0985519E-01;  1.1529035E+04;3; -2.4089621E+01;  0.0000000E+00;  1.9330320E+01;0;  3.0379748E+00;  9.8452520E+03;  0.0000000E+00;  1.1834093E-04;  1.0000000E+04;  0.0000000E+00;  9.9457461E+03;  2.5413849E+00;  0.0000000E+00;  4.9658993E-01;  2.5637896E+04;
  7.5971913E-01;  9.9999998E-03; -1.0031907E-01;2217; -1.0917480E-01;  0.0000000E+00; -6.2319301E-02;  1.0139392E+03;  4.0985453E-01;  1.1546217E+04;3; -2.6469353E+01;  0.0000000E+00;  1.8224005E+01;0;  3.0665855E+00;  9.8473477E+03;  0.0000000E+00;  5.9312271E-05;  1.0000000E+04;  0.0000000E+00;  9.9440635E+03;  2.5453124E+00;  0.0000000E+00;  5.2127326E-01;  2.6458994E+04;
  7.5972170E-01;  9.9999998E-03; -8.0258600E-02;2218; -1.1127018E-01;  0.0000000E+00; -5.1944811E-02;  1.0139557E+03;  4.0985402E-01;  1.1559844E+04;3; -2.8642775E+01;  0.0000000E+00;  1.6243628E+01;0;  3.0944560E+00;  9.8491914E+03;  0.0000000E+00;  2.6891612E-05;  1.0000000E+04;  0.0000000E+00;  9.9425498E+03;  2.5465748E+00;  0.0000000E+00;  5.4788107E-01;  2.7192682E+04;
  7.5972426E-01;  9.9999998E-03; -6.0198043E-02;2219; -1.1280357E-01;  0.0000000E+00; -4.0863883E-02;  1.0139628E+03;  4.0985349E-01;  1.1565670E+04;3; -3.0489197E+01;  0.0000000E+00;  1.3373814E+01;0;  3.1234913E+00;  9.8507070E+03;  0.0000000E+00;  1.4177032E-05;  1.0000000E+04;  0.0000000E+00;  9.9411738E+03;  2.5462430E+00;  0.0000000E+00;  5.7724845E-01;  2.7851305E+04;
  7.5972652E-01;  9.9999998E-03; -4.0135220E-02;2220; -1.1381388E-01;  0.0000000E+00; -2.8485460E-02;  1.0139601E+03;  4.0985325E-01;  1.1563497E+04;3; -3.1900320E+01;  0.0000000E+00;  9.5989332E+00;0;  3.1508222E+00;  9.8518340E+03;  0.0000000E+00;  8.3222167E-06;  1.0000000E+04;  0.0000000E+00;  9.9400000E+03;  2.5452096E+00;  0.0000000E+00;  6.0561264E-01;  2.8408936E+04;
  7.5972801E-01;  9.9999998E-03; -2.0068904E-02;2221; -1.1437487E-01;  0.0000000E+00; -1.4699377E-02;  1.0139536E+03;  4.0985301E-01;  1.1558066E+04;3; -3.2787182E+01;  0.0000000E+00;  5.0342398E+00;0;  3.1708078E+00;  9.8525303E+03;  0.0000000E+00;  2.8139179E-06;  1.0000000E+04;  0.0000000E+00;  9.9391787E+03;  2.5442390E+00;  0.0000000E+00;  6.2656873E-01;  2.8797043E+04;
  7.7987736E-01;  9.9999998E-03; -1.8053609E-01;2244; -4.6026871E-02;  0.0000000E+00; -9.6903034E-02;  1.0140829E+03;  4.0988249E-01;  1.1664420E+04;3; -1.0531816E+01;  0.0000000E+00;  2.0166536E+01;0;  2.8752670E+00;  9.8414668E+03;  0.0000000E+00;  4.1831863E-05;  1.0000000E+04;  0.0000000E+00;  9.9514814E+03;  2.4892795E+00;  0.0000000E+00;  3.8598764E-01;  2.2868967E+04;
  7.7987540E-01;  9.9999998E-03; -1.6049421E-01;2245; -4.8366472E-02;  0.0000000E+00; -8.8857986E-02;  1.0140380E+03;  4.0988180E-01;  1.1627196E+04;3; -1.1536165E+01;  0.0000000E+00;  2.1594633E+01;0;  2.9590120E+00;  9.8429033E+03;  0.0000000E+00;  6.5421315E-05;  1.0000000E+04;  0.0000000E+00;  9.9491846E+03;  2.5234687E+00;  0.0000000E+00;  4.3554321E-01;  2.3956689E+04;
  7.7987403E-01;  9.9999998E-03; -1.4044291E-01;2246; -5.0820429E-02;  0.0000000E+00; -7.9754330E-02;  1.0140197E+03;  4.0988114E-01;  1.1612089E+04;3; -1.2799141E+01;  0.0000000E+00;  2.2299431E+01;0;  3.0180550E+00;  9.8448486E+03;  0.0000000E+00;  8.2732171E-05;  1.0000000E+04;  0.0000000E+00;  9.9468926E+03;  2.5457158E+00;  0.0000000E+00;  4.7233915E-01;  2.5060990E+04;
  7.7987313E-01;  9.9999998E-03; -1.2038336E-01;2247; -5.3248320E-02;  0.0000000E+00; -6.9934733E-02;  1.0140184E+03;  4.0988040E-01;  1.1611003E+04;3; -1.4225116E+01;  0.0000000E+00;  2.1936237E+01;0;  3.0605249E+00;  9.8469766E+03;  0.0000000E+00;  7.8585392E-05;  1.0000000E+04;  0.0000000E+00;  9.9447480E+03;  2.5601685E+00;  0.0000000E+00;  5.0035650E-01;  2.6107414E+04;
  7.7987260E-01;  9.9999998E-03; -1.0032251E-01;2248; -5.5489209E-02;  0.0000000E+00; -6.0295764E-02;  1.0140242E+03;  4.0987992E-01;  1.1615742E+04;3; -1.5703218E+01;  0.0000000E+00;  2.0580780E+01;0;  3.0961845E+00;  9.8490439E+03;  0.0000000E+00;  6.2572195E-05;  1.0000000E+04;  0.0000000E+00;  9.9428047E+03;  2.5696893E+00;  0.0000000E+00;  5.2649516E-01;  2.7055830E+04;
  7.7987242E-01;  9.9999998E-03; -8.0262288E-02;2249; -5.7411849E-02;  0.0000000E+00; -5.0565310E-02;  1.0140281E+03;  4.0987933E-01;  1.1619001E+04;3; -1.7122559E+01;  0.0000000E+00;  1.8288902E+01;0;  3.1313751E+00;  9.8508877E+03;  0.0000000E+00;  4.4638182E-05;  1.0000000E+04;  0.0000000E+00;  9.9410439E+03;  2.5758598E+00;  0.0000000E+00;  5.5551529E-01;  2.7907602E+04;
  7.7987266E-01;  9.9999998E-03; -6.0201492E-02;2250; -5.8926087E-02;  0.0000000E+00; -4.0004119E-02;  1.0140245E+03;  4.0987885E-01;  1.1616039E+04;3; -1.8372889E+01;  0.0000000E+00;  1.5024707E+01;0;  3.1673841E+00;  9.8524111E+03;  0.0000000E+00;  2.8503107E-05;  1.0000000E+04;  0.0000000E+00;  9.9394561E+03;  2.5796053E+00;  0.0000000E+00;  5.8777875E-01;  2.8669715E+04;
  7.7987301E-01;  9.9999998E-03; -4.0137909E-02;2251; -5.9995949E-02;  0.0000000E+00; -2.8011851E-02;  1.0140138E+03;  4.0987867E-01;  1.1607152E+04;3; -1.9352348E+01;  0.0000000E+00;  1.0765778E+01;0;  3.2005293E+00;  9.8535488E+03;  0.0000000E+00;  1.4620541E-05;  1.0000000E+04;  0.0000000E+00;  9.9381074E+03;  2.5816259E+00;  0.0000000E+00;  6.1890346E-01;  2.9310570E+04;
  7.7987337E-01;  9.9999998E-03; -2.0070383E-02;2252; -6.0625512E-02;  0.0000000E+00; -1.4496058E-02;  1.0140015E+03;  4.0987831E-01;  1.1596982E+04;3; -1.9977451E+01;  0.0000000E+00;  5.6400814E+00;0;  3.2243772E+00;  9.8542559E+03;  0.0000000E+00;  4.1264207E-06;  1.0000000E+04;  0.0000000E+00;  9.9371699E+03;  2.5825338E+00;  0.0000000E+00;  6.4184338E-01;  2.9753850E+04;
  8.0001217E-01;  9.9999998E-03; -1.8053009E-01;2275; -4.4188951E-03;  0.0000000E+00; -9.3554012E-02;  1.0145110E+03;  4.0988958E-01;  1.2017896E+04;3; -5.0537267E+00;  0.0000000E+00;  2.1258707E+01;0;  2.8003685E+00;  9.8495635E+03;  0.0000000E+00; -2.4155908E-05;  1.0000000E+04;  0.0000000E+00;  9.9513027E+03;  2.4064474E+00;  0.0000000E+00;  3.9392117E-01;  2.2941949E+04;
  8.0000883E-01;  9.9999998E-03; -1.6048960E-01;2276; -5.4542739E-03;  0.0000000E+00; -8.5719138E-02;  1.0144615E+03;  4.0988883E-01;  1.1976923E+04;3; -5.0892868E+00;  0.0000000E+00;  2.2760765E+01;0;  2.8810554E+00;  9.8507871E+03;  0.0000000E+00; -4.4634462E-06;  1.0000000E+04;  0.0000000E+00;  9.9491377E+03;  2.4414556E+00;  0.0000000E+00;  4.3959975E-01;  2.3969365E+04;
  8.0000561E-01;  9.9999998E-03; -1.4043956E-01;2277; -6.7617553E-03;  0.0000000E+00; -7.6903179E-02;  1.0144376E+03;  4.0988818E-01;  1.1957078E+04;3; -5.3197932E+00;  0.0000000E+00;  2.3532349E+01;0;  2.9373038E+00;  9.8526094E+03;  0.0000000E+00;  1.0276999E-05;  1.0000000E+04;  0.0000000E+00;  9.9468701E+03;  2.4642761E+00;  0.0000000E+00;  4.7302765E-01;  2.5065615E+04;
  8.0000269E-01;  9.9999998E-03; -1.2038103E-01;2278; -8.2375426E-03;  0.0000000E+00; -6.7400746E-02;  1.0144283E+03;  4.0988740E-01;  1.1949378E+04;3; -5.7242565E+00;  0.0000000E+00;  2.3217487E+01;0;  2.9785247E+00;  9.8546465E+03;  0.0000000E+00;  1.6784419E-05;  1.0000000E+04;  0.0000000E+00;  9.9446563E+03;  2.4797275E+00;  0.0000000E+00;  4.9879727E-01;  2.6146365E+04;
  8.0000013E-01;  9.9999998E-03; -1.0032102E-01;2279; -9.7472146E-03;  0.0000000E+00; -5.8118004E-02;  1.0144244E+03;  4.0988687E-01;  1.1946219E+04;3; -6.2528443E+00;  0.0000000E+00;  2.1863651E+01;0;  3.0148163E+00;  9.8566377E+03;  0.0000000E+00;  1.7060749E-05;  1.0000000E+04;  0.0000000E+00;  9.9425996E+03;  2.4909322E+00;  0.0000000E+00;  5.2388412E-01;  2.7151137E+04;
  7.9999804E-01;  9.9999998E-03; -8.0261514E-02;2280; -1.1153541E-02;  0.0000000E+00; -4.8793573E-02;  1.0144181E+03;  4.0988645E-01;  1.1940986E+04;3; -6.8378611E+00;  0.0000000E+00;  1.9495680E+01;0;  3.0521996E+00;  9.8584121E+03;  0.0000000E+00;  1.3906289E-05;  1.0000000E+04;  0.0000000E+00;  9.9407100E+03;  2.4993198E+00;  0.0000000E+00;  5.5287987E-01;  2.8067568E+04;
  7.9999650E-01;  9.9999998E-03; -6.0201243E-02;2281; -1.2337891E-02;  0.0000000E+00; -3.8674705E-02;  1.0144043E+03;  4.0988603E-01;  1.1929534E+04;3; -7.4012256E+00;  0.0000000E+00;  1.6056646E+01;0;  3.0912035E+00;  9.8598682E+03;  0.0000000E+00;  9.3473291E-06;  1.0000000E+04;  0.0000000E+00;  9.9389873E+03;  2.5054154E+00;  0.0000000E+00;  5.8578801E-01;  2.8893486E+04;
  7.9999554E-01;  9.9999998E-03; -4.0137947E-02;2282; -1.3223005E-02;  0.0000000E+00; -2.7133545E-02;  1.0143848E+03;  4.0988567E-01;  1.1913441E+04;3; -7.8682432E+00;  0.0000000E+00;  1.1523087E+01;0;  3.1272597E+00;  9.8609561E+03;  0.0000000E+00;  4.7758599E-06;  1.0000000E+04;  0.0000000E+00;  9.9375254E+03;  2.5094812E+00;  0.0000000E+00;  6.1777860E-01;  2.9588787E+04;
  7.9999501E-01;  9.9999998E-03; -2.0070475E-02;2283; -1.3765899E-02;  0.0000000E+00; -1.4061172E-02;  1.0143671E+03;  4.0988538E-01;  1.1898731E+04;3; -8.1764517E+00;  0.0000000E+00;  6.0415154E+00;0;  3.1531830E+00;  9.8616299E+03;  0.0000000E+00;  1.3174463E-06;  1.0000000E+04;  0.0000000E+00;  9.9365117E+03;  2.5117662E+00;  0.0000000E+00;  6.4141679E-01;  3.0069158E+04;
  8.2014287E-01;  9.9999998E-03; -1.8052310E-01;2306;  3.8105294E-02;  0.0000000E+00; -9.2537157E-02;  1.0149752E+03;  4.0987596E-01;  1.2400823E+04;3;  1.9434646E+00;  0.0000000E+00;  2.0580599E+01;0;  2.7108881E+00;  9.8591416E+03;  0.0000000E+00;  4.2087169E-05;  1.0000000E+04;  0.0000000E+00;  9.9513350E+03;  2.3083296E+00;  0.0000000E+00;  4.0255857E-01;  2.2906805E+04;
  8.2013786E-01;  9.9999998E-03; -1.6048273E-01;2307;  3.7845489E-02;  0.0000000E+00; -8.4331855E-02;  1.0149420E+03;  4.0987512E-01;  1.2373380E+04;3;  2.5288184E+00;  0.0000000E+00;  2.2253752E+01;0;  2.7794511E+00;  9.8604473E+03;  0.0000000E+00;  9.2870341E-06;  1.0000000E+04;  0.0000000E+00;  9.9494072E+03;  2.3351727E+00;  0.0000000E+00;  4.4427851E-01;  2.3820096E+04;
  8.2013291E-01;  9.9999998E-03; -1.4043312E-01;2308;  3.7352227E-02;  0.0000000E+00; -7.5270697E-02;  1.0149289E+03;  4.0987450E-01;  1.2362521E+04;3;  3.0585127E+00;  0.0000000E+00;  2.3231947E+01;0;  2.8249373E+00;  9.8623145E+03;  0.0000000E+00; -2.1547567E-06;  1.0000000E+04;  0.0000000E+00;  9.9472998E+03;  2.3512111E+00;  0.0000000E+00;  4.7372639E-01;  2.4840547E+04;
  8.2012820E-01;  9.9999998E-03; -1.2037519E-01;2309;  3.6681119E-02;  0.0000000E+00; -6.5612085E-02;  1.0149240E+03;  4.0987393E-01;  1.2358376E+04;3;  3.4855125E+00;  0.0000000E+00;  2.3146017E+01;0;  2.8577397E+00;  9.8643564E+03;  0.0000000E+00; -5.5510009E-06;  1.0000000E+04;  0.0000000E+00;  9.9451670E+03;  2.3617401E+00;  0.0000000E+00;  4.9599966E-01;  2.5882502E+04;
  8.2012403E-01;  9.9999998E-03; -1.0031599E-01;2310;  3.5899084E-02;  0.0000000E+00; -5.6309246E-02;  1.0149194E+03;  4.0987328E-01;  1.2354625E+04;3;  3.7910271E+00;  0.0000000E+00;  2.1993902E+01;0;  2.8881943E+00;  9.8663066E+03;  0.0000000E+00; -6.6941652E-06;  1.0000000E+04;  0.0000000E+00;  9.9431416E+03;  2.3699028E+00;  0.0000000E+00;  5.1829141E-01;  2.6874951E+04;
  8.2012045E-01;  9.9999998E-03; -8.0257446E-02;2311;  3.5098702E-02;  0.0000000E+00; -4.7127437E-02;  1.0149091E+03;  4.0987289E-01;  1.2346135E+04;3;  3.9837184E+00;  0.0000000E+00;  1.9757952E+01;0;  2.9220760E+00;  9.8680137E+03;  0.0000000E+00; -6.5238455E-06;  1.0000000E+04;  0.0000000E+00;  9.9412412E+03;  2.3768256E+00;  0.0000000E+00;  5.4525048E-01;  2.7796957E+04;
  8.2011765E-01;  9.9999998E-03; -6.0198218E-02;2312;  3.4373939E-02;  0.0000000E+00; -3.7297409E-02;  1.0148896E+03;  4.0987250E-01;  1.2329945E+04;3;  4.0894718E+00;  0.0000000E+00;  1.6362236E+01;0;  2.9593425E+00;  9.8693955E+03;  0.0000000E+00; -5.0347548E-06;  1.0000000E+04;  0.0000000E+00;  9.9394883E+03;  2.3825521E+00;  0.0000000E+00;  5.7679039E-01;  2.8638615E+04;
  8.2011563E-01;  9.9999998E-03; -4.0135965E-02;2313;  3.3800259E-02;  0.0000000E+00; -2.6155040E-02;  1.0148649E+03;  4.0987214E-01;  1.2309513E+04;3;  4.1372476E+00;  0.0000000E+00;  1.1785197E+01;0;  2.9947228E+00;  9.8704170E+03;  0.0000000E+00; -2.7972162E-06;  1.0000000E+04;  0.0000000E+00;  9.9379893E+03;  2.3868091E+00;  0.0000000E+00;  6.0791361E-01;  2.9351994E+04;
  8.2011443E-01;  9.9999998E-03; -2.0069495E-02;2314;  3.3432916E-02;  0.0000000E+00; -1.3553827E-02;  1.0148433E+03;  4.0987197E-01;  1.2291645E+04;3;  4.1535635E+00;  0.0000000E+00;  6.1915455E+00;0;  3.0204797E+00;  9.8710410E+03;  0.0000000E+00; -8.0126989E-07;  1.0000000E+04;  0.0000000E+00;  9.9369443E+03;  2.3894048E+00;  0.0000000E+00;  6.3107485E-01;  2.9846369E+04;
  8.4028095E-01;  9.9999998E-03; -1.8051438E-01;2337;  8.5285738E-02;  0.0000000E+00; -9.2948705E-02;  1.0151000E+03;  4.0971482E-01;  1.2502104E+04;3;  1.1124628E+01;  0.0000000E+00;  1.8681980E+01;0;  2.6165462E+00;  9.8690088E+03;  0.0000000E+00;  1.1830081E-04;  1.0000000E+04;  0.0000000E+00;  9.9516357E+03;  2.2069790E+00;  0.0000000E+00;  4.0956721E-01;  2.2727867E+04;
  8.4027326E-01;  9.9999998E-03; -1.6047359E-01;2338;  8.4978886E-02;  0.0000000E+00; -8.4172301E-02;  1.0150974E+03;  4.0971407E-01;  1.2499935E+04;3;  1.1944076E+01;  0.0000000E+00;  2.0514383E+01;0;  2.6681497E+00;  9.8706572E+03;  0.0000000E+00;  3.9809878E-05;  1.0000000E+04;  0.0000000E+00;  9.9499521E+03;  2.2195385E+00;  0.0000000E+00;  4.4861120E-01;  2.3521279E+04;
  8.4026587E-01;  9.9999998E-03; -1.4042401E-01;2339;  8.4683418E-02;  0.0000000E+00; -7.4606724E-02;  1.0151066E+03;  4.0971336E-01;  1.2507635E+04;3;  1.2896747E+01;  0.0000000E+00;  2.1734905E+01;0;  2.6983235E+00;  9.8727451E+03;  0.0000000E+00;  1.3386951E-05;  1.0000000E+04;  0.0000000E+00;  9.9480586E+03;  2.2235179E+00;  0.0000000E+00;  4.7480565E-01;  2.4437566E+04;
  8.4025919E-01;  9.9999998E-03; -1.2036659E-01;2340;  8.4403068E-02;  0.0000000E+00; -6.4545169E-02;  1.0151161E+03;  4.0971294E-01;  1.2515432E+04;3;  1.3881450E+01;  0.0000000E+00;  2.1951769E+01;0;  2.7180176E+00;  9.8749023E+03;  0.0000000E+00;  3.7708901E-06;  1.0000000E+04;  0.0000000E+00;  9.9461064E+03;  2.2244954E+00;  0.0000000E+00;  4.9352220E-01;  2.5395582E+04;
  8.4025335E-01;  9.9999998E-03; -1.0030828E-01;2341;  8.4107980E-02;  0.0000000E+00; -5.5006582E-02;  1.0151204E+03;  4.0971234E-01;  1.2518986E+04;3;  1.4814665E+01;  0.0000000E+00;  2.1106106E+01;0;  2.7377896E+00;  9.8768867E+03;  0.0000000E+00; -1.0960697E-06;  1.0000000E+04;  0.0000000E+00;  9.9442119E+03;  2.2255259E+00;  0.0000000E+00;  5.1226372E-01;  2.6324090E+04;
  8.4024847E-01;  9.9999998E-03; -8.0250941E-02;2342;  8.3799601E-02;  0.0000000E+00; -4.5787711E-02;  1.0151140E+03;  4.0971202E-01;  1.2513656E+04;3;  1.5639489E+01;  0.0000000E+00;  1.9139175E+01;0;  2.7634177E+00;  9.8785771E+03;  0.0000000E+00; -3.7457614E-06;  1.0000000E+04;  0.0000000E+00;  9.9424072E+03;  2.2274556E+00;  0.0000000E+00;  5.3596210E-01;  2.7201002E+04;
  8.4024459E-01;  9.9999998E-03; -6.0193148E-02;2343;  8.3501033E-02;  0.0000000E+00; -3.6106896E-02;  1.0150956E+03;  4.0971145E-01;  1.2498457E+04;3;  1.6316456E+01;  0.0000000E+00;  1.5960566E+01;0;  2.7946784E+00;  9.8799180E+03;  0.0000000E+00; -4.0332911E-06;  1.0000000E+04;  0.0000000E+00;  9.9407129E+03;  2.2299397E+00;  0.0000000E+00;  5.6473875E-01;  2.8013398E+04;
  8.4024179E-01;  9.9999998E-03; -4.0132485E-02;2344;  8.3245851E-02;  0.0000000E+00; -2.5266951E-02;  1.0150701E+03;  4.0971118E-01;  1.2477336E+04;3;  1.6818439E+01;  0.0000000E+00;  1.1550545E+01;0;  2.8260264E+00;  9.8808877E+03;  0.0000000E+00; -2.5438669E-06;  1.0000000E+04;  0.0000000E+00;  9.9392529E+03;  2.2322807E+00;  0.0000000E+00;  5.9374565E-01;  2.8709330E+04;
  8.4024000E-01;  9.9999998E-03; -2.0067723E-02;2345;  8.3071597E-02;  0.0000000E+00; -1.3079790E-02;  1.0150474E+03;  4.0971103E-01;  1.2458483E+04;3;  1.7126509E+01;  0.0000000E+00;  6.0848918E+00;0;  2.8494699E+00;  9.8814736E+03;  0.0000000E+00; -7.5931081E-07;  1.0000000E+04;  0.0000000E+00;  9.9382305E+03;  2.2338994E+00;  0.0000000E+00;  6.1557055E-01;  2.9194666E+04;
  8.6042339E-01;  9.9999998E-03; -1.8050228E-01;2368;  1.3545273E-01;  0.0000000E+00; -9.3548223E-02;  1.0149343E+03;  4.0939859E-01;  1.2362141E+04;3;  2.1731972E+01;  0.0000000E+00;  1.6175386E+01;0;  2.4882646E+00;  9.8803838E+03;  0.0000000E+00;  1.7593821E-04;  1.0000000E+04;  0.0000000E+00;  9.9523135E+03;  2.0753832E+00;  0.0000000E+00;  4.1288146E-01;  2.2353109E+04;
  8.6041200E-01;  9.9999998E-03; -1.6046125E-01;2369;  1.3438012E-01;  0.0000000E+00; -8.4290698E-02;  1.0149678E+03;  4.0939781E-01;  1.2389870E+04;3;  2.2499506E+01;  0.0000000E+00;  1.8098097E+01;0;  2.5217209E+00;  9.8825420E+03;  0.0000000E+00;  5.5343418E-05;  1.0000000E+04;  0.0000000E+00;  9.9508330E+03;  2.0709760E+00;  0.0000000E+00;  4.5074490E-01;  2.3047676E+04;
  8.6040151E-01;  9.9999998E-03; -1.4041190E-01;2370;  1.3369243E-01;  0.0000000E+00; -7.4253500E-02;  1.0150048E+03;  4.0939718E-01;  1.2420463E+04;3;  2.3595066E+01;  0.0000000E+00;  1.9509701E+01;0;  2.5354216E+00;  9.8849619E+03;  0.0000000E+00;  2.3427385E-05;  1.0000000E+04;  0.0000000E+00;  9.9491533E+03;  2.0605340E+00;  0.0000000E+00;  4.7488755E-01;  2.3860053E+04;
  8.6039251E-01;  9.9999998E-03; -1.2035526E-01;2371;  1.3335279E-01;  0.0000000E+00; -6.3804425E-02;  1.0150352E+03;  4.0939671E-01;  1.2445627E+04;3;  2.4883696E+01;  0.0000000E+00;  2.0000792E+01;0;  2.5402908E+00;  9.8873057E+03;  0.0000000E+00;  1.4088294E-05;  1.0000000E+04;  0.0000000E+00;  9.9474043E+03;  2.0496092E+00;  0.0000000E+00;  4.9068171E-01;  2.4715701E+04;
  8.6038488E-01;  9.9999998E-03; -1.0029816E-01;2372;  1.3322282E-01;  0.0000000E+00; -5.4019380E-02;  1.0150539E+03;  4.0939632E-01;  1.2461120E+04;3;  2.6228559E+01;  0.0000000E+00;  1.9467152E+01;0;  2.5469985E+00;  9.8893818E+03;  0.0000000E+00;  9.7577831E-06;  1.0000000E+04;  0.0000000E+00;  9.9457070E+03;  2.0410852E+00;  0.0000000E+00;  5.0591320E-01;  2.5550414E+04;
  8.6037868E-01;  9.9999998E-03; -8.0242373E-02;2373;  1.3319020E-01;  0.0000000E+00; -4.4721648E-02;  1.0150577E+03;  4.0939593E-01;  1.2464278E+04;3;  2.7509752E+01;  0.0000000E+00;  1.7822580E+01;0;  2.5615485E+00;  9.8911055E+03;  0.0000000E+00;  5.8781925E-06;  1.0000000E+04;  0.0000000E+00;  9.9440693E+03;  2.0356212E+00;  0.0000000E+00;  5.2592725E-01;  2.6347428E+04;
  8.6037374E-01;  9.9999998E-03; -6.0186412E-02;2374;  1.3318287E-01;  0.0000000E+00; -3.5126142E-02;  1.0150457E+03;  4.0939564E-01;  1.2454313E+04;3;  2.8623451E+01;  0.0000000E+00;  1.4969253E+01;0;  2.5839496E+00;  9.8924385E+03;  0.0000000E+00;  2.6697032E-06;  1.0000000E+04;  0.0000000E+00;  9.9425088E+03;  2.0326688E+00;  0.0000000E+00;  5.5128062E-01;  2.7096459E+04;
  8.6037016E-01;  9.9999998E-03; -4.0127821E-02;2375;  1.3316979E-01;  0.0000000E+00; -2.4516605E-02;  1.0150243E+03;  4.0939528E-01;  1.2436650E+04;3;  2.9484365E+01;  0.0000000E+00;  1.0887231E+01;0;  2.6088517E+00;  9.8933916E+03;  0.0000000E+00;  9.0161723E-07;  1.0000000E+04;  0.0000000E+00;  9.9411436E+03;  2.0313346E+00;  0.0000000E+00;  5.7751697E-01;  2.7746545E+04;
  8.6036795E-01;  9.9999998E-03; -2.0065330E-02;2376;  1.3315171E-01;  0.0000000E+00; -1.2672894E-02;  1.0150037E+03;  4.0939528E-01;  1.2419579E+04;3;  3.0027727E+01;  0.0000000E+00;  5.7523298E+00;0;  2.6283815E+00;  9.8939600E+03;  0.0000000E+00;  1.8368269E-07;  1.0000000E+04;  0.0000000E+00;  9.9401748E+03;  2.0308444E+00;  0.0000000E+00;  5.9753698E-01;  2.8203982E+04;
  8.8056058E-01;  9.9999998E-03; -1.8048534E-01;2399;  1.8481328E-01;  0.0000000E+00; -9.3253404E-02;  1.0146241E+03;  4.0894505E-01;  1.2101714E+04;3;  3.2719723E+01;  0.0000000E+00;  1.3565804E+01;0;  2.2882113E+00;  9.8951758E+03;  0.0000000E+00;  1.9833076E-04;  1.0000000E+04;  0.0000000E+00;  9.9534619E+03;  1.8766425E+00;  0.0000000E+00;  4.1156897E-01;  2.1747146E+04;
  8.8054490E-01;  9.9999998E-03; -1.6044471E-01;2400;  1.8260026E-01;  0.0000000E+00; -8.3763056E-02;  1.0146940E+03;  4.0894422E-01;  1.2159525E+04;3;  3.3311535E+01;  0.0000000E+00;  1.5505219E+01;0;  2.3043461E+00;  9.8978936E+03;  0.0000000E+00;  3.7321595E-05;  1.0000000E+04;  0.0000000E+00;  9.9521270E+03;  1.8552443E+00;  0.0000000E+00;  4.4910187E-01;  2.2369193E+04;
  8.8053107E-01;  9.9999998E-03; -1.4039618E-01;2401;  1.8116474E-01;  0.0000000E+00; -7.3487058E-02;  1.0147581E+03;  4.0894398E-01;  1.2212600E+04;3;  3.4392281E+01;  0.0000000E+00;  1.7012829E+01;0;  2.3027635E+00;  9.9006572E+03;  0.0000000E+00;  8.8845482E-06;  1.0000000E+04;  0.0000000E+00;  9.9506279E+03;  1.8306540E+00;  0.0000000E+00;  4.7210938E-01;  2.3091113E+04;
  8.8051945E-01;  9.9999998E-03; -1.2034091E-01;2402;  1.8044403E-01;  0.0000000E+00; -6.2861085E-02;  1.0148087E+03;  4.0894344E-01;  1.2254431E+04;3;  3.5810104E+01;  0.0000000E+00;  1.7684319E+01;0;  2.2936413E+00;  9.9031943E+03;  0.0000000E+00;  5.8607634E-06;  1.0000000E+04;  0.0000000E+00;  9.9490908E+03;  1.8079109E+00;  0.0000000E+00;  4.8573038E-01;  2.3844012E+04;
  8.8050997E-01;  9.9999998E-03; -1.0028557E-01;2403;  1.8020156E-01;  0.0000000E+00; -5.2986037E-02;  1.0148431E+03;  4.0894306E-01;  1.2282940E+04;3;  3.7391853E+01;  0.0000000E+00;  1.7396198E+01;0;  2.2874036E+00;  9.9053613E+03;  0.0000000E+00;  6.6789116E-06;  1.0000000E+04;  0.0000000E+00;  9.9476045E+03;  1.7894957E+00;  0.0000000E+00;  4.9790797E-01;  2.4573803E+04;
  8.8050228E-01;  9.9999998E-03; -8.0231830E-02;2404;  1.8021846E-01;  0.0000000E+00; -4.3699484E-02;  1.0148589E+03;  4.0894270E-01;  1.2296063E+04;3;  3.8967869E+01;  0.0000000E+00;  1.6056097E+01;0;  2.2902963E+00;  9.9071230E+03;  0.0000000E+00;  5.9998829E-06;  1.0000000E+04;  0.0000000E+00;  9.9461699E+03;  1.7758937E+00;  0.0000000E+00;  5.1440257E-01;  2.5272943E+04;
  8.8049632E-01;  9.9999998E-03; -6.0178149E-02;2405;  1.8033116E-01;  0.0000000E+00; -3.4222528E-02;  1.0148564E+03;  4.0894243E-01;  1.2293992E+04;3;  4.0381042E+01;  0.0000000E+00;  1.3568538E+01;0;  2.3028407E+00;  9.9084639E+03;  0.0000000E+00;  3.8799876E-06;  1.0000000E+04;  0.0000000E+00;  9.9447832E+03;  1.7665496E+00;  0.0000000E+00;  5.3629100E-01;  2.5938195E+04;
  8.8049203E-01;  9.9999998E-03; -4.0122099E-02;2406;  1.8044299E-01;  0.0000000E+00; -2.3836922E-02;  1.0148412E+03;  4.0894228E-01;  1.2281366E+04;3;  4.1496864E+01;  0.0000000E+00;  9.9120703E+00;0;  2.3202343E+00;  9.9094141E+03;  0.0000000E+00;  1.8549513E-06;  1.0000000E+04;  0.0000000E+00;  9.9435469E+03;  1.7606134E+00;  0.0000000E+00;  5.5962074E-01;  2.6524033E+04;
  8.8048935E-01;  9.9999998E-03; -2.0062393E-02;2407;  1.8051413E-01;  0.0000000E+00; -1.2306642E-02;  1.0148249E+03;  4.0894213E-01;  1.2267852E+04;3;  4.2210850E+01;  0.0000000E+00;  5.2511911E+00;0;  2.3350661E+00;  9.9099766E+03;  0.0000000E+00;  5.1662909E-07;  1.0000000E+04;  0.0000000E+00;  9.9426611E+03;  1.7573565E+00;  0.0000000E+00;  5.7770950E-01;  2.6940961E+04;
  9.0068245E-01;  9.9999998E-03; -1.8046288E-01;2430;  2.2996986E-01;  0.0000000E+00; -9.1417901E-02;  1.0142711E+03;  4.0837908E-01;  1.1804690E+04;3;  4.3443493E+01;  0.0000000E+00;  1.1176858E+01;0;  1.9996643E+00;  9.9141660E+03;  0.0000000E+00;  1.5093268E-04;  1.0000000E+04;  0.0000000E+00;  9.9550879E+03;  1.5938303E+00;  0.0000000E+00;  4.0583390E-01;  2.0904361E+04;
  9.0066278E-01;  9.9999998E-03; -1.6042344E-01;2431;  2.2662275E-01;  0.0000000E+00; -8.1978969E-02;  1.0143720E+03;  4.0837839E-01;  1.1888217E+04;3;  4.3883728E+01;  0.0000000E+00;  1.3084751E+01;0;  2.0002637E+00;  9.9173857E+03;  0.0000000E+00; -1.6846545E-05;  1.0000000E+04;  0.0000000E+00;  9.9538574E+03;  1.5572221E+00;  0.0000000E+00;  4.4304168E-01;  2.1474305E+04;
  9.0064567E-01;  9.9999998E-03; -1.4037652E-01;2432;  2.2435541E-01;  0.0000000E+00; -7.1770288E-02;  1.0144565E+03;  4.0837812E-01;  1.1958134E+04;3;  4.4910103E+01;  0.0000000E+00;  1.4593325E+01;0;  1.9860981E+00;  9.9203994E+03;  0.0000000E+00; -2.5633897E-05;  1.0000000E+04;  0.0000000E+00;  9.9525117E+03;  1.5208582E+00;  0.0000000E+00;  4.6523985E-01;  2.2121281E+04;
  9.0063149E-01;  9.9999998E-03; -1.2032338E-01;2433;  2.2309344E-01;  0.0000000E+00; -6.1262015E-02;  1.0145211E+03;  4.0837783E-01;  1.2011583E+04;3;  4.6366570E+01;  0.0000000E+00;  1.5333025E+01;0;  1.9657674E+00;  9.9230254E+03;  0.0000000E+00; -1.7407778E-05;  1.0000000E+04;  0.0000000E+00;  9.9511592E+03;  1.4885530E+00;  0.0000000E+00;  4.7721428E-01;  2.2779914E+04;
  9.0061998E-01;  9.9999998E-03; -1.0027044E-01;2434;  2.2253510E-01;  0.0000000E+00; -5.1539928E-02;  1.0145671E+03;  4.0837732E-01;  1.2049648E+04;3;  4.8062065E+01;  0.0000000E+00;  1.5191211E+01;0;  1.9488866E+00;  9.9252070E+03;  0.0000000E+00; -1.0049319E-05;  1.0000000E+04;  0.0000000E+00;  9.9498896E+03;  1.4619868E+00;  0.0000000E+00;  4.8689991E-01;  2.3406061E+04;
  9.0061080E-01;  9.9999998E-03; -8.0219284E-02;2435;  2.2238952E-01;  0.0000000E+00; -4.2441607E-02;  1.0145923E+03;  4.0837705E-01;  1.2070459E+04;3;  4.9798664E+01;  0.0000000E+00;  1.4092344E+01;0;  1.9417161E+00;  9.9269453E+03;  0.0000000E+00; -5.2880177E-06;  1.0000000E+04;  0.0000000E+00;  9.9486592E+03;  1.4413656E+00;  0.0000000E+00;  5.0035048E-01;  2.4002561E+04;
  9.0060365E-01;  9.9999998E-03; -6.0168389E-02;2436;  2.2243401E-01;  0.0000000E+00; -3.3199344E-02;  1.0145977E+03;  4.0837690E-01;  1.2074896E+04;3;  5.1386288E+01;  0.0000000E+00;  1.1955654E+01;0;  1.9453130E+00;  9.9282607E+03;  0.0000000E+00; -2.6607997E-06;  1.0000000E+04;  0.0000000E+00;  9.9474619E+03;  1.4262117E+00;  0.0000000E+00;  5.1910120E-01;  2.4575480E+04;
  9.0059847E-01;  9.9999998E-03; -4.0115368E-02;2437;  2.2252768E-01;  0.0000000E+00; -2.3105433E-02;  1.0145895E+03;  4.0837678E-01;  1.2068095E+04;3;  5.2657547E+01;  0.0000000E+00;  8.7598581E+00;0;  1.9556178E+00;  9.9291855E+03;  0.0000000E+00; -1.0238274E-06;  1.0000000E+04;  0.0000000E+00;  9.9463740E+03;  1.4159057E+00;  0.0000000E+00;  5.3971207E-01;  2.5087893E+04;
  9.0059531E-01;  9.9999998E-03; -2.0058943E-02;2438;  2.2259985E-01;  0.0000000E+00; -1.1922790E-02;  1.0145770E+03;  4.0837681E-01;  1.2057741E+04;3;  5.3478466E+01;  0.0000000E+00;  4.6496696E+00;0;  1.9658947E+00;  9.9297314E+03;  0.0000000E+00; -1.7146746E-07;  1.0000000E+04;  0.0000000E+00;  9.9455879E+03;  1.4099351E+00;  0.0000000E+00;  5.5595958E-01;  2.5457461E+04;
  9.2077219E-01;  9.9999998E-03; -1.8043552E-01;2461;  2.6644322E-01;  0.0000000E+00; -8.7958470E-02;  1.0138779E+03;  4.0773004E-01;  1.1473255E+04;3;  5.3662701E+01;  0.0000000E+00;  9.1612053E+00;0;  1.6428064E+00;  9.9360459E+03;  0.0000000E+00;  4.3528136E-05;  1.0000000E+04;  0.0000000E+00;  9.9571426E+03;  1.2463374E+00;  0.0000000E+00;  3.9646903E-01;  1.9845139E+04;
  9.2074537E-01;  9.9999998E-03; -1.6039783E-01;2462;  2.6126474E-01;  0.0000000E+00; -7.8762881E-02;  1.0139990E+03;  4.0772974E-01;  1.1573296E+04;3;  5.4055599E+01;  0.0000000E+00;  1.1018998E+01;0;  1.6309608E+00;  9.9395771E+03;  0.0000000E+00; -6.9628732E-05;  1.0000000E+04;  0.0000000E+00;  9.9559893E+03;  1.1980935E+00;  0.0000000E+00;  4.3286726E-01;  2.0376490E+04;
  9.2072260E-01;  9.9999998E-03; -1.4035311E-01;2463;  2.5748286E-01;  0.0000000E+00; -6.8864547E-02;  1.0140921E+03;  4.0772936E-01;  1.1650275E+04;3;  5.5054020E+01;  0.0000000E+00;  1.2461348E+01;0;  1.6083111E+00;  9.9426426E+03;  0.0000000E+00; -4.7623682E-05;  1.0000000E+04;  0.0000000E+00;  9.9547637E+03;  1.1541389E+00;  0.0000000E+00;  4.5417210E-01;  2.0962029E+04;
  9.2070377E-01;  9.9999998E-03; -1.2030283E-01;2464;  2.5494328E-01;  0.0000000E+00; -5.8747914E-02;  1.0141605E+03;  4.0772918E-01;  1.1706851E+04;3;  5.6505848E+01;  0.0000000E+00;  1.3174946E+01;0;  1.5811447E+00;  9.9451816E+03;  0.0000000E+00; -3.1710173E-05;  1.0000000E+04;  0.0000000E+00;  9.9535781E+03;  1.1163360E+00;  0.0000000E+00;  4.6480873E-01;  2.1538053E+04;
  9.2068815E-01;  9.9999998E-03; -1.0025302E-01;2465;  2.5328648E-01;  0.0000000E+00; -4.9437229E-02;  1.0142094E+03;  4.0772900E-01;  1.1747264E+04;3;  5.8212410E+01;  0.0000000E+00;  1.3081100E+01;0;  1.5576885E+00;  9.9472266E+03;  0.0000000E+00; -2.3208027E-05;  1.0000000E+04;  0.0000000E+00;  9.9524922E+03;  1.0851618E+00;  0.0000000E+00;  4.7252670E-01;  2.2068408E+04;
  9.2067552E-01;  9.9999998E-03; -8.0205098E-02;2466;  2.5221792E-01;  0.0000000E+00; -4.0743653E-02;  1.0142379E+03;  4.0772885E-01;  1.1770823E+04;3;  5.9973896E+01;  0.0000000E+00;  1.2141496E+01;0;  1.5438447E+00;  9.9488242E+03;  0.0000000E+00; -1.6373477E-05;  1.0000000E+04;  0.0000000E+00;  9.9514619E+03;  1.0603657E+00;  0.0000000E+00;  4.8347905E-01;  2.2565541E+04;
  9.2066574E-01;  9.9999998E-03; -6.0157530E-02;2467;  2.5153908E-01;  0.0000000E+00; -3.1901229E-02;  1.0142474E+03;  4.0772855E-01;  1.1778711E+04;3;  6.1574951E+01;  0.0000000E+00;  1.0303259E+01;0;  1.5410467E+00;  9.9500264E+03;  0.0000000E+00; -1.0031968E-05;  1.0000000E+04;  0.0000000E+00;  9.9504561E+03;  1.0415195E+00;  0.0000000E+00;  4.9952722E-01;  2.3045381E+04;
  9.2065871E-01;  9.9999998E-03; -4.0107962E-02;2468;  2.5112268E-01;  0.0000000E+00; -2.2216586E-02;  1.0142424E+03;  4.0772858E-01;  1.1774574E+04;3;  6.2842140E+01;  0.0000000E+00;  7.5521159E+00;0;  1.5459812E+00;  9.9508672E+03;  0.0000000E+00; -4.5513407E-06;  1.0000000E+04;  0.0000000E+00;  9.9495225E+03;  1.0282767E+00;  0.0000000E+00;  5.1770443E-01;  2.3481328E+04;
  9.2065448E-01;  9.9999998E-03; -2.0055175E-02;2469;  2.5090107E-01;  0.0000000E+00; -1.1467569E-02;  1.0142326E+03;  4.0772846E-01;  1.1766495E+04;3;  6.3656574E+01;  0.0000000E+00;  4.0111337E+00;0;  1.5526725E+00;  9.9513633E+03;  0.0000000E+00; -1.0837549E-06;  1.0000000E+04;  0.0000000E+00;  9.9488350E+03;  1.0204134E+00;  0.0000000E+00;  5.3225911E-01;  2.3800338E+04;
  9.4080091E-01;  9.9999998E-03; -1.8040593E-01;2492;  2.8418219E-01;  0.0000000E+00; -8.3835438E-02;  1.0133682E+03;  4.0702990E-01;  1.1043556E+04;3;  6.2749187E+01;  0.0000000E+00;  7.4543371E+00;0;  1.2675185E+00;  9.9578652E+03;  0.0000000E+00; -3.8080412E-05;  1.0000000E+04;  0.0000000E+00;  9.9595313E+03;  8.8325810E-01;  0.0000000E+00;  3.8426039E-01;  1.8603932E+04;
  9.4077033E-01;  9.9999998E-03; -1.6036968E-01;2493;  2.7764112E-01;  0.0000000E+00; -7.4756004E-02;  1.0134954E+03;  4.0702969E-01;  1.1148748E+04;3;  6.3012680E+01;  0.0000000E+00;  9.2414637E+00;0;  1.2475024E+00;  9.9614658E+03;  0.0000000E+00; -6.4728425E-05;  1.0000000E+04;  0.0000000E+00;  9.9584365E+03;  8.2818532E-01;  0.0000000E+00;  4.1931716E-01;  1.9105377E+04;
  9.4074446E-01;  9.9999998E-03; -1.4032736E-01;2494;  2.7243283E-01;  0.0000000E+00; -6.5215930E-02;  1.0135847E+03;  4.0702954E-01;  1.1222424E+04;3;  6.3703453E+01;  0.0000000E+00;  1.0555713E+01;0;  1.2211570E+00;  9.9643594E+03;  0.0000000E+00; -2.6121514E-05;  1.0000000E+04;  0.0000000E+00;  9.9572998E+03;  7.8155226E-01;  0.0000000E+00;  4.3960473E-01;  1.9641326E+04;
  9.4072288E-01;  9.9999998E-03; -1.2028033E-01;2495;  2.6842758E-01;  0.0000000E+00; -5.5626269E-02;  1.0136465E+03;  4.0702936E-01;  1.1273545E+04;3;  6.4649643E+01;  0.0000000E+00;  1.1156651E+01;0;  1.1920559E+00;  9.9666387E+03;  0.0000000E+00; -1.7678667E-05;  1.0000000E+04;  0.0000000E+00;  9.9562451E+03;  7.4288338E-01;  0.0000000E+00;  4.4917262E-01;  2.0147639E+04;
  9.4070506E-01;  9.9999998E-03; -1.0023403E-01;2496;  2.6539674E-01;  0.0000000E+00; -4.6841264E-02;  1.0136893E+03;  4.0702939E-01;  1.1308908E+04;3;  6.5765068E+01;  0.0000000E+00;  1.1030547E+01;0;  1.1666254E+00;  9.9684004E+03;  0.0000000E+00; -1.8119290E-05;  1.0000000E+04;  0.0000000E+00;  9.9553301E+03;  7.1121901E-01;  0.0000000E+00;  4.5540634E-01;  2.0593514E+04;
  9.4069070E-01;  9.9999998E-03; -8.0189645E-02;2497;  2.6311746E-01;  0.0000000E+00; -3.8624376E-02;  1.0137150E+03;  4.0702927E-01;  1.1330188E+04;3;  6.6799774E+01;  0.0000000E+00;  1.0202695E+01;0;  1.1500803E+00;  9.9697549E+03;  0.0000000E+00; -1.5998605E-05;  1.0000000E+04;  0.0000000E+00;  9.9544814E+03;  6.8572634E-01;  0.0000000E+00;  4.6435401E-01;  2.0998961E+04;
  9.4067961E-01;  9.9999998E-03; -6.0145624E-02;2498;  2.6146567E-01;  0.0000000E+00; -3.0234585E-02;  1.0137236E+03;  4.0702915E-01;  1.1337282E+04;3;  6.7773941E+01;  0.0000000E+00;  8.6434069E+00;0;  1.1440237E+00;  9.9707637E+03;  0.0000000E+00; -1.0971939E-05;  1.0000000E+04;  0.0000000E+00;  9.9536533E+03;  6.6594768E-01;  0.0000000E+00;  4.7807601E-01;  2.1389158E+04;
  9.4067180E-01;  9.9999998E-03; -4.0099785E-02;2499;  2.6035240E-01;  0.0000000E+00; -2.1040985E-02;  1.0137200E+03;  4.0702921E-01;  1.1334332E+04;3;  6.8525826E+01;  0.0000000E+00;  6.3332877E+00;0;  1.1458019E+00;  9.9714678E+03;  0.0000000E+00; -5.1562620E-06;  1.0000000E+04;  0.0000000E+00;  9.9528770E+03;  6.5176117E-01;  0.0000000E+00;  4.9404070E-01;  2.1748652E+04;
  9.4066709E-01;  9.9999998E-03; -2.0050976E-02;2500;  2.5971043E-01;  0.0000000E+00; -1.0850323E-02;  1.0137112E+03;  4.0702918E-01;  1.1327047E+04;3;  6.8946785E+01;  0.0000000E+00;  3.3660195E+00;0;  1.1502039E+00;  9.9718838E+03;  0.0000000E+00; -1.2313629E-06;  1.0000000E+04;  0.0000000E+00;  9.9522939E+03;  6.4320731E-01;  0.0000000E+00;  5.0699657E-01;  2.2015570E+04;
  9.6080458E-01;  9.9999998E-03; -1.8037596E-01;2523;  2.9003569E-01;  0.0000000E+00; -7.9963058E-02;  1.0126635E+03;  4.0630901E-01;  1.0451020E+04;3;  6.7748810E+01;  0.0000000E+00;  5.4606967E+00;0;  9.2573422E-01;  9.9767100E+03;  0.0000000E+00; -3.2636653E-05;  1.0000000E+04;  0.0000000E+00;  9.9621494E+03;  5.5638885E-01;  0.0000000E+00;  3.6934537E-01;  1.7214623E+04;
  9.6077275E-01;  9.9999998E-03; -1.6034119E-01;2524;  2.8277144E-01;  0.0000000E+00; -7.0927866E-02;  1.0127860E+03;  4.0630877E-01;  1.0552175E+04;3;  6.7595688E+01;  0.0000000E+00;  7.2352419E+00;0;  9.0215629E-01;  9.9801836E+03;  0.0000000E+00;  9.1555813E-07;  1.0000000E+04;  0.0000000E+00;  9.9610918E+03;  4.9929965E-01;  0.0000000E+00;  4.0285665E-01;  1.7694189E+04;
  9.6074575E-01;  9.9999998E-03; -1.4030129E-01;2525;  2.7678171E-01;  0.0000000E+00; -6.1657880E-02;  1.0128632E+03;  4.0630877E-01;  1.0615943E+04;3;  6.7794922E+01;  0.0000000E+00;  8.4973288E+00;0;  8.7640989E-01;  9.9827813E+03;  0.0000000E+00;  2.5462394E-05;  1.0000000E+04;  0.0000000E+00;  9.9600176E+03;  4.5411441E-01;  0.0000000E+00;  4.2229548E-01;  1.8192861E+04;
  9.6072322E-01;  9.9999998E-03; -1.2025756E-01;2526;  2.7197197E-01;  0.0000000E+00; -5.2547008E-02;  1.0129120E+03;  4.0630874E-01;  1.0656196E+04;3;  6.8135925E+01;  0.0000000E+00;  9.0441971E+00;0;  8.4941018E-01;  9.9846953E+03;  0.0000000E+00;  1.3172379E-05;  1.0000000E+04;  0.0000000E+00;  9.9590703E+03;  4.1817206E-01;  0.0000000E+00;  4.3123809E-01;  1.8644207E+04;
  9.6070457E-01;  9.9999998E-03; -1.0021467E-01;2527;  2.6819021E-01;  0.0000000E+00; -4.4215519E-02;  1.0129445E+03;  4.0630874E-01;  1.0682967E+04;3;  6.8627289E+01;  0.0000000E+00;  8.9453630E+00;0;  8.2569134E-01;  9.9861221E+03;  0.0000000E+00; -1.1691643E-06;  1.0000000E+04;  0.0000000E+00;  9.9582822E+03;  3.8915455E-01;  0.0000000E+00;  4.3653679E-01;  1.9020119E+04;
  9.6068954E-01;  9.9999998E-03; -8.0173612E-02;2528;  2.6530603E-01;  0.0000000E+00; -3.6397822E-02;  1.0129638E+03;  4.0630874E-01;  1.0698914E+04;3;  6.9148567E+01;  0.0000000E+00;  8.2675533E+00;0;  8.0962229E-01;  9.9871885E+03;  0.0000000E+00; -7.0824831E-06;  1.0000000E+04;  0.0000000E+00;  9.9575947E+03;  3.6566484E-01;  0.0000000E+00;  4.4395745E-01;  1.9345354E+04;
  9.6067798E-01;  9.9999998E-03; -6.0133077E-02;2529;  2.6318371E-01;  0.0000000E+00; -2.8434040E-02;  1.0129695E+03;  4.0630871E-01;  1.0703644E+04;3;  6.9711586E+01;  0.0000000E+00;  7.0109773E+00;0;  8.0283970E-01;  9.9879785E+03;  0.0000000E+00; -6.5307886E-06;  1.0000000E+04;  0.0000000E+00;  9.9569297E+03;  3.4717423E-01;  0.0000000E+00;  4.5566547E-01;  1.9652811E+04;
  9.6066982E-01;  9.9999998E-03; -4.0091075E-02;2530;  2.6173371E-01;  0.0000000E+00; -1.9770328E-02;  1.0129655E+03;  4.0630877E-01;  1.0700303E+04;3;  7.0157021E+01;  0.0000000E+00;  5.1495862E+00;0;  8.0326521E-01;  9.9885264E+03;  0.0000000E+00; -3.3417273E-06;  1.0000000E+04;  0.0000000E+00;  9.9563047E+03;  3.3370981E-01;  0.0000000E+00;  4.6955541E-01;  1.9938314E+04;
  9.6066499E-01;  9.9999998E-03; -2.0046530E-02;2531;  2.6089796E-01;  0.0000000E+00; -1.0207407E-02;  1.0129575E+03;  4.0630865E-01;  1.0693813E+04;3;  7.0446014E+01;  0.0000000E+00;  2.7393610E+00;0;  8.0643684E-01;  9.9888467E+03;  0.0000000E+00; -7.8735587E-07;  1.0000000E+04;  0.0000000E+00;  9.9558271E+03;  3.2549757E-01;  0.0000000E+00;  4.8093927E-01;  2.0152973E+04;
  9.8079932E-01;  9.9999998E-03; -1.8034714E-01;2554;  2.9106787E-01;  0.0000000E+00; -7.6483048E-02;  1.0117465E+03;  4.0559494E-01;  9.6811855E+03;3;  6.9648972E+01;  0.0000000E+00;  3.3265655E+00;0;  6.4980918E-01;  9.9909453E+03;  0.0000000E+00;  9.9985291E-06;  1.0000000E+04;  0.0000000E+00;  9.9649238E+03;  2.9858980E-01;  0.0000000E+00;  3.5121939E-01;  1.5710092E+04;
  9.8076659E-01;  9.9999998E-03; -1.6031432E-01;2555;  2.8340739E-01;  0.0000000E+00; -6.7731909E-02;  1.0118592E+03;  4.0559489E-01;  9.7741553E+03;3;  6.9314102E+01;  0.0000000E+00;  5.0981436E+00;0;  6.2650967E-01;  9.9942236E+03;  0.0000000E+00;  5.9346527E-05;  1.0000000E+04;  0.0000000E+00;  9.9638799E+03;  2.4307224E-01;  0.0000000E+00;  3.8343742E-01;  1.6175672E+04;
  9.8073888E-01;  9.9999998E-03; -1.4027676E-01;2556;  2.7702790E-01;  0.0000000E+00; -5.8719270E-02;  1.0119226E+03;  4.0559492E-01;  9.8264453E+03;3;  6.9280983E+01;  0.0000000E+00;  6.3422093E+00;0;  6.0423148E-01;  9.9965117E+03;  0.0000000E+00;  5.7110548E-05;  1.0000000E+04;  0.0000000E+00;  9.9628408E+03;  2.0162803E-01;  0.0000000E+00;  4.0260342E-01;  1.6649666E+04;
  9.8071581E-01;  9.9999998E-03; -1.2023603E-01;2557;  2.7185357E-01;  0.0000000E+00; -4.9953364E-02;  1.0119580E+03;  4.0559494E-01;  9.8556436E+03;3;  6.9418518E+01;  0.0000000E+00;  6.9251957E+00;0;  5.8162498E-01;  9.9981016E+03;  0.0000000E+00;  3.0587031E-05;  1.0000000E+04;  0.0000000E+00;  9.9619551E+03;  1.6997024E-01;  0.0000000E+00;  4.1165474E-01;  1.7062344E+04;
  9.8069674E-01;  9.9999998E-03; -1.0019623E-01;2558;  2.6776639E-01;  0.0000000E+00; -4.1943479E-02;  1.0119800E+03;  4.0559500E-01;  9.8738350E+03;3;  6.9737770E+01;  0.0000000E+00;  6.8823962E+00;0;  5.6155658E-01;  9.9992285E+03;  0.0000000E+00;  1.0072509E-05;  1.0000000E+04;  0.0000000E+00;  9.9612598E+03;  1.4481688E-01;  0.0000000E+00;  4.1673967E-01;  1.7386029E+04;
  9.8068142E-01;  9.9999998E-03; -8.0158338E-02;2559;  2.6456958E-01;  0.0000000E+00; -3.4413442E-02;  1.0119933E+03;  4.0559512E-01;  9.8847520E+03;3;  7.0177231E+01;  0.0000000E+00;  6.3737926E+00;0;  5.4760975E-01;  1.0000050E+04;  0.0000000E+00; -6.3795923E-08;  1.0000000E+04;  0.0000000E+00;  9.9607002E+03;  1.2440992E-01;  0.0000000E+00;  4.2319983E-01;  1.7646963E+04;
  9.8066968E-01;  9.9999998E-03; -6.0121104E-02;2560;  2.6215088E-01;  0.0000000E+00; -2.6783640E-02;  1.0119973E+03;  4.0559503E-01;  9.8880029E+03;3;  7.0529350E+01;  0.0000000E+00;  5.4627075E+00;0;  5.4141706E-01;  1.0000646E+04;  0.0000000E+00; -2.9261614E-06;  1.0000000E+04;  0.0000000E+00;  9.9601787E+03;  1.0818182E-01;  0.0000000E+00;  4.3323523E-01;  1.7883076E+04;
  9.8066127E-01;  9.9999998E-03; -4.0082686E-02;2561;  2.6047617E-01;  0.0000000E+00; -1.8549271E-02;  1.0119929E+03;  4.0559503E-01;  9.8844727E+03;3;  7.0829262E+01;  0.0000000E+00;  4.0351272E+00;0;  5.4141486E-01;  1.0001057E+04;  0.0000000E+00; -2.0485111E-06;  1.0000000E+04;  0.0000000E+00;  9.9596904E+03;  9.6237302E-02;  0.0000000E+00;  4.4517756E-01;  1.8100574E+04;
  9.8065627E-01;  9.9999998E-03; -2.0042131E-02;2562;  2.5950253E-01;  0.0000000E+00; -9.5355716E-03;  1.0119861E+03;  4.0559512E-01;  9.8788760E+03;3;  7.1088394E+01;  0.0000000E+00;  2.1570592E+00;0;  5.4388762E-01;  1.0001299E+04;  0.0000000E+00; -5.4619602E-07;  1.0000000E+04;  0.0000000E+00;  9.9593145E+03;  8.8892668E-02;  0.0000000E+00;  4.5499492E-01;  1.8265100E+04;
  1.0007900E+00;  9.9999998E-03; -1.8031952E-01;2585;  2.9027739E-01;  0.0000000E+00; -7.2769001E-02;  1.0106656E+03;  4.0491107E-01;  8.7745469E+03;3;  7.0467888E+01;  0.0000000E+00;  1.5346042E+00;0;  4.4676465E-01;  1.0000444E+04;  0.0000000E+00; -2.3520597E-04;  1.0000000E+04;  0.0000000E+00;  9.9677666E+03;  1.1742442E-01;  0.0000000E+00;  3.2934022E-01;  1.4130245E+04;
  1.0007564E+00;  9.9999998E-03; -1.6028963E-01;2586;  2.8230143E-01;  0.0000000E+00; -6.4706460E-02;  1.0107696E+03;  4.0491113E-01;  8.8601953E+03;3;  7.0171135E+01;  0.0000000E+00;  3.2392807E+00;0;  4.2618442E-01;  1.0003538E+04;  0.0000000E+00;  3.3680179E-05;  1.0000000E+04;  0.0000000E+00;  9.9667305E+03;  6.5453887E-02;  0.0000000E+00;  3.6073053E-01;  1.4583012E+04;
  1.0007277E+00;  9.9999998E-03; -1.4025494E-01;2587;  2.7557096E-01;  0.0000000E+00; -5.6266475E-02;  1.0108227E+03;  4.0491119E-01;  8.9038652E+03;3;  7.0102432E+01;  0.0000000E+00;  4.4871325E+00;0;  4.0853938E-01;  1.0005615E+04;  0.0000000E+00;  2.7257809E-05;  1.0000000E+04;  0.0000000E+00;  9.9657002E+03;  2.8102027E-02;  0.0000000E+00;  3.8043734E-01;  1.5040909E+04;
  1.0007039E+00;  9.9999998E-03; -1.2021748E-01;2588;  2.7009681E-01;  0.0000000E+00; -4.7990974E-02;  1.0108487E+03;  4.0491116E-01;  8.9252676E+03;3;  7.0200188E+01;  0.0000000E+00;  5.0862312E+00;0;  3.9086625E-01;  1.0006997E+04;  0.0000000E+00;  1.5830112E-05;  1.0000000E+04;  0.0000000E+00;  9.9648398E+03;  3.2099863E-04;  0.0000000E+00;  3.9054525E-01;  1.5429663E+04;
  1.0006846E+00;  9.9999998E-03; -1.0018057E-01;2589;  2.6568469E-01;  0.0000000E+00; -4.0238507E-02;  1.0108644E+03;  4.0491140E-01;  8.9383291E+03;3;  7.0397438E+01;  0.0000000E+00;  5.1768355E+00;0;  3.7477261E-01;  1.0007941E+04;  0.0000000E+00;  8.0104364E-06;  1.0000000E+04;  0.0000000E+00;  9.9642021E+03; -2.1541731E-02;  0.0000000E+00;  3.9631435E-01;  1.5720286E+04;
  1.0006692E+00;  9.9999998E-03; -8.0145359E-02;2590;  2.6220173E-01;  0.0000000E+00; -3.2950375E-02;  1.0108740E+03;  4.0491137E-01;  8.9461895E+03;3;  7.0685204E+01;  0.0000000E+00;  4.8650532E+00;0;  3.6324111E-01;  1.0008608E+04;  0.0000000E+00;  1.5204521E-06;  1.0000000E+04;  0.0000000E+00;  9.9637236E+03; -3.9286103E-02;  0.0000000E+00;  4.0252721E-01;  1.5936639E+04;
  1.0006572E+00;  9.9999998E-03; -6.0110707E-02;2591;  2.5953129E-01;  0.0000000E+00; -2.5556017E-02;  1.0108773E+03;  4.0491143E-01;  8.9488486E+03;3;  7.0969055E+01;  0.0000000E+00;  4.1161680E+00;0;  3.5790277E-01;  1.0009080E+04;  0.0000000E+00; -2.3484019E-06;  1.0000000E+04;  0.0000000E+00;  9.9633096E+03; -5.3436074E-02;  0.0000000E+00;  4.1133884E-01;  1.6117677E+04;
  1.0006485E+00;  9.9999998E-03; -4.0075261E-02;2592;  2.5761694E-01;  0.0000000E+00; -1.7605774E-02;  1.0108745E+03;  4.0491146E-01;  8.9466006E+03;3;  7.1224586E+01;  0.0000000E+00;  3.0010710E+00;0;  3.5765094E-01;  1.0009401E+04;  0.0000000E+00; -2.4408446E-06;  1.0000000E+04;  0.0000000E+00;  9.9629395E+03; -6.3879825E-02;  0.0000000E+00;  4.2153075E-01;  1.6277741E+04;
  1.0006434E+00;  9.9999998E-03; -2.0038240E-02;2593;  2.5647506E-01;  0.0000000E+00; -9.0206917E-03;  1.0108694E+03;  4.0491161E-01;  8.9424873E+03;3;  7.1400215E+01;  0.0000000E+00;  1.5882730E+00;0;  3.5951227E-01;  1.0009590E+04;  0.0000000E+00; -8.3107699E-07;  1.0000000E+04;  0.0000000E+00;  9.9626592E+03; -7.0317805E-02;  0.0000000E+00;  4.2983007E-01;  1.6397555E+04;
  1.0207783E+00;  9.9999998E-03; -1.8029405E-01;2616;  2.8852877E-01;  0.0000000E+00; -6.9462664E-02;  1.0095056E+03;  4.0427586E-01;  7.8014443E+03;3;  7.1128456E+01;  0.0000000E+00; -7.7519584E-03;0;  3.0567798E-01;  1.0006055E+04;  0.0000000E+00; -4.0045893E-03;  1.0000000E+04;  0.0000000E+00;  9.9705693E+03;  1.7389950E-03;  0.0000000E+00;  3.0393898E-01;  1.2532392E+04;
  1.0207437E+00;  9.9999998E-03; -1.6026612E-01;2617;  2.8009194E-01;  0.0000000E+00; -6.1638437E-02;  1.0096053E+03;  4.0427589E-01;  7.8832739E+03;3;  7.0591629E+01;  0.0000000E+00;  1.6583973E+00;0;  2.8876284E-01;  1.0009015E+04;  0.0000000E+00; -2.1963363E-04;  1.0000000E+04;  0.0000000E+00;  9.9695820E+03; -4.5755561E-02;  0.0000000E+00;  3.3451840E-01;  1.2953747E+04;
  1.0207140E+00;  9.9999998E-03; -1.4023434E-01;2618;  2.7304941E-01;  0.0000000E+00; -5.3662218E-02;  1.0096546E+03;  4.0427592E-01;  7.9238120E+03;3;  7.0362762E+01;  0.0000000E+00;  2.9288867E+00;0;  2.7545559E-01;  1.0011019E+04;  0.0000000E+00; -6.9331101E-05;  1.0000000E+04;  0.0000000E+00;  9.9685557E+03; -8.0028683E-02;  0.0000000E+00;  3.5548428E-01;  1.3393980E+04;
  1.0206897E+00;  9.9999998E-03; -1.2019999E-01;2619;  2.6730099E-01;  0.0000000E+00; -4.5774996E-02;  1.0096788E+03;  4.0427607E-01;  7.9436997E+03;3;  7.0434082E+01;  0.0000000E+00;  3.6973834E+00;0;  2.6198953E-01;  1.0012350E+04;  0.0000000E+00; -2.7088459E-05;  1.0000000E+04;  0.0000000E+00;  9.9676992E+03; -1.0560527E-01;  0.0000000E+00;  3.6759481E-01;  1.3767254E+04;
  1.0206701E+00;  9.9999998E-03; -1.0016572E-01;2620;  2.6268905E-01;  0.0000000E+00; -3.8323607E-02;  1.0096931E+03;  4.0427619E-01;  7.9554624E+03;3;  7.0557533E+01;  0.0000000E+00;  3.9388232E+00;0;  2.4917713E-01;  1.0013257E+04;  0.0000000E+00; -5.6824445E-07;  1.0000000E+04;  0.0000000E+00;  9.9670771E+03; -1.2584466E-01;  0.0000000E+00;  3.7502179E-01;  1.4041521E+04;
  1.0206543E+00;  9.9999998E-03; -8.0132969E-02;2621;  2.5902447E-01;  0.0000000E+00; -3.1287827E-02;  1.0097023E+03;  4.0427634E-01;  7.9630132E+03;3;  7.0866173E+01;  0.0000000E+00;  3.6561654E+00;0;  2.3957510E-01;  1.0013884E+04;  0.0000000E+00;  4.2071065E-06;  1.0000000E+04;  0.0000000E+00;  9.9666348E+03; -1.4224540E-01;  0.0000000E+00;  3.8182050E-01;  1.4234089E+04;
  1.0206422E+00;  9.9999998E-03; -6.0101006E-02;2622;  2.5612628E-01;  0.0000000E+00; -2.4185058E-02;  1.0097068E+03;  4.0427634E-01;  7.9667446E+03;3;  7.1158531E+01;  0.0000000E+00;  3.0951817E+00;0;  2.3477599E-01;  1.0014313E+04;  0.0000000E+00;  6.7384063E-09;  1.0000000E+04;  0.0000000E+00;  9.9662910E+03; -1.5520865E-01;  0.0000000E+00;  3.8998464E-01;  1.4379762E+04;
  1.0206332E+00;  9.9999998E-03; -4.0068492E-02;2623;  2.5400683E-01;  0.0000000E+00; -1.6641818E-02;  1.0097065E+03;  4.0427634E-01;  7.9664609E+03;3;  7.1403458E+01;  0.0000000E+00;  2.2570379E+00;0;  2.3406148E-01;  1.0014592E+04;  0.0000000E+00; -2.1797557E-06;  1.0000000E+04;  0.0000000E+00;  9.9660098E+03; -1.6468444E-01;  0.0000000E+00;  3.9874592E-01;  1.4497551E+04;
  1.0206279E+00;  9.9999998E-03; -2.0034719E-02;2624;  2.5270408E-01;  0.0000000E+00; -8.5112751E-03;  1.0097042E+03;  4.0427637E-01;  7.9645103E+03;3;  7.1554382E+01;  0.0000000E+00;  1.1949822E+00;0;  2.3517960E-01;  1.0014752E+04;  0.0000000E+00; -1.0154763E-06;  1.0000000E+04;  0.0000000E+00;  9.9658018E+03; -1.7048764E-01;  0.0000000E+00;  4.0566725E-01;  1.4581827E+04;
  1.0407649E+00;  9.9999998E-03; -1.8026984E-01;2647;  2.8609386E-01;  0.0000000E+00; -6.5704703E-02;  1.0083539E+03;  4.0370193E-01;  6.8341426E+03;3;  7.1416649E+01;  0.0000000E+00; -1.1301229E+00;0;  2.0863250E-01;  1.0008984E+04;  0.0000000E+00; -2.1822607E-02;  1.0000000E+04;  0.0000000E+00;  9.9732100E+03; -6.7434698E-02;  0.0000000E+00;  2.7606720E-01;  1.0982832E+04;
  1.0407284E+00;  9.9999998E-03; -1.6024382E-01;2648;  2.7709553E-01;  0.0000000E+00; -5.8693510E-02;  1.0084528E+03;  4.0370193E-01;  6.9150352E+03;3;  7.0684845E+01;  0.0000000E+00;  3.2334238E-01;0;  1.9529343E-01;  1.0011796E+04;  0.0000000E+00; -2.3536060E-03;  1.0000000E+04;  0.0000000E+00;  9.9723545E+03; -1.0979136E-01;  0.0000000E+00;  3.0508479E-01;  1.1334494E+04;
  1.0406978E+00;  9.9999998E-03; -1.4021537E-01;2649;  2.6968393E-01;  0.0000000E+00; -5.1438667E-02;  1.0085074E+03;  4.0370193E-01;  6.9597397E+03;3;  7.0548409E+01;  0.0000000E+00;  1.4420099E+00;0;  1.8509281E-01;  1.0013861E+04;  0.0000000E+00; -2.1494817E-04;  1.0000000E+04;  0.0000000E+00;  9.9713779E+03; -1.4239392E-01;  0.0000000E+00;  3.2748672E-01;  1.1738891E+04;
  1.0406727E+00;  9.9999998E-03; -1.2018391E-01;2650;  2.6356056E-01;  0.0000000E+00; -4.3926708E-02;  1.0085365E+03;  4.0370196E-01;  6.9835688E+03;3;  7.0508209E+01;  0.0000000E+00;  2.2346153E+00;0;  1.7446890E-01;  1.0015292E+04;  0.0000000E+00; -9.0230424E-05;  1.0000000E+04;  0.0000000E+00;  9.9705234E+03; -1.6782582E-01;  0.0000000E+00;  3.4229472E-01;  1.2094877E+04;
  1.0406524E+00;  9.9999998E-03; -1.0015232E-01;2651;  2.5869119E-01;  0.0000000E+00; -3.6700111E-02;  1.0085545E+03;  4.0370208E-01;  6.9983208E+03;3;  7.0612129E+01;  0.0000000E+00;  2.5166278E+00;0;  1.6388066E-01;  1.0016292E+04;  0.0000000E+00; -1.0666129E-05;  1.0000000E+04;  0.0000000E+00;  9.9698848E+03; -1.8838067E-01;  0.0000000E+00;  3.5226133E-01;  1.2362804E+04;
  1.0406364E+00;  9.9999998E-03; -8.0121771E-02;2652;  2.5477353E-01;  0.0000000E+00; -2.9669421E-02;  1.0085663E+03;  4.0370214E-01;  7.0080942E+03;3;  7.0829529E+01;  0.0000000E+00;  2.5343850E+00;0;  1.5552017E-01;  1.0016974E+04;  0.0000000E+00;  1.3520340E-05;  1.0000000E+04;  0.0000000E+00;  9.9694375E+03; -2.0498762E-01;  0.0000000E+00;  3.6050779E-01;  1.2549457E+04;
  1.0406240E+00;  9.9999998E-03; -6.0092065E-02;2653;  2.5167236E-01;  0.0000000E+00; -2.2721952E-02;  1.0085732E+03;  4.0370229E-01;  7.0137671E+03;3;  7.1105942E+01;  0.0000000E+00;  2.3152277E+00;0;  1.5083173E-01;  1.0017431E+04;  0.0000000E+00;  9.5461100E-06;  1.0000000E+04;  0.0000000E+00;  9.9691201E+03; -2.1788105E-01;  0.0000000E+00;  3.6871278E-01;  1.2679979E+04;
  1.0406150E+00;  9.9999998E-03; -4.0062103E-02;2654;  2.4935000E-01;  0.0000000E+00; -1.5520832E-02;  1.0085762E+03;  4.0370223E-01;  7.0162168E+03;3;  7.1323387E+01;  0.0000000E+00;  1.7272284E+00;0;  1.4940135E-01;  1.0017718E+04;  0.0000000E+00;  2.2502265E-06;  1.0000000E+04;  0.0000000E+00;  9.9688906E+03; -2.2711666E-01;  0.0000000E+00;  3.7651801E-01;  1.2773458E+04;
  1.0406094E+00;  9.9999998E-03; -2.0031380E-02;2655;  2.4789993E-01;  0.0000000E+00; -7.9099098E-03;  1.0085762E+03;  4.0370223E-01;  7.0161265E+03;3;  7.1468674E+01;  0.0000000E+00;  9.2980003E-01;0;  1.4964031E-01;  1.0017880E+04;  0.0000000E+00; -7.2508492E-08;  1.0000000E+04;  0.0000000E+00;  9.9687334E+03; -2.3268537E-01;  0.0000000E+00;  3.8232568E-01;  1.2834338E+04;
  1.0607504E+00;  9.9999998E-03; -1.8024538E-01;2678;  2.8325111E-01;  0.0000000E+00; -6.1314844E-02;  1.0072764E+03;  4.0319645E-01;  5.9270669E+03;3;  7.1581154E+01;  0.0000000E+00; -1.9240795E+00;0;  1.3968565E-01;  1.0010287E+04;  0.0000000E+00; -7.3395751E-02;  1.0000000E+04;  0.0000000E+00;  9.9755596E+03; -1.0792257E-01;  0.0000000E+00;  2.4760821E-01;  9.5461973E+03;
  1.0607117E+00;  9.9999998E-03; -1.6022217E-01;2679;  2.7354607E-01;  0.0000000E+00; -5.5251811E-02;  1.0073748E+03;  4.0319651E-01;  6.0072339E+03;3;  7.0798096E+01;  0.0000000E+00; -6.8942213E-01;0;  1.2937266E-01;  1.0012844E+04;  0.0000000E+00; -1.2237768E-02;  1.0000000E+04;  0.0000000E+00;  9.9749570E+03; -1.4420211E-01;  0.0000000E+00;  2.7357477E-01;  9.7812842E+03;
  1.0606796E+00;  9.9999998E-03; -1.4019684E-01;2680;  2.6558033E-01;  0.0000000E+00; -4.8803035E-02;  1.0074409E+03;  4.0319660E-01;  6.0610776E+03;3;  7.0485313E+01;  0.0000000E+00;  3.8195625E-01;0;  1.2075162E-01;  1.0015000E+04;  0.0000000E+00; -5.9004675E-04;  1.0000000E+04;  0.0000000E+00;  9.9741133E+03; -1.7592990E-01;  0.0000000E+00;  2.9668152E-01;  1.0115680E+04;
  1.0606532E+00;  9.9999998E-03; -1.2016909E-01;2681;  2.5905165E-01;  0.0000000E+00; -4.2082425E-02;  1.0074826E+03;  4.0319669E-01;  6.0952012E+03;3;  7.0462418E+01;  0.0000000E+00;  1.1020076E+00;0;  1.1146905E-01;  1.0016650E+04;  0.0000000E+00; -1.8662255E-04;  1.0000000E+04;  0.0000000E+00;  9.9732949E+03; -2.0286261E-01;  0.0000000E+00;  3.1433165E-01;  1.0440312E+04;
  1.0606323E+00;  9.9999998E-03; -1.0014015E-01;2682;  2.5377023E-01;  0.0000000E+00; -3.5190880E-02;  1.0075093E+03;  4.0319663E-01;  6.1168872E+03;3;  7.0561417E+01;  0.0000000E+00;  1.4335450E+00;0;  1.0211346E-01;  1.0017835E+04;  0.0000000E+00; -3.9038965E-05;  1.0000000E+04;  0.0000000E+00;  9.9726416E+03; -2.2525766E-01;  0.0000000E+00;  3.2737112E-01;  1.0701015E+04;
  1.0606159E+00;  9.9999998E-03; -8.0111705E-02;2683;  2.4952309E-01;  0.0000000E+00; -2.8316569E-02;  1.0075263E+03;  4.0319684E-01;  6.1307983E+03;3;  7.0665154E+01;  0.0000000E+00;  1.4847734E+00;0;  9.4438225E-02;  1.0018657E+04;  0.0000000E+00;  2.0011452E-05;  1.0000000E+04;  0.0000000E+00;  9.9721592E+03; -2.4333441E-01;  0.0000000E+00;  3.3777264E-01;  1.0891292E+04;
  1.0606033E+00;  9.9999998E-03; -6.0083821E-02;2684;  2.4617499E-01;  0.0000000E+00; -2.1418782E-02;  1.0075365E+03;  4.0319681E-01;  6.1391689E+03;3;  7.0820274E+01;  0.0000000E+00;  1.3323478E+00;0;  8.9599371E-02;  1.0019202E+04;  0.0000000E+00;  2.3625977E-05;  1.0000000E+04;  0.0000000E+00;  9.9718203E+03; -2.5714308E-01;  0.0000000E+00;  3.4674245E-01;  1.1022710E+04;
  1.0605941E+00;  9.9999998E-03; -4.0056158E-02;2685;  2.4370585E-01;  0.0000000E+00; -1.4414242E-02;  1.0075421E+03;  4.0319684E-01;  6.1437466E+03;3;  7.0953773E+01;  0.0000000E+00;  1.0792278E+00;0;  8.7385446E-02;  1.0019539E+04;  0.0000000E+00;  1.1072291E-05;  1.0000000E+04;  0.0000000E+00;  9.9715947E+03; -2.6682636E-01;  0.0000000E+00;  3.5421181E-01;  1.1109313E+04;
  1.0605884E+00;  9.9999998E-03; -2.0028219E-02;2686;  2.4217266E-01;  0.0000000E+00; -7.2629456E-03;  1.0075443E+03;  4.0319684E-01;  6.1455034E+03;3;  7.1161476E+01;  0.0000000E+00;  6.7502916E-01;0;  8.6762577E-02;  1.0019716E+04;  0.0000000E+00;  2.3821935E-06;  1.0000000E+04;  0.0000000E+00;  9.9714590E+03; -2.7255613E-01;  0.0000000E+00;  3.5931870E-01;  1.1160051E+04;
  1.0807352E+00;  9.9999998E-03; -1.8021992E-01;2709;  2.8007177E-01;  0.0000000E+00; -5.6108817E-02;  1.0063104E+03;  4.0276250E-01;  5.1109194E+03;3;  7.2055435E+01;  0.0000000E+00; -2.5722361E+00;0;  8.8489592E-02;  1.0010656E+04;  0.0000000E+00; -1.8996745E-01;  1.0000000E+04;  0.0000000E+00;  9.9775264E+03; -1.3230357E-01;  0.0000000E+00;  2.2079316E-01;  8.2852363E+03;
  1.0806946E+00;  9.9999998E-03; -1.6020107E-01;2710;  2.6961794E-01;  0.0000000E+00; -5.1436707E-02;  1.0064023E+03;  4.0276265E-01;  5.1854277E+03;3;  7.0693542E+01;  0.0000000E+00; -1.4713230E+00;0;  8.1068307E-02;  1.0012755E+04;  0.0000000E+00; -4.6880491E-02;  1.0000000E+04;  0.0000000E+00;  9.9772559E+03; -1.6104174E-01;  0.0000000E+00;  2.4211004E-01;  8.3561338E+03;
  1.0806602E+00;  9.9999998E-03; -1.4017867E-01;2711;  2.6088735E-01;  0.0000000E+00; -4.5854542E-02;  1.0064811E+03;  4.0276274E-01;  5.2492104E+03;3;  7.0274742E+01;  0.0000000E+00; -6.1973715E-01;0;  7.3101759E-02;  1.0014912E+04;  0.0000000E+00; -4.2965901E-03;  1.0000000E+04;  0.0000000E+00;  9.9766641E+03; -1.9116542E-01;  0.0000000E+00;  2.6426718E-01;  8.5799121E+03;
  1.0806328E+00;  9.9999998E-03; -1.2015477E-01;2712;  2.5385466E-01;  0.0000000E+00; -3.9855566E-02;  1.0065407E+03;  4.0276271E-01;  5.2975332E+03;3;  7.0138161E+01;  0.0000000E+00;  1.4087483E-01;0;  6.3918412E-02;  1.0016813E+04;  0.0000000E+00; -3.4530525E-04;  1.0000000E+04;  0.0000000E+00;  9.9759561E+03; -2.2010961E-01;  0.0000000E+00;  2.8402802E-01;  8.8467148E+03;
  1.0806109E+00;  9.9999998E-03; -1.0012892E-01;2713;  2.4811262E-01;  0.0000000E+00; -3.3466283E-02;  1.0065814E+03;  4.0276262E-01;  5.3305923E+03;3;  7.0153336E+01;  0.0000000E+00;  5.9249324E-01;0;  5.4887623E-02;  1.0018263E+04;  0.0000000E+00; -1.2381484E-04;  1.0000000E+04;  0.0000000E+00;  9.9753193E+03; -2.4516812E-01;  0.0000000E+00;  3.0005574E-01;  9.0863359E+03;
  1.0805938E+00;  9.9999998E-03; -8.0102727E-02;2714;  2.4351124E-01;  0.0000000E+00; -2.6902465E-02;  1.0066072E+03;  4.0276277E-01;  5.3514780E+03;3;  7.0220230E+01;  0.0000000E+00;  8.0787605E-01;0;  4.7408193E-02;  1.0019289E+04;  0.0000000E+00; -6.2027138E-06;  1.0000000E+04;  0.0000000E+00;  9.9748066E+03; -2.6551238E-01;  0.0000000E+00;  3.1292057E-01;  9.2769512E+03;
  1.0805808E+00;  9.9999998E-03; -6.0076747E-02;2715;  2.3988213E-01;  0.0000000E+00; -2.0228717E-02;  1.0066224E+03;  4.0276271E-01;  5.3638594E+03;3;  7.0304871E+01;  0.0000000E+00;  8.1003118E-01;0;  4.2286694E-02;  1.0019967E+04;  0.0000000E+00;  2.5671177E-05;  1.0000000E+04;  0.0000000E+00;  9.9744307E+03; -2.8093773E-01;  0.0000000E+00;  3.2322443E-01;  9.4156768E+03;
  1.0805715E+00;  9.9999998E-03; -4.0051062E-02;2716;  2.3721614E-01;  0.0000000E+00; -1.3530693E-02;  1.0066310E+03;  4.0276289E-01;  5.3708276E+03;3;  7.0389046E+01;  0.0000000E+00;  6.1001253E-01;0;  3.9406270E-02;  1.0020387E+04;  0.0000000E+00;  1.7972863E-05;  1.0000000E+04;  0.0000000E+00;  9.9741787E+03; -2.9159793E-01;  0.0000000E+00;  3.3100420E-01;  9.5073164E+03;
  1.0805658E+00;  9.9999998E-03; -2.0025533E-02;2717;  2.3557052E-01;  0.0000000E+00; -6.7770411E-03;  1.0066350E+03;  4.0276280E-01;  5.3740249E+03;3;  7.0438110E+01;  0.0000000E+00;  2.9640278E-01;0;  3.8102984E-02;  1.0020612E+04;  0.0000000E+00;  5.0172898E-06;  1.0000000E+04;  0.0000000E+00;  9.9740332E+03; -2.9781064E-01;  0.0000000E+00;  3.3591363E-01;  9.5588936E+03;
  1.1007218E+00;  9.9999998E-03; -1.8019488E-01;2739;  2.7694163E-01;  0.0000000E+00; -5.0296798E-02;  1.0054694E+03;  4.0239832E-01;  4.3962979E+03;3;  7.2522148E+01;  0.0000000E+00; -2.9144785E+00;0;  4.9864054E-02;  1.0010483E+04;  0.0000000E+00; -4.1108897E-01;  1.0000000E+04;  0.0000000E+00;  9.9790664E+03; -1.4771979E-01;  0.0000000E+00;  1.9758384E-01;  7.2824624E+03;
  1.1006774E+00;  9.9999998E-03; -1.6017808E-01;2740;  2.6551199E-01;  0.0000000E+00; -4.6714686E-02;  1.0055452E+03;  4.0239859E-01;  4.4574219E+03;3;  7.0711548E+01;  0.0000000E+00; -2.1648946E+00;0;  4.5946404E-02;  1.0011897E+04;  0.0000000E+00; -1.3923652E-01;  1.0000000E+04;  0.0000000E+00;  9.9791494E+03; -1.6731727E-01;  0.0000000E+00;  2.1326368E-01;  7.1150981E+03;
  1.1006416E+00;  9.9999998E-03; -1.4016069E-01;2741;  2.5604838E-01;  0.0000000E+00; -4.2447820E-02;  1.0056289E+03;  4.0239862E-01;  4.5247603E+03;3;  6.9876701E+01;  0.0000000E+00; -1.4097960E+00;0;  3.8977891E-02;  1.0013819E+04;  0.0000000E+00; -2.6025901E-02;  1.0000000E+04;  0.0000000E+00;  9.9788896E+03; -1.9356637E-01;  0.0000000E+00;  2.3254426E-01;  7.1948052E+03;
  1.1006122E+00;  9.9999998E-03; -1.2014013E-01;2742;  2.4825779E-01;  0.0000000E+00; -3.7347190E-02;  1.0057070E+03;  4.0239850E-01;  4.5875840E+03;3;  6.9587685E+01;  0.0000000E+00; -7.7751553E-01;0;  2.9499158E-02;  1.0015865E+04;  0.0000000E+00; -1.9022482E-03;  1.0000000E+04;  0.0000000E+00;  9.9784043E+03; -2.2310390E-01;  0.0000000E+00;  2.5260305E-01;  7.3706665E+03;
  1.1005894E+00;  9.9999998E-03; -1.0011805E-01;2743;  2.4201736E-01;  0.0000000E+00; -3.1620197E-02;  1.0057670E+03;  4.0239850E-01;  4.6358301E+03;3;  6.9476654E+01;  0.0000000E+00; -2.2253859E-01;0;  1.9919723E-02;  1.0017610E+04;  0.0000000E+00; -2.9351676E-04;  1.0000000E+04;  0.0000000E+00;  9.9778564E+03; -2.5080594E-01;  0.0000000E+00;  2.7072567E-01;  7.5653628E+03;
  1.1005714E+00;  9.9999998E-03; -8.0094248E-02;2744;  2.3697585E-01;  0.0000000E+00; -2.5383299E-02;  1.0058070E+03;  4.0239862E-01;  4.6680640E+03;3;  6.9446945E+01;  0.0000000E+00;  1.2656684E-01;0;  1.1990905E-02;  1.0018903E+04;  0.0000000E+00; -1.0165117E-04;  1.0000000E+04;  0.0000000E+00;  9.9773604E+03; -2.7377987E-01;  0.0000000E+00;  2.8577077E-01;  7.7404009E+03;
  1.1005580E+00;  9.9999998E-03; -6.0070347E-02;2745;  2.3307072E-01;  0.0000000E+00; -1.9006671E-02;  1.0058309E+03;  4.0239856E-01;  4.6872568E+03;3;  6.9437645E+01;  0.0000000E+00;  3.2651973E-01;0;  6.3189566E-03;  1.0019790E+04;  0.0000000E+00; -1.2172532E-05;  1.0000000E+04;  0.0000000E+00;  9.9769541E+03; -2.9127324E-01;  0.0000000E+00;  2.9759219E-01;  7.8798867E+03;
  1.1005484E+00;  9.9999998E-03; -4.0046599E-02;2746;  2.3022950E-01;  0.0000000E+00; -1.2600850E-02;  1.0058442E+03;  4.0239865E-01;  4.6980093E+03;3;  6.9471733E+01;  0.0000000E+00;  3.5190722E-01;0;  2.8049052E-03;  1.0020333E+04;  0.0000000E+00;  8.9417154E-06;  1.0000000E+04;  0.0000000E+00;  9.9766709E+03; -3.0330843E-01;  0.0000000E+00;  3.0611333E-01;  7.9778291E+03;
  1.1005427E+00;  9.9999998E-03; -2.0023184E-02;2747;  2.2850120E-01;  0.0000000E+00; -6.2650568E-03;  1.0058503E+03;  4.0239877E-01;  4.7029082E+03;3;  6.9540611E+01;  0.0000000E+00;  2.2566813E-01;0;  9.7966194E-04;  1.0020629E+04;  0.0000000E+00;  4.2340671E-06;  1.0000000E+04;  0.0000000E+00;  9.9765039E+03; -3.1026208E-01;  0.0000000E+00;  3.1124175E-01;  8.0346372E+03;
  1.1207113E+00;  9.9999998E-03; -1.8017091E-01;2768;  2.7425310E-01;  0.0000000E+00; -4.3993808E-02;  1.0047601E+03;  4.0209985E-01;  3.7884546E+03;3;  7.3549622E+01;  0.0000000E+00; -3.0330410E+00;0;  2.0474762E-02;  1.0010051E+04;  0.0000000E+00; -7.8367758E-01;  1.0000000E+04;  0.0000000E+00;  9.9802217E+03; -1.5851964E-01;  0.0000000E+00;  1.7899440E-01;  6.6718062E+03;
  1.1206628E+00;  9.9999998E-03; -1.6015519E-01;2769;  2.6169091E-01;  0.0000000E+00; -4.1165058E-02;  1.0048071E+03;  4.0210015E-01;  3.8259402E+03;3;  7.0793243E+01;  0.0000000E+00; -2.4486859E+00;0;  2.1087632E-02;  1.0010617E+04;  0.0000000E+00; -3.4616414E-01;  1.0000000E+04;  0.0000000E+00;  9.9805762E+03; -1.6822684E-01;  0.0000000E+00;  1.8931447E-01;  6.1316802E+03;
  1.1206239E+00;  9.9999998E-03; -1.4014073E-01;2770;  2.5134122E-01;  0.0000000E+00; -3.8173672E-02;  1.0048814E+03;  4.0210003E-01;  3.8851343E+03;3;  6.9578262E+01;  0.0000000E+00; -2.0165293E+00;0;  1.6874671E-02;  1.0012007E+04;  0.0000000E+00; -1.0581580E-01;  1.0000000E+04;  0.0000000E+00;  9.9806641E+03; -1.8751504E-01;  0.0000000E+00;  2.0438971E-01;  6.0133452E+03;
  1.1205931E+00;  9.9999998E-03; -1.2012497E-01;2771;  2.4276644E-01;  0.0000000E+00; -3.4202650E-02;  1.0049685E+03;  4.0210027E-01;  3.9545601E+03;3;  6.8889893E+01;  0.0000000E+00; -1.4063203E+00;0;  8.1462115E-03;  1.0013910E+04;  0.0000000E+00; -1.9141132E-02;  1.0000000E+04;  0.0000000E+00;  9.9804961E+03; -2.1421768E-01;  0.0000000E+00;  2.2236389E-01;  6.0707656E+03;
  1.1205685E+00;  9.9999998E-03; -1.0010627E-01;2772;  2.3583448E-01;  0.0000000E+00; -2.9405991E-02;  1.0050480E+03;  4.0210012E-01;  4.0178071E+03;3;  6.8653809E+01;  0.0000000E+00; -9.5642191E-01;0; -2.0720065E-03;  1.0015844E+04;  0.0000000E+00; -1.7442969E-03;  1.0000000E+04;  0.0000000E+00;  9.9801465E+03; -2.4271493E-01;  0.0000000E+00;  2.4064292E-01;  6.1923218E+03;
  1.1205498E+00;  9.9999998E-03; -8.0085941E-02;2773;  2.3032044E-01;  0.0000000E+00; -2.3804940E-02;  1.0051076E+03;  4.0210024E-01;  4.0653857E+03;3;  6.8448174E+01;  0.0000000E+00; -4.5796451E-01;0; -1.1163831E-02;  1.0017438E+04;  0.0000000E+00; -2.7216075E-04;  1.0000000E+04;  0.0000000E+00;  9.9797451E+03; -2.6801950E-01;  0.0000000E+00;  2.5685567E-01;  6.3288604E+03;
  1.1205357E+00;  9.9999998E-03; -6.0064193E-02;2774;  2.2607137E-01;  0.0000000E+00; -1.7788718E-02;  1.0051461E+03;  4.0210029E-01;  4.0959712E+03;3;  6.8357872E+01;  0.0000000E+00; -1.6624013E-01;0; -1.7942071E-02;  1.0018583E+04;  0.0000000E+00; -1.0827297E-04;  1.0000000E+04;  0.0000000E+00;  9.9793701E+03; -2.8775319E-01;  0.0000000E+00;  2.6981112E-01;  6.4522437E+03;
  1.1205260E+00;  9.9999998E-03; -4.0042546E-02;2775;  2.2303686E-01;  0.0000000E+00; -1.1707225E-02;  1.0051683E+03;  4.0210018E-01;  4.1137373E+03;3;  6.8295471E+01;  0.0000000E+00;  6.8301968E-02;0; -2.2376955E-02;  1.0019318E+04;  0.0000000E+00; -3.0010175E-05;  1.0000000E+04;  0.0000000E+00;  9.9790791E+03; -3.0145648E-01;  0.0000000E+00;  2.7907953E-01;  6.5466064E+03;
  1.1205201E+00;  9.9999998E-03; -2.0021122E-02;2776;  2.2126918E-01;  0.0000000E+00; -5.8109160E-03;  1.0051793E+03;  4.0210012E-01;  4.1224805E+03;3;  6.8407516E+01;  0.0000000E+00; -5.2639261E-02;0; -2.4816990E-02;  1.0019722E+04;  0.0000000E+00; -4.4904768E-06;  1.0000000E+04;  0.0000000E+00;  9.9788994E+03; -3.0939478E-01;  0.0000000E+00;  2.8457779E-01;  6.6044829E+03;
  1.1407044E+00;  9.9999998E-03; -1.8014942E-01;2796;  2.7208492E-01;  0.0000000E+00; -3.7662838E-02;  1.0041851E+03;  4.0186062E-01;  3.2880239E+03;3;  7.5793404E+01;  0.0000000E+00; -3.1153152E+00;0; -2.8350800E-03;  1.0009599E+04;  0.0000000E+00; -1.3380588E+00;  1.0000000E+04;  0.0000000E+00;  9.9811309E+03; -1.6755149E-01;  0.0000000E+00;  1.6471641E-01;  6.5726826E+03;
  1.1406516E+00;  9.9999998E-03; -1.6013385E-01;2797;  2.5859466E-01;  0.0000000E+00; -3.5332967E-02;  1.0041951E+03;  4.0186056E-01;  3.2960186E+03;3;  7.1584305E+01;  0.0000000E+00; -2.5101619E+00;0;  2.6578903E-03;  1.0009321E+04;  0.0000000E+00; -7.3578733E-01;  1.0000000E+04;  0.0000000E+00;  9.9815967E+03; -1.6872488E-01;  0.0000000E+00;  1.7138277E-01;  5.5493794E+03;
  1.1406091E+00;  9.9999998E-03; -1.4012049E-01;2798;  2.4706647E-01;  0.0000000E+00; -3.2913480E-02;  1.0042431E+03;  4.0186071E-01;  3.3338677E+03;3;  6.9410492E+01;  0.0000000E+00; -2.2070904E+00;0;  3.2005459E-03;  1.0009918E+04;  0.0000000E+00; -3.1667629E-01;  1.0000000E+04;  0.0000000E+00;  9.9819473E+03; -1.7885491E-01;  0.0000000E+00;  1.8205546E-01;  5.0969961E+03;
  1.1405758E+00;  9.9999998E-03; -1.2010793E-01;2799;  2.3771134E-01;  0.0000000E+00; -3.0240627E-02;  1.0043213E+03;  4.0186077E-01;  3.3953936E+03;3;  6.8413620E+01;  0.0000000E+00; -1.9199518E+00;0; -2.3879260E-03;  1.0011320E+04;  0.0000000E+00; -1.0150071E-01;  1.0000000E+04;  0.0000000E+00;  9.9821045E+03; -1.9857857E-01;  0.0000000E+00;  1.9619064E-01;  4.9894917E+03;
  1.1405499E+00;  9.9999998E-03; -1.0009372E-01;2800;  2.2999124E-01;  0.0000000E+00; -2.6473461E-02;  1.0044083E+03;  4.0186065E-01;  3.4637415E+03;3;  6.7685410E+01;  0.0000000E+00; -1.3710225E+00;0; -1.1719227E-02;  1.0013107E+04;  0.0000000E+00; -2.2871545E-02;  1.0000000E+04;  0.0000000E+00;  9.9820566E+03; -2.2381011E-01;  0.0000000E+00;  2.1209088E-01;  5.0144863E+03;
  1.1405298E+00;  9.9999998E-03; -8.0076516E-02;2801;  2.2389387E-01;  0.0000000E+00; -2.1831019E-02;  1.0044849E+03;  4.0186074E-01;  3.5240220E+03;3;  6.7398216E+01;  0.0000000E+00; -9.8469466E-01;0; -2.1574423E-02;  1.0014842E+04;  0.0000000E+00; -3.3142348E-03;  1.0000000E+04;  0.0000000E+00;  9.9818506E+03; -2.4907464E-01;  0.0000000E+00;  2.2750022E-01;  5.0889424E+03;
  1.1405151E+00;  9.9999998E-03; -6.0057931E-02;2802;  2.1925902E-01;  0.0000000E+00; -1.6456110E-02;  1.0045414E+03;  4.0186074E-01;  3.5684595E+03;3;  6.7105400E+01;  0.0000000E+00; -5.1088029E-01;0; -2.9854745E-02;  1.0016237E+04;  0.0000000E+00; -3.6935508E-04;  1.0000000E+04;  0.0000000E+00;  9.9815859E+03; -2.7034312E-01;  0.0000000E+00;  2.4048838E-01;  5.1760186E+03;
  1.1405050E+00;  9.9999998E-03; -4.0038440E-02;2803;  2.1602555E-01;  0.0000000E+00; -1.0862375E-02;  1.0045775E+03;  4.0186074E-01;  3.5968682E+03;3;  6.7072617E+01;  0.0000000E+00; -3.5376403E-01;0; -3.5687834E-02;  1.0017203E+04;  0.0000000E+00; -9.5465977E-05;  1.0000000E+04;  0.0000000E+00;  9.9813457E+03; -2.8568119E-01;  0.0000000E+00;  2.4999335E-01;  5.2515542E+03;
  1.1404990E+00;  9.9999998E-03; -2.0019162E-02;2804;  2.1417516E-01;  0.0000000E+00; -5.4186094E-03;  1.0045967E+03;  4.0186065E-01;  3.6119651E+03;3;  6.7031616E+01;  0.0000000E+00; -2.4489556E-01;0; -3.9048940E-02;  1.0017745E+04;  0.0000000E+00; -2.1438449E-05;  1.0000000E+04;  0.0000000E+00;  9.9811865E+03; -2.9472351E-01;  0.0000000E+00;  2.5567457E-01;  5.3010972E+03;
  1.1607029E+00;  9.9999998E-03; -1.8013339E-01;2823;  2.7027801E-01;  0.0000000E+00; -3.1917144E-02;  1.0037323E+03;  4.0167266E-01;  2.8839890E+03;3;  7.9527802E+01;  0.0000000E+00; -3.0343678E+00;0; -2.1704733E-02;  1.0009163E+04;  0.0000000E+00; -2.0456483E+00;  1.0000000E+04;  0.0000000E+00;  9.9818994E+03; -1.7526314E-01;  0.0000000E+00;  1.5355840E-01;  6.8566880E+03;
  1.1606450E+00;  9.9999998E-03; -1.6011599E-01;2824;  2.5623104E-01;  0.0000000E+00; -2.9704519E-02;  1.0037180E+03;  4.0167290E-01;  2.8729990E+03;3;  7.3775040E+01;  0.0000000E+00; -2.5052979E+00;0; -1.3804972E-02;  1.0008393E+04;  0.0000000E+00; -1.3448883E+00;  1.0000000E+04;  0.0000000E+00;  9.9823711E+03; -1.7263550E-01;  0.0000000E+00;  1.5883052E-01;  5.5074141E+03;
  1.1605983E+00;  9.9999998E-03; -1.4010212E-01;2825;  2.4373722E-01;  0.0000000E+00; -2.7546702E-02;  1.0037272E+03;  4.0167305E-01;  2.8803101E+03;3;  7.0224281E+01;  0.0000000E+00; -2.1842024E+00;0; -7.7298284E-03;  1.0008106E+04;  0.0000000E+00; -7.3837882E-01;  1.0000000E+04;  0.0000000E+00;  9.9828330E+03; -1.7388590E-01;  0.0000000E+00;  1.6615607E-01;  4.5869917E+03;
  1.1605618E+00;  9.9999998E-03; -1.2009050E-01;2826;  2.3322430E-01;  0.0000000E+00; -2.5273975E-02;  1.0037761E+03;  4.0167293E-01;  2.9181797E+03;3;  6.8088799E+01;  0.0000000E+00; -1.9636749E+00;0; -7.8647882E-03;  1.0008682E+04;  0.0000000E+00; -3.3456647E-01;  1.0000000E+04;  0.0000000E+00;  9.9832324E+03; -1.8381724E-01;  0.0000000E+00;  1.7595245E-01;  4.1787163E+03;
  1.1605337E+00;  9.9999998E-03; -1.0007924E-01;2827;  2.2485115E-01;  0.0000000E+00; -2.2739962E-02;  1.0038505E+03;  4.0167287E-01;  2.9758367E+03;3;  6.7137703E+01;  0.0000000E+00; -1.7181541E+00;0; -1.3608828E-02;  1.0009922E+04;  0.0000000E+00; -1.2398831E-01;  1.0000000E+04;  0.0000000E+00;  9.9834746E+03; -2.0132400E-01;  0.0000000E+00;  1.8771517E-01;  4.0603608E+03;
  1.1605124E+00;  9.9999998E-03; -8.0066256E-02;2828;  2.1810231E-01;  0.0000000E+00; -1.9165108E-02;  1.0039292E+03;  4.0167293E-01;  3.0367014E+03;3;  6.6309662E+01;  0.0000000E+00; -1.1853731E+00;0; -2.2237822E-02;  1.0011425E+04;  0.0000000E+00; -3.6930129E-02;  1.0000000E+04;  0.0000000E+00;  9.9835391E+03; -2.2221313E-01;  0.0000000E+00;  1.9997531E-01;  4.0538921E+03;
  1.1604967E+00;  9.9999998E-03; -6.0050569E-02;2829;  2.1296108E-01;  0.0000000E+00; -1.4729358E-02;  1.0039965E+03;  4.0167281E-01;  3.0887085E+03;3;  6.5902946E+01;  0.0000000E+00; -8.5175449E-01;0; -3.0919582E-02;  1.0012829E+04;  0.0000000E+00; -8.2011167E-03;  1.0000000E+04;  0.0000000E+00;  9.9834785E+03; -2.4198154E-01;  0.0000000E+00;  2.1106195E-01;  4.0875801E+03;
  1.1604861E+00;  9.9999998E-03; -4.0033951E-02;2830;  2.0951803E-01;  0.0000000E+00; -9.8642418E-03;  1.0040450E+03;  4.0167284E-01;  3.1262368E+03;3;  6.5754646E+01;  0.0000000E+00; -6.0051084E-01;0; -3.7917718E-02;  1.0013916E+04;  0.0000000E+00; -1.2629615E-03;  1.0000000E+04;  0.0000000E+00;  9.9833643E+03; -2.5756130E-01;  0.0000000E+00;  2.1964358E-01;  4.1300957E+03;
  1.1604800E+00;  9.9999998E-03; -2.0017033E-02;2831;  2.0754001E-01;  0.0000000E+00; -4.9541993E-03;  1.0040736E+03;  4.0167281E-01;  3.1483665E+03;3;  6.5650505E+01;  0.0000000E+00; -3.8781220E-01;0; -4.2321816E-02;  1.0014585E+04;  0.0000000E+00; -8.3603743E-05;  1.0000000E+04;  0.0000000E+00;  9.9832656E+03; -2.6726994E-01;  0.0000000E+00;  2.2494812E-01;  4.1621626E+03;
  1.1807114E+00;  9.9999998E-03; -1.8012701E-01;2849;  2.6904505E-01;  0.0000000E+00; -2.7296087E-02;  1.0033286E+03;  4.0152842E-01;  2.5183896E+03;3;  8.4749352E+01;  0.0000000E+00; -2.4502776E+00;0; -3.0403852E-02;  1.0007914E+04;  0.0000000E+00; -2.7913120E+00;  1.0000000E+04;  0.0000000E+00;  9.9822998E+03; -1.7520243E-01;  0.0000000E+00;  1.4479858E-01;  7.0973486E+03;
  1.1806458E+00;  9.9999998E-03; -1.6010539E-01;2850;  2.5458282E-01;  0.0000000E+00; -2.4984026E-02;  1.0033585E+03;  4.0152836E-01;  2.5412241E+03;3;  7.7286621E+01;  0.0000000E+00; -2.2696004E+00;0; -2.9087245E-02;  1.0007817E+04;  0.0000000E+00; -2.1189339E+00;  1.0000000E+04;  0.0000000E+00;  9.9829717E+03; -1.7941196E-01;  0.0000000E+00;  1.5032472E-01;  5.8216694E+03;
  1.1805927E+00;  9.9999998E-03; -1.4008826E-01;2851;  2.4116555E-01;  0.0000000E+00; -2.2595089E-02;  1.0033458E+03;  4.0152863E-01;  2.5317305E+03;3;  7.2250549E+01;  0.0000000E+00; -2.0210660E+00;0; -2.1512866E-02;  1.0007019E+04;  0.0000000E+00; -1.3952323E+00;  1.0000000E+04;  0.0000000E+00;  9.9835068E+03; -1.7690828E-01;  0.0000000E+00;  1.5539542E-01;  4.5964561E+03;
  1.1805520E+00;  9.9999998E-03; -1.2007541E-01;2852;  2.2984669E-01;  0.0000000E+00; -2.0443747E-02;  1.0033520E+03;  4.0152863E-01;  2.5366326E+03;3;  6.9075569E+01;  0.0000000E+00; -1.8388476E+00;0; -1.5563190E-02;  1.0006633E+04;  0.0000000E+00; -7.9534191E-01;  1.0000000E+04;  0.0000000E+00;  9.9840127E+03; -1.7716411E-01;  0.0000000E+00;  1.6160092E-01;  3.7717234E+03;
  1.1805211E+00;  9.9999998E-03; -1.0006487E-01;2853;  2.2049241E-01;  0.0000000E+00; -1.8175459E-02;  1.0033911E+03;  4.0152860E-01;  2.5662246E+03;3;  6.6953476E+01;  0.0000000E+00; -1.5744843E+00;0; -1.5347347E-02;  1.0006972E+04;  0.0000000E+00; -3.9069834E-01;  1.0000000E+04;  0.0000000E+00;  9.9844521E+03; -1.8407549E-01;  0.0000000E+00;  1.6872814E-01;  3.3784543E+03;
  1.1804978E+00;  9.9999998E-03; -8.0054395E-02;2854;  2.1313158E-01;  0.0000000E+00; -1.5708225E-02;  1.0034498E+03;  4.0152860E-01;  2.6107715E+03;3;  6.5749985E+01;  0.0000000E+00; -1.3217777E+00;0; -1.9905075E-02;  1.0007832E+04;  0.0000000E+00; -1.6331953E-01;  1.0000000E+04;  0.0000000E+00;  9.9847637E+03; -1.9632448E-01;  0.0000000E+00;  1.7641941E-01;  3.2405383E+03;
  1.1804811E+00;  9.9999998E-03; -6.0042452E-02;2855;  2.0764510E-01;  0.0000000E+00; -1.2454326E-02;  1.0035107E+03;  4.0152851E-01;  2.6569238E+03;3;  6.4953201E+01;  0.0000000E+00; -9.1381043E-01;0; -2.6815370E-02;  1.0008882E+04;  0.0000000E+00; -5.5517107E-02;  1.0000000E+04;  0.0000000E+00;  9.9849287E+03; -2.1051916E-01;  0.0000000E+00;  1.8370380E-01;  3.2067295E+03;
  1.1804699E+00;  9.9999998E-03; -4.0028807E-02;2856;  2.0384400E-01;  0.0000000E+00; -8.5062385E-03;  1.0035609E+03;  4.0152863E-01;  2.6949412E+03;3;  6.4653732E+01;  0.0000000E+00; -7.8827238E-01;0; -3.3566922E-02;  1.0009824E+04;  0.0000000E+00; -1.3993566E-02;  1.0000000E+04;  0.0000000E+00;  9.9849893E+03; -2.2327074E-01;  0.0000000E+00;  1.8970382E-01;  3.2083926E+03;
  1.1804634E+00;  9.9999998E-03; -2.0014478E-02;2857;  2.0175545E-01;  0.0000000E+00; -4.3316577E-03;  1.0035936E+03;  4.0152854E-01;  2.7197717E+03;3;  6.4471039E+01;  0.0000000E+00; -4.4746840E-01;0; -3.8326308E-02;  1.0010465E+04;  0.0000000E+00; -1.9131352E-03;  1.0000000E+04;  0.0000000E+00;  9.9849980E+03; -2.3195127E-01;  0.0000000E+00;  1.9362496E-01;  3.2174993E+03;
  1.2007262E+00;  9.9999998E-03; -1.8012774E-01;2873;  2.6833454E-01;  0.0000000E+00; -2.4137821E-02;  1.0028722E+03;  4.0141976E-01;  2.1169312E+03;3;  9.2610016E+01;  0.0000000E+00; -1.7060256E+00;0; -1.2363285E-02;  1.0004310E+04;  0.0000000E+00; -3.2313900E+00;  1.0000000E+04;  0.0000000E+00;  9.9822158E+03; -1.5173474E-01;  0.0000000E+00;  1.3937145E-01;  6.5784790E+03;
  1.2006601E+00;  9.9999998E-03; -1.6010648E-01;2874;  2.5440526E-01;  0.0000000E+00; -2.1952638E-02;  1.0030093E+03;  4.0141988E-01;  2.2181831E+03;3;  8.3071701E+01;  0.0000000E+00; -1.4189303E+00;0; -2.9677764E-02;  1.0006194E+04;  0.0000000E+00; -2.9101348E+00;  1.0000000E+04;  0.0000000E+00;  9.9830518E+03; -1.7644198E-01;  0.0000000E+00;  1.4676422E-01;  6.0198423E+03;
  1.2005972E+00;  9.9999998E-03; -1.4008412E-01;2875;  2.3973624E-01;  0.0000000E+00; -1.8971752E-02;  1.0030664E+03;  4.0141988E-01;  2.2604785E+03;3;  7.6350105E+01;  0.0000000E+00; -1.5214686E+00;0; -3.6448598E-02;  1.0006411E+04;  0.0000000E+00; -2.1870706E+00;  1.0000000E+04;  0.0000000E+00;  9.9839629E+03; -1.8504062E-01;  0.0000000E+00;  1.4859203E-01;  4.8540791E+03;
  1.2005484E+00;  9.9999998E-03; -1.2006638E-01;2876;  2.2728400E-01;  0.0000000E+00; -1.6283134E-02;  1.0030588E+03;  4.0141994E-01;  2.2550132E+03;3;  7.1579025E+01;  0.0000000E+00; -1.3872584E+00;0; -3.0613020E-02;  1.0005592E+04;  0.0000000E+00; -1.4537151E+00;  1.0000000E+04;  0.0000000E+00;  9.9846211E+03; -1.8191877E-01;  0.0000000E+00;  1.5130575E-01;  3.7830129E+03;
  1.2005130E+00;  9.9999998E-03; -1.0005362E-01;2877;  2.1722217E-01;  0.0000000E+00; -1.4009031E-02;  1.0030518E+03;  4.0142000E-01;  2.2500310E+03;3;  6.8476349E+01;  0.0000000E+00; -1.3678337E+00;0; -2.4310946E-02;  1.0004926E+04;  0.0000000E+00; -8.5142982E-01;  1.0000000E+04;  0.0000000E+00;  9.9851426E+03; -1.7864788E-01;  0.0000000E+00;  1.5433693E-01;  3.0520867E+03;
  1.2004874E+00;  9.9999998E-03; -8.0043688E-02;2878;  2.0918030E-01;  0.0000000E+00; -1.1762644E-02;  1.0030688E+03;  4.0141997E-01;  2.2625947E+03;3;  6.6032166E+01;  0.0000000E+00; -1.0727328E+00;0; -2.2714943E-02;  1.0004827E+04;  0.0000000E+00; -4.2999035E-01;  1.0000000E+04;  0.0000000E+00;  9.9855771E+03; -1.7995884E-01;  0.0000000E+00;  1.5724389E-01;  2.6801304E+03;
  1.2004689E+00;  9.9999998E-03; -6.0033955E-02;2879;  2.0323522E-01;  0.0000000E+00; -9.5030563E-03;  1.0031025E+03;  4.0142003E-01;  2.2875295E+03;3;  6.4836594E+01;  0.0000000E+00; -8.8289392E-01;0; -2.5289282E-02;  1.0005170E+04;  0.0000000E+00; -1.8002447E-01;  1.0000000E+04;  0.0000000E+00;  9.9859063E+03; -1.8523762E-01;  0.0000000E+00;  1.5994833E-01;  2.5370369E+03;
  1.2004567E+00;  9.9999998E-03; -4.0023256E-02;2880;  1.9930139E-01;  0.0000000E+00; -6.7675347E-03;  1.0031387E+03;  4.0141991E-01;  2.3142017E+03;3;  6.4302521E+01;  0.0000000E+00; -7.2671473E-01;0; -2.9874071E-02;  1.0005679E+04;  0.0000000E+00; -5.7603184E-02;  1.0000000E+04;  0.0000000E+00;  9.9861221E+03; -1.9207668E-01;  0.0000000E+00;  1.6220261E-01;  2.4913486E+03;
  1.2004498E+00;  9.9999998E-03; -2.0011781E-02;2881;  1.9695456E-01;  0.0000000E+00; -3.4647328E-03;  1.0031655E+03;  4.0141991E-01;  2.3340015E+03;3;  6.3878361E+01;  0.0000000E+00; -4.1893470E-01;0; -3.3861741E-02;  1.0006102E+04;  0.0000000E+00; -1.0773335E-02;  1.0000000E+04;  0.0000000E+00;  9.9862393E+03; -1.9761221E-01;  0.0000000E+00;  1.6375047E-01;  2.4778821E+03;
  1.2207351E+00;  9.9999998E-03; -1.8013087E-01;2896;  2.6602158E-01;  0.0000000E+00; -2.2568431E-02;  1.0023544E+03;  4.0133989E-01;  1.6809135E+03;3;  1.0364326E+02;  0.0000000E+00; -2.0234487E+00;0;  4.0412091E-02;  9.9982578E+03;  0.0000000E+00; -2.5514436E+00;  1.0000000E+04;  0.0000000E+00;  9.9819229E+03; -9.8351024E-02;  0.0000000E+00;  1.3876311E-01;  4.5069082E+03;
  1.2206786E+00;  9.9999998E-03; -1.6011195E-01;2897;  2.5389054E-01;  0.0000000E+00; -1.9843703E-02;  1.0025681E+03;  4.0133989E-01;  1.8336946E+03;3;  9.1687103E+01;  0.0000000E+00; -6.5595824E-01;0; -6.0458481E-04;  1.0001713E+04;  0.0000000E+00; -3.2192228E+00;  1.0000000E+04;  0.0000000E+00;  9.9827324E+03; -1.4552827E-01;  0.0000000E+00;  1.4492369E-01;  5.3085850E+03;
  1.2206173E+00;  9.9999998E-03; -1.4009175E-01;2898;  2.4024221E-01;  0.0000000E+00; -1.7463613E-02;  1.0027333E+03;  4.0133977E-01;  1.9517903E+03;3;  8.2856445E+01;  0.0000000E+00; -5.3985745E-01;0; -2.7192324E-02;  1.0003963E+04;  0.0000000E+00; -2.8841767E+00;  1.0000000E+04;  0.0000000E+00;  9.9837676E+03; -1.7516567E-01;  0.0000000E+00;  1.4797334E-01;  4.8315522E+03;
  1.2205595E+00;  9.9999998E-03; -1.2007020E-01;2899;  2.2639063E-01;  0.0000000E+00; -1.4056575E-02;  1.0028195E+03;  4.0133989E-01;  2.0136239E+03;3;  7.6193161E+01;  0.0000000E+00; -4.9045810E-01;0; -4.3158293E-02;  1.0004618E+04;  0.0000000E+00; -2.1462131E+00;  1.0000000E+04;  0.0000000E+00;  9.9848223E+03; -1.8836118E-01;  0.0000000E+00;  1.4520289E-01;  3.8602603E+03;
  1.2205141E+00;  9.9999998E-03; -1.0005143E-01;2900;  2.1493176E-01;  0.0000000E+00; -1.1014887E-02;  1.0028264E+03;  4.0133998E-01;  2.0186354E+03;3;  7.1560661E+01;  0.0000000E+00; -7.1710414E-01;0; -4.1718796E-02;  1.0003981E+04;  0.0000000E+00; -1.3993578E+00;  1.0000000E+04;  0.0000000E+00;  9.9855869E+03; -1.8485217E-01;  0.0000000E+00;  1.4313337E-01;  2.9643137E+03;
  1.2204827E+00;  9.9999998E-03; -8.0037802E-02;2901;  2.0630735E-01;  0.0000000E+00; -8.5090501E-03;  1.0028060E+03;  4.0133992E-01;  2.0042700E+03;3;  6.8378830E+01;  0.0000000E+00; -6.7696398E-01;0; -3.5922185E-02;  1.0003057E+04;  0.0000000E+00; -7.9436773E-01;  1.0000000E+04;  0.0000000E+00;  9.9860996E+03; -1.7744467E-01;  0.0000000E+00;  1.4152248E-01;  2.3660818E+03;
  1.2204615E+00;  9.9999998E-03; -6.0027752E-02;2902;  1.9994545E-01;  0.0000000E+00; -6.4598587E-03;  1.0027975E+03;  4.0133989E-01;  1.9982126E+03;3;  6.6133743E+01;  0.0000000E+00; -5.0903702E-01;0; -3.2985315E-02;  1.0002504E+04;  0.0000000E+00; -3.7715322E-01;  1.0000000E+04;  0.0000000E+00;  9.9864785E+03; -1.7287332E-01;  0.0000000E+00;  1.3988800E-01;  2.0729092E+03;
  1.2204477E+00;  9.9999998E-03; -4.0018957E-02;2903;  1.9553600E-01;  0.0000000E+00; -4.6041198E-03;  1.0028035E+03;  4.0133995E-01;  2.0025181E+03;3;  6.4995468E+01;  0.0000000E+00; -4.2501259E-01;0; -3.3660546E-02;  1.0002346E+04;  0.0000000E+00; -1.3825886E-01;  1.0000000E+04;  0.0000000E+00;  9.9867607E+03; -1.7204008E-01;  0.0000000E+00;  1.3837953E-01;  1.9653234E+03;
  1.2204399E+00;  9.9999998E-03; -2.0009682E-02;2904;  1.9303139E-01;  0.0000000E+00; -2.4533169E-03;  1.0028138E+03;  4.0133995E-01;  2.0099535E+03;3;  6.4495621E+01;  0.0000000E+00; -3.2716975E-01;0; -3.5588980E-02;  1.0002372E+04;  0.0000000E+00; -2.9306920E-02;  1.0000000E+04;  0.0000000E+00;  9.9869355E+03; -1.7286944E-01;  0.0000000E+00;  1.3728046E-01;  1.9306687E+03;
  1.2407235E+00;  9.9999998E-03; -1.8012850E-01;2917;  2.5969940E-01;  0.0000000E+00; -2.1063004E-02;  1.0020500E+03;  4.0128234E-01;  1.4096897E+03;3;  1.1731812E+02;  0.0000000E+00; -3.3729215E+00;0;  7.4762478E-02;  9.9943682E+03;  0.0000000E+00; -1.8191695E-02;  1.0000000E+04;  0.0000000E+00;  9.9826152E+03; -5.9895143E-02;  0.0000000E+00;  1.3465762E-01;  1.9584792E+03;
  1.2406819E+00;  9.9999998E-03; -1.6011360E-01;2918;  2.4989624E-01;  0.0000000E+00; -1.7932886E-02;  1.0021686E+03;  4.0128213E-01;  1.4912957E+03;3;  1.0337994E+02;  0.0000000E+00; -1.2338554E+00;0;  3.8538590E-02;  9.9964385E+03;  0.0000000E+00; -2.0158770E+00;  1.0000000E+04;  0.0000000E+00;  9.9829063E+03; -9.9118516E-02;  0.0000000E+00;  1.3765711E-01;  3.0582156E+03;
  1.2406350E+00;  9.9999998E-03; -1.4009884E-01;2919;  2.3909567E-01;  0.0000000E+00; -1.5877912E-02;  1.0023018E+03;  4.0128225E-01;  1.5830990E+03;3;  9.2424690E+01;  0.0000000E+00; -9.0607502E-02;0;  1.0428160E-02;  9.9985908E+03;  0.0000000E+00; -2.7671843E+00;  1.0000000E+04;  0.0000000E+00;  9.9834111E+03; -1.3472979E-01;  0.0000000E+00;  1.4515795E-01;  3.7575503E+03;
  1.2405849E+00;  9.9999998E-03; -1.2008196E-01;2920;  2.2673406E-01;  0.0000000E+00; -1.3350565E-02;  1.0024431E+03;  4.0128219E-01;  1.6804246E+03;3;  8.3460365E+01;  0.0000000E+00;  6.2259740E-01;0; -2.2963062E-02;  1.0000491E+04;  0.0000000E+00; -2.5527442E+00;  1.0000000E+04;  0.0000000E+00;  9.9843242E+03; -1.6687228E-01;  0.0000000E+00;  1.4390922E-01;  3.5112339E+03;
  1.2405355E+00;  9.9999998E-03; -1.0006336E-01;2921;  2.1483226E-01;  0.0000000E+00; -1.0436161E-02;  1.0025491E+03;  4.0128219E-01;  1.7534935E+03;3;  7.7168579E+01;  0.0000000E+00;  6.0261589E-01;0; -4.3188632E-02;  1.0001603E+04;  0.0000000E+00; -1.8623477E+00;  1.0000000E+04;  0.0000000E+00;  9.9853242E+03; -1.8081065E-01;  0.0000000E+00;  1.3762201E-01;  2.8100056E+03;
  1.2404941E+00;  9.9999998E-03; -8.0044970E-02;2922;  2.0479763E-01;  0.0000000E+00; -7.2077434E-03;  1.0025939E+03;  4.0128213E-01;  1.7844758E+03;3;  7.2612968E+01;  0.0000000E+00;  3.9278230E-01;0; -5.0872132E-02;  1.0001681E+04;  0.0000000E+00; -1.1317644E+00;  1.0000000E+04;  0.0000000E+00;  9.9861289E+03; -1.8058543E-01;  0.0000000E+00;  1.2971330E-01;  2.1532751E+03;
  1.2404648E+00;  9.9999998E-03; -6.0029712E-02;2923;  1.9763930E-01;  0.0000000E+00; -4.6646995E-03;  1.0025916E+03;  4.0128210E-01;  1.7830229E+03;3;  6.9927681E+01;  0.0000000E+00;  6.4177901E-02;0; -4.9393110E-02;  1.0001113E+04;  0.0000000E+00; -5.7351947E-01;  1.0000000E+04;  0.0000000E+00;  9.9866455E+03; -1.7272145E-01;  0.0000000E+00;  1.2332834E-01;  1.7634167E+03;
  1.2404467E+00;  9.9999998E-03; -4.0018559E-02;2924;  1.9282736E-01;  0.0000000E+00; -2.8816229E-03;  1.0025772E+03;  4.0128207E-01;  1.7731638E+03;3;  6.7928314E+01;  0.0000000E+00;  7.7513486E-02;0; -4.7303535E-02;  1.0000516E+04;  0.0000000E+00; -2.2600053E-01;  1.0000000E+04;  0.0000000E+00;  9.9869551E+03; -1.6577080E-01;  0.0000000E+00;  1.1846726E-01;  1.6034319E+03;
  1.2404368E+00;  9.9999998E-03; -2.0009348E-02;2925;  1.9002594E-01;  0.0000000E+00; -1.4629384E-03;  1.0025697E+03;  4.0128222E-01;  1.7680316E+03;3;  6.7031174E+01;  0.0000000E+00;  1.4017655E-01;0; -4.7221385E-02;  1.0000170E+04;  0.0000000E+00; -5.1065110E-02;  1.0000000E+04;  0.0000000E+00;  9.9871455E+03; -1.6238539E-01;  0.0000000E+00;  1.1516400E-01;  1.5520505E+03;
  1.2606624E+00;  9.9999998E-03; -1.6010900E-01;2936;  2.4157079E-01;  0.0000000E+00; -1.5840147E-02;  1.0020959E+03;  4.0124139E-01;  1.3808484E+03;3;  1.1625466E+02;  0.0000000E+00; -2.2674065E+00;0;  3.1143032E-02;  9.9958096E+03;  0.0000000E+00;  7.5602508E-01;  1.0000000E+04;  0.0000000E+00;  9.9841250E+03; -9.2727639E-02;  0.0000000E+00;  1.2387067E-01;  1.6462581E+03;
  1.2606301E+00;  9.9999998E-03; -1.4009804E-01;2937;  2.3328474E-01;  0.0000000E+00; -1.3503562E-02;  1.0020635E+03;  4.0124130E-01;  1.3595856E+03;3;  1.0459092E+02;  0.0000000E+00; -5.7552862E-01;0;  2.7429529E-02;  9.9953369E+03;  0.0000000E+00; -9.6971732E-01;  1.0000000E+04;  0.0000000E+00;  9.9839443E+03; -1.0338833E-01;  0.0000000E+00;  1.3081786E-01;  1.7396190E+03;
  1.2605933E+00;  9.9999998E-03; -1.2008535E-01;2938;  2.2307459E-01;  0.0000000E+00; -1.0942172E-02;  1.0021116E+03;  4.0124136E-01;  1.3914333E+03;3;  9.3946152E+01;  0.0000000E+00;  8.0425078E-01;0; -3.5754293E-03;  9.9959648E+03;  0.0000000E+00; -1.7541915E+00;  1.0000000E+04;  0.0000000E+00;  9.9842715E+03; -1.3481686E-01;  0.0000000E+00;  1.3124143E-01;  2.1812771E+03;
  1.2605569E+00;  9.9999998E-03; -1.0007282E-01;2939;  2.1330534E-01;  0.0000000E+00; -9.3096616E-03;  1.0021592E+03;  4.0124139E-01;  1.4228920E+03;3;  8.5655579E+01;  0.0000000E+00;  1.4419796E+00;0; -2.2163466E-02;  9.9964082E+03;  0.0000000E+00; -1.7237788E+00;  1.0000000E+04;  0.0000000E+00;  9.9847783E+03; -1.5280217E-01;  0.0000000E+00;  1.3063870E-01;  2.1324561E+03;
  1.2605227E+00;  9.9999998E-03; -8.0057591E-02;2940;  2.0384163E-01;  0.0000000E+00; -6.9984323E-03;  1.0022197E+03;  4.0124124E-01;  1.4628337E+03;3;  7.9349045E+01;  0.0000000E+00;  1.9602232E+00;0; -4.3935865E-02;  9.9968320E+03;  0.0000000E+00; -1.2322735E+00;  1.0000000E+04;  0.0000000E+00;  9.9855605E+03; -1.6578157E-01;  0.0000000E+00;  1.2184571E-01;  1.7723051E+03;
  1.2604939E+00;  9.9999998E-03; -6.0041651E-02;2941;  1.9651964E-01;  0.0000000E+00; -4.9396460E-03;  1.0022620E+03;  4.0124139E-01;  1.4908208E+03;3;  7.5304726E+01;  0.0000000E+00;  1.8228564E+00;0; -5.2892938E-02;  9.9969756E+03;  0.0000000E+00; -6.8108672E-01;  1.0000000E+04;  0.0000000E+00;  9.9862549E+03; -1.6481757E-01;  0.0000000E+00;  1.1192463E-01;  1.4440664E+03;
  1.2604723E+00;  9.9999998E-03; -4.0026110E-02;2942;  1.9098300E-01;  0.0000000E+00; -2.8162913E-03;  1.0022885E+03;  4.0124145E-01;  1.5083364E+03;3;  7.3046158E+01;  0.0000000E+00;  1.4094646E+00;0; -5.9335686E-02;  9.9970146E+03;  0.0000000E+00; -2.7924246E-01;  1.0000000E+04;  0.0000000E+00;  9.9867344E+03; -1.6233931E-01;  0.0000000E+00;  1.0300363E-01;  1.2826691E+03;
  1.2604595E+00;  9.9999998E-03; -2.0012589E-02;2943;  1.8766062E-01;  0.0000000E+00; -1.1576926E-03;  1.0022993E+03;  4.0124136E-01;  1.5155303E+03;3;  7.2041496E+01;  0.0000000E+00;  8.6702359E-01;0; -6.2978625E-02;  9.9969727E+03;  0.0000000E+00; -6.4549804E-02;  1.0000000E+04;  0.0000000E+00;  9.9869980E+03; -1.6030924E-01;  0.0000000E+00;  9.7330615E-02;  1.2320087E+03;
  1.2805771E+00;  9.9999998E-03; -1.2008207E-01;2953;  2.1530618E-01;  0.0000000E+00; -8.2754456E-03;  1.0021272E+03;  4.0121296E-01;  1.3369569E+03;3;  1.0581969E+02;  0.0000000E+00;  5.8040535E-01;0; -2.8585367E-02;  9.9969844E+03;  0.0000000E+00;  3.3242300E-01;  1.0000000E+04;  0.0000000E+00;  9.9849805E+03; -1.3817728E-01;  0.0000000E+00;  1.0959191E-01;  1.2188401E+03;
  1.2805511E+00;  9.9999998E-03; -1.0007250E-01;2954;  2.0731917E-01;  0.0000000E+00; -6.5609282E-03;  1.0020491E+03;  4.0121296E-01;  1.2879630E+03;3;  9.7040726E+01;  0.0000000E+00;  1.6088207E+00;0; -3.2707237E-02;  9.9955410E+03;  0.0000000E+00; -3.8774389E-01;  1.0000000E+04;  0.0000000E+00;  9.9848623E+03; -1.4418338E-01;  0.0000000E+00;  1.1147615E-01;  1.1955771E+03;
  1.2805250E+00;  9.9999998E-03; -8.0059119E-02;2955;  1.9909635E-01;  0.0000000E+00; -4.4895015E-03;  1.0020466E+03;  4.0121290E-01;  1.2864714E+03;3;  8.9730179E+01;  0.0000000E+00;  2.4798656E+00;0; -5.4900028E-02;  9.9949873E+03;  0.0000000E+00; -5.4929543E-01;  1.0000000E+04;  0.0000000E+00;  9.9853613E+03; -1.6001667E-01;  0.0000000E+00;  1.0511664E-01;  1.1716066E+03;
  1.2805049E+00;  9.9999998E-03; -6.0044538E-02;2956;  1.9251549E-01;  0.0000000E+00; -3.2088412E-03;  1.0020183E+03;  4.0121302E-01;  1.2687747E+03;3;  8.4830086E+01;  0.0000000E+00;  2.5951838E+00;0; -6.5025456E-02;  9.9938564E+03;  0.0000000E+00; -3.9592722E-01;  1.0000000E+04;  0.0000000E+00;  9.9859326E+03; -1.6270439E-01;  0.0000000E+00;  9.7678937E-02;  1.0611656E+03;
  1.2804900E+00;  9.9999998E-03; -4.0028803E-02;2957;  1.8726476E-01;  0.0000000E+00; -1.9006985E-03;  1.0019963E+03;  4.0121305E-01;  1.2549568E+03;3;  8.1856018E+01;  0.0000000E+00;  2.3226988E+00;0; -7.7070296E-02;  9.9929326E+03;  0.0000000E+00; -1.8446082E-01;  1.0000000E+04;  0.0000000E+00;  9.9864170E+03; -1.6606003E-01;  0.0000000E+00;  8.8989735E-02;  9.6434247E+02;
  1.2804811E+00;  9.9999998E-03; -2.0013742E-02;2958;  1.8383697E-01;  0.0000000E+00; -6.0192531E-04;  1.0019785E+03;  4.0121299E-01;  1.2438179E+03;3;  8.0417435E+01;  0.0000000E+00;  1.5870699E+00;0; -8.6128399E-02;  9.9922891E+03;  0.0000000E+00; -4.4974383E-02;  1.0000000E+04;  0.0000000E+00;  9.9866973E+03; -1.6873179E-01;  0.0000000E+00;  8.2603395E-02;  9.1455670E+02;
  1.3005062E+00;  9.9999998E-03; -8.0057010E-02;2966;  1.9114222E-01;  0.0000000E+00; -2.0136815E-03;  1.0022416E+03;  4.0119350E-01;  1.3403674E+03;3;  1.0022284E+02;  0.0000000E+00;  2.8124924E+00;0; -1.0591274E-01;  9.9998467E+03;  0.0000000E+00;  5.9558630E-01;  1.0000000E+04;  0.0000000E+00;  9.9853506E+03; -1.9057885E-01;  0.0000000E+00;  8.4666111E-02;  1.1108185E+03;
  1.3004893E+00;  9.9999998E-03; -6.0042065E-02;2967;  1.8552390E-01;  0.0000000E+00; -2.4302876E-04;  1.0022081E+03;  4.0119359E-01;  1.3203943E+03;3;  9.5426796E+01;  0.0000000E+00;  3.3814352E+00;0; -1.1313226E-01;  9.9986787E+03;  0.0000000E+00;  2.1108131E-01;  1.0000000E+04;  0.0000000E+00;  9.9858525E+03; -1.9161718E-01;  0.0000000E+00;  7.8484915E-02;  9.9611310E+02;
  1.3004764E+00;  9.9999998E-03; -4.0026587E-02;2968;  1.8107860E-01;  0.0000000E+00;  6.3948345E-04;  1.0021794E+03;  4.0119377E-01;  1.3032572E+03;3;  9.2808884E+01;  0.0000000E+00;  2.7460501E+00;0; -1.2167308E-01;  9.9977354E+03;  0.0000000E+00;  5.4589648E-02;  1.0000000E+04;  0.0000000E+00;  9.9862236E+03; -1.9500101E-01;  0.0000000E+00;  7.3327929E-02;  9.3496826E+02;
  1.3004688E+00;  9.9999998E-03; -2.0012466E-02;2969;  1.7851175E-01;  0.0000000E+00;  4.8328826E-04;  1.0021533E+03;  4.0119365E-01;  1.2876704E+03;3;  9.1834267E+01;  0.0000000E+00;  9.9759662E-01;0; -1.2573943E-01;  9.9970244E+03;  0.0000000E+00;  8.2770679E-03;  1.0000000E+04;  0.0000000E+00;  9.9864092E+03; -1.9544362E-01;  0.0000000E+00;  6.9704182E-02;  9.0077197E+02;
 -5.9543231E-06;  9.9999998E-03; -1.2438245E-13;1045; -3.7932144E-03;  0.0000000E+00;  6.4939623E-11;  1.0001285E+03;  4.0000001E-01;  1.0646611E+02;3; -2.4892426E+00;  0.0000000E+00; -5.9706872E-07;0; -7.4810021E-02;  1.0002601E+04;  0.0000000E+00;  2.1816796E-16;  1.0000000E+04;  0.0000000E+00;  9.9999727E+03; -7.5795561E-02;  0.0000000E+00;  9.8553987E-04;  2.2928020E+01;
 -5.9579452E-06;  9.9999998E-03;  2.0000024E-02;1046; -3.7953542E-03;  0.0000000E+00;  1.9722853E-05;  1.0001285E+03;  4.0000001E-01;  1.0646611E+02;3; -2.4900265E+00;  0.0000000E+00;  1.8266780E-02;0; -7.4807882E-02;  1.0002602E+04;  0.0000000E+00; -5.5605763E-12;  1.0000000E+04;  0.0000000E+00;  9.9999697E+03; -7.5832434E-02;  0.0000000E+00;  1.0245505E-03;  2.3603113E+01;
 -5.9678678E-06;  9.9999998E-03;  4.0000055E-02;1047; -3.8011996E-03;  0.0000000E+00;  4.1902971E-05;  1.0001285E+03;  4.0000001E-01;  1.0646611E+02;3; -2.4921856E+00;  0.0000000E+00;  3.7650779E-02;0; -7.4791312E-02;  1.0002606E+04;  0.0000000E+00; -1.3567232E-10;  1.0000000E+04;  0.0000000E+00;  9.9999668E+03; -7.5931065E-02;  0.0000000E+00;  1.1397511E-03;  2.5600111E+01;
 -5.9814629E-06;  9.9999998E-03;  6.0000088E-02;1048; -3.8089785E-03;  0.0000000E+00;  6.8775844E-05;  1.0001285E+03;  4.0000001E-01;  1.0646611E+02;3; -2.4944382E+00;  0.0000000E+00;  5.9941337E-02;0; -7.4728757E-02;  1.0002611E+04;  0.0000000E+00; -3.8145934E-10;  1.0000000E+04;  0.0000000E+00;  9.9999590E+03; -7.6054268E-02;  0.0000000E+00;  1.3255142E-03;  2.8830683E+01;
 -5.9937911E-06;  9.9999998E-03;  8.0000140E-02;1049; -3.8155648E-03;  0.0000000E+00;  1.0295172E-04;  1.0001282E+03;  4.0000001E-01;  1.0626859E+02;3; -2.4950848E+00;  0.0000000E+00;  8.5723281E-02;0; -7.4565940E-02;  1.0002614E+04;  0.0000000E+00; -8.5540386E-10;  1.0000000E+04;  0.0000000E+00;  9.9999502E+03; -7.6137714E-02;  0.0000000E+00;  1.5717709E-03;  3.3132393E+01;
 -5.9981335E-06;  9.9999998E-03;  1.0000020E-01;1050; -3.8165872E-03;  0.0000000E+00;  1.4523392E-04;  1.0001275E+03;  4.0000001E-01;  1.0567601E+02;3; -2.4911356E+00;  0.0000000E+00;  1.1631522E-01;0; -7.4224144E-02;  1.0002614E+04;  0.0000000E+00; -2.0413244E-09;  1.0000000E+04;  0.0000000E+00;  9.9999365E+03; -7.6086588E-02;  0.0000000E+00;  1.8624415E-03;  3.8237446E+01;
 -5.9841118E-06;  9.9999998E-03;  1.2000028E-01;1051; -3.8053696E-03;  0.0000000E+00;  1.9862287E-04;  1.0001267E+03;  4.0000001E-01;  1.0498467E+02;3; -2.4785919E+00;  0.0000000E+00;  1.5280852E-01;0; -7.3599227E-02;  1.0002606E+04;  0.0000000E+00; -3.0363088E-09;  1.0000000E+04;  0.0000000E+00;  9.9999268E+03; -7.5771600E-02;  0.0000000E+00;  2.1723756E-03;  4.3718418E+01;
 -5.9394270E-06;  9.9999998E-03;  1.4000039E-01;1052; -3.7742548E-03;  0.0000000E+00;  2.6221186E-04;  1.0001248E+03;  4.0000001E-01;  1.0340446E+02;3; -2.4528542E+00;  0.0000000E+00;  1.9393507E-01;0; -7.2562277E-02;  1.0002582E+04;  0.0000000E+00; -5.1096833E-09;  1.0000000E+04;  0.0000000E+00;  9.9999150E+03; -7.5025834E-02;  0.0000000E+00;  2.4635531E-03;  4.8922413E+01;
  1.9991612E-02;  9.9999998E-03; -8.3516053E-14;1075; -5.3058346E-03;  0.0000000E+00; -6.2354375E-13;  1.0001510E+03;  4.0000001E-01;  1.2513225E+02;3; -3.0945539E+00;  0.0000000E+00;  8.6206001E-07;0; -8.6717486E-02;  1.0003060E+04;  0.0000000E+00; -2.9352802E-17;  1.0000000E+04;  0.0000000E+00;  9.9999619E+03; -8.8044345E-02;  0.0000000E+00;  1.3268566E-03;  2.9185093E+01;
  1.9991605E-02;  9.9999998E-03;  2.0000035E-02;1076; -5.3094290E-03;  0.0000000E+00;  2.8681468E-05;  1.0001510E+03;  4.0000001E-01;  1.2513225E+02;3; -3.0957060E+00;  0.0000000E+00;  2.4648301E-02;0; -8.6718082E-02;  1.0003061E+04;  0.0000000E+00;  1.0538737E-11;  1.0000000E+04;  0.0000000E+00;  9.9999609E+03; -8.8095285E-02;  0.0000000E+00;  1.3772018E-03;  3.0078478E+01;
  1.9991588E-02;  9.9999998E-03;  4.0000077E-02;1077; -5.3193145E-03;  0.0000000E+00;  6.0443948E-05;  1.0001511E+03;  4.0000001E-01;  1.2513225E+02;3; -3.0986357E+00;  0.0000000E+00;  5.0728172E-02;0; -8.6708881E-02;  1.0003067E+04;  0.0000000E+00; -1.3193133E-10;  1.0000000E+04;  0.0000000E+00;  9.9999541E+03; -8.8234678E-02;  0.0000000E+00;  1.5257939E-03;  3.2720947E+01;
  1.9991564E-02;  9.9999998E-03;  6.0000129E-02;1078; -5.3332192E-03;  0.0000000E+00;  9.7833843E-05;  1.0001509E+03;  4.0000001E-01;  1.2503349E+02;3; -3.1021633E+00;  0.0000000E+00;  7.8992240E-02;0; -8.6656354E-02;  1.0003075E+04;  0.0000000E+00; -2.0598132E-10;  1.0000000E+04;  0.0000000E+00;  9.9999443E+03; -8.8421404E-02;  0.0000000E+00;  1.7650522E-03;  3.6993366E+01;
  1.9991538E-02;  9.9999998E-03;  8.0000192E-02;1079; -5.3467811E-03;  0.0000000E+00;  1.4432833E-04;  1.0001509E+03;  4.0000001E-01;  1.2503349E+02;3; -3.1038628E+00;  0.0000000E+00;  1.1160714E-01;0; -8.6502455E-02;  1.0003083E+04;  0.0000000E+00; -8.0896054E-11;  1.0000000E+04;  0.0000000E+00;  9.9999336E+03; -8.8583805E-02;  0.0000000E+00;  2.0813479E-03;  4.2675953E+01;
  1.9991521E-02;  9.9999998E-03;  1.0000028E-01;1080; -5.3540599E-03;  0.0000000E+00;  2.0128190E-04;  1.0001501E+03;  4.0000001E-01;  1.2444090E+02;3; -3.1006327E+00;  0.0000000E+00;  1.4845417E-01;0; -8.6162746E-02;  1.0003085E+04;  0.0000000E+00;  2.1668809E-09;  1.0000000E+04;  0.0000000E+00;  9.9999180E+03; -8.8615522E-02;  0.0000000E+00;  2.4527789E-03;  4.9404526E+01;
  1.9991526E-02;  9.9999998E-03;  1.2000038E-01;1081; -5.3460994E-03;  0.0000000E+00;  2.7131508E-04;  1.0001493E+03;  4.0000001E-01;  1.2365080E+02;3; -3.0874386E+00;  0.0000000E+00;  1.9138005E-01;0; -8.5524537E-02;  1.0003081E+04;  0.0000000E+00;  7.7449664E-09;  1.0000000E+04;  0.0000000E+00;  9.9999023E+03; -8.8370040E-02;  0.0000000E+00;  2.8455015E-03;  5.6602894E+01;
  1.9991575E-02;  9.9999998E-03;  1.4000052E-01;1082; -5.3111883E-03;  0.0000000E+00;  3.5706026E-04;  1.0001474E+03;  4.0000001E-01;  1.2207060E+02;3; -3.0580769E+00;  0.0000000E+00;  2.4136716E-01;0; -8.4446065E-02;  1.0003062E+04;  0.0000000E+00;  2.7055545E-08;  1.0000000E+04;  0.0000000E+00;  9.9998887E+03; -8.7656006E-02;  0.0000000E+00;  3.2099397E-03;  6.3410988E+01;
  3.9988514E-02;  9.9999998E-03;  8.1875973E-14;1106; -7.2159190E-03;  0.0000000E+00;  1.6960332E-10;  1.0001697E+03;  4.0000001E-01;  1.4053922E+02;3; -3.8075695E+00;  0.0000000E+00; -9.6472513E-07;0; -9.5765620E-02;  1.0003443E+04;  0.0000000E+00;  5.6846393E-16;  1.0000000E+04;  0.0000000E+00;  9.9999521E+03; -9.7398967E-02;  0.0000000E+00;  1.6333436E-03;  3.4691666E+01;
  3.9988503E-02;  9.9999998E-03;  2.0000044E-02;1107; -7.2213402E-03;  0.0000000E+00;  3.5343455E-05;  1.0001697E+03;  4.0000001E-01;  1.4053922E+02;3; -3.8089714E+00;  0.0000000E+00;  2.8839130E-02;0; -9.5773548E-02;  1.0003443E+04;  0.0000000E+00; -6.3821019E-12;  1.0000000E+04;  0.0000000E+00;  9.9999512E+03; -9.7465619E-02;  0.0000000E+00;  1.6920690E-03;  3.5770977E+01;
  3.9988477E-02;  9.9999998E-03;  4.0000092E-02;1108; -7.2365352E-03;  0.0000000E+00;  7.3968913E-05;  1.0001698E+03;  4.0000001E-01;  1.4063797E+02;3; -3.8126192E+00;  0.0000000E+00;  5.9147030E-02;0; -9.5786609E-02;  1.0003451E+04;  0.0000000E+00;  1.0986493E-10;  1.0000000E+04;  0.0000000E+00;  9.9999443E+03; -9.7651869E-02;  0.0000000E+00;  1.8652603E-03;  3.8962429E+01;
  3.9988436E-02;  9.9999998E-03;  6.0000155E-02;1109; -7.2583691E-03;  0.0000000E+00;  1.1907674E-04;  1.0001699E+03;  4.0000001E-01;  1.4073674E+02;3; -3.8170757E+00;  0.0000000E+00;  9.1242149E-02;0; -9.5771499E-02;  1.0003465E+04;  0.0000000E+00; -1.5156784E-11;  1.0000000E+04;  0.0000000E+00;  9.9999326E+03; -9.7915083E-02;  0.0000000E+00;  2.1435821E-03;  4.4118484E+01;
  3.9988395E-02;  9.9999998E-03;  8.0000229E-02;1110; -7.2812540E-03;  0.0000000E+00;  1.7363942E-04;  1.0001697E+03;  4.0000001E-01;  1.4063797E+02;3; -3.8194818E+00;  0.0000000E+00;  1.2712017E-01;0; -9.5670477E-02;  1.0003478E+04;  0.0000000E+00;  4.7393584E-10;  1.0000000E+04;  0.0000000E+00;  9.9999180E+03; -9.8180652E-02;  0.0000000E+00;  2.5101765E-03;  5.0965897E+01;
  3.9988358E-02;  9.9999998E-03;  1.0000034E-01;1111; -7.2968528E-03;  0.0000000E+00;  2.4068856E-04;  1.0001695E+03;  4.0000001E-01;  1.4044044E+02;3; -3.8160696E+00;  0.0000000E+00;  1.6746986E-01;0; -9.5399171E-02;  1.0003486E+04;  0.0000000E+00;  4.2607518E-09;  1.0000000E+04;  0.0000000E+00;  9.9998994E+03; -9.8337084E-02;  0.0000000E+00;  2.9379157E-03;  5.9052273E+01;
  3.9988350E-02;  9.9999998E-03;  1.2000046E-01;1112; -7.2941771E-03;  0.0000000E+00;  3.2053306E-04;  1.0001685E+03;  4.0000001E-01;  1.3955159E+02;3; -3.8014278E+00;  0.0000000E+00;  2.1145451E-01;0; -9.4843104E-02;  1.0003486E+04;  0.0000000E+00;  1.8097321E-08;  1.0000000E+04;  0.0000000E+00;  9.9998818E+03; -9.8228656E-02;  0.0000000E+00;  3.3855506E-03;  6.7669914E+01;
  3.9988399E-02;  9.9999998E-03;  1.4000061E-01;1113; -7.2573540E-03;  0.0000000E+00;  4.1676327E-04;  1.0001670E+03;  4.0000001E-01;  1.3836644E+02;3; -3.7680616E+00;  0.0000000E+00;  2.6142374E-01;0; -9.3853876E-02;  1.0003474E+04;  0.0000000E+00;  5.3403326E-08;  1.0000000E+04;  0.0000000E+00;  9.9998652E+03; -9.7648837E-02;  0.0000000E+00;  3.7949618E-03;  7.5791687E+01;
  5.9984989E-02;  9.9999998E-03; -6.6102310E-13;1137; -9.3473308E-03;  0.0000000E+00;  2.2624816E-10;  1.0001875E+03;  4.0000001E-01;  1.5535361E+02;3; -4.5844979E+00;  0.0000000E+00;  1.8068536E-06;0; -1.0361948E-01;  1.0003803E+04;  0.0000000E+00;  7.5703501E-16;  1.0000000E+04;  0.0000000E+00;  9.9999463E+03; -1.0550739E-01;  0.0000000E+00;  1.8879107E-03;  3.9454128E+01;
  5.9984978E-02;  9.9999998E-03;  2.0000048E-02;1138; -9.3548754E-03;  0.0000000E+00;  3.9109073E-05;  1.0001875E+03;  4.0000001E-01;  1.5535361E+02;3; -4.5860715E+00;  0.0000000E+00;  3.1688292E-02;0; -1.0364053E-01;  1.0003808E+04;  0.0000000E+00; -4.8091534E-11;  1.0000000E+04;  0.0000000E+00;  9.9999414E+03; -1.0559145E-01;  0.0000000E+00;  1.9509163E-03;  4.0670048E+01;
  5.9984937E-02;  9.9999998E-03;  4.0000100E-02;1139; -9.3762772E-03;  0.0000000E+00;  8.1455328E-05;  1.0001876E+03;  4.0000001E-01;  1.5545238E+02;3; -4.5902829E+00;  0.0000000E+00;  6.4146183E-02;0; -1.0369327E-01;  1.0003821E+04;  0.0000000E+00; -1.4011567E-10;  1.0000000E+04;  0.0000000E+00;  9.9999346E+03; -1.0582976E-01;  0.0000000E+00;  2.1364922E-03;  4.4263390E+01;
  5.9984878E-02;  9.9999998E-03;  6.0000166E-02;1140; -9.4074747E-03;  0.0000000E+00;  1.3061400E-04;  1.0001879E+03;  4.0000001E-01;  1.5564990E+02;3; -4.5952854E+00;  0.0000000E+00;  9.8610297E-02;0; -1.0374632E-01;  1.0003836E+04;  0.0000000E+00; -2.2058940E-11;  1.0000000E+04;  0.0000000E+00;  9.9999229E+03; -1.0618017E-01;  0.0000000E+00;  2.4338411E-03;  5.0061401E+01;
  5.9984811E-02;  9.9999998E-03;  8.0000252E-02;1141; -9.4416337E-03;  0.0000000E+00;  1.8902493E-04;  1.0001880E+03;  4.0000001E-01;  1.5574866E+02;3; -4.5981336E+00;  0.0000000E+00;  1.3539487E-01;0; -1.0374498E-01;  1.0003853E+04;  0.0000000E+00; -2.2162421E-11;  1.0000000E+04;  0.0000000E+00;  9.9999072E+03; -1.0656837E-01;  0.0000000E+00;  2.8233840E-03;  5.7743523E+01;
  5.9984755E-02;  9.9999998E-03;  1.0000036E-01;1142; -9.4683077E-03;  0.0000000E+00;  2.5986912E-04;  1.0001880E+03;  4.0000001E-01;  1.5574866E+02;3; -4.5941944E+00;  0.0000000E+00;  1.7591326E-01;0; -1.0360793E-01;  1.0003868E+04;  0.0000000E+00;  3.9074908E-09;  1.0000000E+04;  0.0000000E+00;  9.9998877E+03; -1.0688183E-01;  0.0000000E+00;  3.2739076E-03;  6.6784447E+01;
  5.9984729E-02;  9.9999998E-03;  1.2000050E-01;1143; -9.4734104E-03;  0.0000000E+00;  3.4458976E-04;  1.0001872E+03;  4.0000001E-01;  1.5505731E+02;3; -4.5774288E+00;  0.0000000E+00;  2.1912807E-01;0; -1.0322236E-01;  1.0003881E+04;  0.0000000E+00;  1.9449601E-08;  1.0000000E+04;  0.0000000E+00;  9.9998672E+03; -1.0696139E-01;  0.0000000E+00;  3.7390341E-03;  7.6376190E+01;
  5.9984762E-02;  9.9999998E-03;  1.4000066E-01;1144; -9.4374791E-03;  0.0000000E+00;  4.4416590E-04;  1.0001860E+03;  4.0000001E-01;  1.5416846E+02;3; -4.5394320E+00;  0.0000000E+00;  2.6641893E-01;0; -1.0243580E-01;  1.0003875E+04;  0.0000000E+00;  6.1945208E-08;  1.0000000E+04;  0.0000000E+00;  9.9998467E+03; -1.0659236E-01;  0.0000000E+00;  4.1565490E-03;  8.5386360E+01;
  7.9981133E-02;  9.9999998E-03; -3.6748588E-13;1168; -1.1619201E-02;  0.0000000E+00; -1.2921065E-09;  1.0002070E+03;  4.0000001E-01;  1.7145192E+02;3; -5.4395757E+00;  0.0000000E+00; -3.6330466E-06;0; -1.1180758E-01;  1.0004206E+04;  0.0000000E+00; -1.8816457E-16;  1.0000000E+04;  0.0000000E+00;  9.9999385E+03; -1.1392079E-01;  0.0000000E+00;  2.1132159E-03;  4.4007187E+01;
  7.9981118E-02;  9.9999998E-03;  2.0000048E-02;1169; -1.1629181E-02;  0.0000000E+00;  4.0387666E-05;  1.0002071E+03;  4.0000001E-01;  1.7155067E+02;3; -5.4413261E+00;  0.0000000E+00;  3.3202630E-02;0; -1.1184741E-01;  1.0004210E+04;  0.0000000E+00; -1.7511365E-10;  1.0000000E+04;  0.0000000E+00;  9.9999365E+03; -1.1402367E-01;  0.0000000E+00;  2.1762599E-03;  4.5309715E+01;
  7.9981066E-02;  9.9999998E-03;  4.0000103E-02;1170; -1.1657597E-02;  0.0000000E+00;  8.3981518E-05;  1.0002075E+03;  4.0000001E-01;  1.7184697E+02;3; -5.4460235E+00;  0.0000000E+00;  6.7062296E-02;0; -1.1195746E-01;  1.0004223E+04;  0.0000000E+00; -4.5895657E-10;  1.0000000E+04;  0.0000000E+00;  9.9999277E+03; -1.1431900E-01;  0.0000000E+00;  2.3615425E-03;  4.9155106E+01;
  7.9980984E-02;  9.9999998E-03;  6.0000170E-02;1171; -1.1699676E-02;  0.0000000E+00;  1.3382583E-04;  1.0002077E+03;  4.0000001E-01;  1.7204449E+02;3; -5.4515977E+00;  0.0000000E+00;  1.0216761E-01;0; -1.1210882E-01;  1.0004245E+04;  0.0000000E+00; -9.1823232E-10;  1.0000000E+04;  0.0000000E+00;  9.9999150E+03; -1.1476579E-01;  0.0000000E+00;  2.6569660E-03;  5.5345982E+01;
  7.9980887E-02;  9.9999998E-03;  8.0000259E-02;1172; -1.1747140E-02;  0.0000000E+00;  1.9304758E-04;  1.0002081E+03;  4.0000001E-01;  1.7234077E+02;3; -5.4546614E+00;  0.0000000E+00;  1.3894755E-01;0; -1.1225073E-01;  1.0004268E+04;  0.0000000E+00; -1.1918004E-09;  1.0000000E+04;  0.0000000E+00;  9.9998975E+03; -1.1529134E-01;  0.0000000E+00;  3.0406101E-03;  6.3517941E+01;
  7.9980798E-02;  9.9999998E-03;  1.0000037E-01;1173; -1.1787836E-02;  0.0000000E+00;  2.6353533E-04;  1.0002085E+03;  4.0000001E-01;  1.7273582E+02;3; -5.4502511E+00;  0.0000000E+00;  1.7802112E-01;0; -1.1230669E-01;  1.0004296E+04;  0.0000000E+00;  2.0394197E-09;  1.0000000E+04;  0.0000000E+00;  9.9998779E+03; -1.1578494E-01;  0.0000000E+00;  3.4782423E-03;  7.3085236E+01;
  7.9980746E-02;  9.9999998E-03;  1.2000050E-01;1174; -1.1804473E-02;  0.0000000E+00;  3.4831587E-04;  1.0002083E+03;  4.0000001E-01;  1.7253830E+02;3; -5.4314547E+00;  0.0000000E+00;  2.1983749E-01;0; -1.1216648E-01;  1.0004314E+04;  0.0000000E+00;  1.7760557E-08;  1.0000000E+04;  0.0000000E+00;  9.9998545E+03; -1.1608737E-01;  0.0000000E+00;  3.9208941E-03;  8.3172745E+01;
  7.9980761E-02;  9.9999998E-03;  1.4000067E-01;1175; -1.1774279E-02;  0.0000000E+00;  4.4568113E-04;  1.0002078E+03;  4.0000001E-01;  1.7214325E+02;3; -5.3891335E+00;  0.0000000E+00;  2.6276726E-01;0; -1.1167199E-01;  1.0004320E+04;  0.0000000E+00;  5.6264362E-08;  1.0000000E+04;  0.0000000E+00;  9.9998350E+03; -1.1597953E-01;  0.0000000E+00;  4.3075392E-03;  9.2615372E+01;
  9.9976927E-02;  9.9999998E-03; -2.3055163E-13;1199; -1.4029820E-02;  0.0000000E+00;  6.3816558E-10;  1.0002305E+03;  4.0000001E-01;  1.9090816E+02;3; -6.3887181E+00;  0.0000000E+00;  4.1544117E-06;0; -1.2136544E-01;  1.0004679E+04;  0.0000000E+00;  2.0607160E-16;  1.0000000E+04;  0.0000000E+00;  9.9999316E+03; -1.2373926E-01;  0.0000000E+00;  2.3738279E-03;  4.9402191E+01;
  9.9976905E-02;  9.9999998E-03;  2.0000048E-02;1200; -1.4042553E-02;  0.0000000E+00;  4.0931860E-05;  1.0002307E+03;  4.0000001E-01;  1.9110568E+02;3; -6.3906903E+00;  0.0000000E+00;  3.4554895E-02;0; -1.2142915E-01;  1.0004686E+04;  0.0000000E+00; -2.7985256E-10;  1.0000000E+04;  0.0000000E+00;  9.9999277E+03; -1.2386246E-01;  0.0000000E+00;  2.4333163E-03;  5.0754593E+01;
  9.9976830E-02;  9.9999998E-03;  4.0000103E-02;1201; -1.4078945E-02;  0.0000000E+00;  8.4660227E-05;  1.0002310E+03;  4.0000001E-01;  1.9140196E+02;3; -6.3958917E+00;  0.0000000E+00;  6.9488682E-02;0; -1.2161206E-01;  1.0004702E+04;  0.0000000E+00; -6.5038791E-10;  1.0000000E+04;  0.0000000E+00;  9.9999189E+03; -1.2421954E-01;  0.0000000E+00;  2.6074790E-03;  5.4740356E+01;
  9.9976726E-02;  9.9999998E-03;  6.0000170E-02;1202; -1.4133528E-02;  0.0000000E+00;  1.3406851E-04;  1.0002316E+03;  4.0000001E-01;  1.9189578E+02;3; -6.4021101E+00;  0.0000000E+00;  1.0487657E-01;0; -1.2188783E-01;  1.0004726E+04;  0.0000000E+00; -2.2050206E-09;  1.0000000E+04;  0.0000000E+00;  9.9999053E+03; -1.2477054E-01;  0.0000000E+00;  2.8827137E-03;  6.1132088E+01;
  9.9976592E-02;  9.9999998E-03;  8.0000252E-02;1203; -1.4196862E-02;  0.0000000E+00;  1.9184788E-04;  1.0002326E+03;  4.0000001E-01;  1.9268588E+02;3; -6.4056282E+00;  0.0000000E+00;  1.4131854E-01;0; -1.2221065E-01;  1.0004760E+04;  0.0000000E+00; -2.7301008E-09;  1.0000000E+04;  0.0000000E+00;  9.9998887E+03; -1.2544531E-01;  0.0000000E+00;  3.2346549E-03;  6.9516357E+01;
  9.9976465E-02;  9.9999998E-03;  1.0000036E-01;1204; -1.4254957E-02;  0.0000000E+00;  2.6029331E-04;  1.0002332E+03;  4.0000001E-01;  1.9317969E+02;3; -6.4010544E+00;  0.0000000E+00;  1.7867617E-01;0; -1.2250888E-01;  1.0004796E+04;  0.0000000E+00;  4.0369058E-10;  1.0000000E+04;  0.0000000E+00;  9.9998691E+03; -1.2613530E-01;  0.0000000E+00;  3.6264241E-03;  7.9246323E+01;
  9.9976368E-02;  9.9999998E-03;  1.2000050E-01;1205; -1.4288163E-02;  0.0000000E+00;  3.4095618E-04;  1.0002337E+03;  4.0000001E-01;  1.9357474E+02;3; -6.3808470E+00;  0.0000000E+00;  2.1707191E-01;0; -1.2267458E-01;  1.0004830E+04;  0.0000000E+00;  1.5027966E-08;  1.0000000E+04;  0.0000000E+00;  9.9998467E+03; -1.2668288E-01;  0.0000000E+00;  4.0082973E-03;  8.9399323E+01;
  9.9976353E-02;  9.9999998E-03;  1.4000067E-01;1206; -1.4269756E-02;  0.0000000E+00;  4.3436501E-04;  1.0002337E+03;  4.0000001E-01;  1.9357474E+02;3; -6.3349280E+00;  0.0000000E+00;  2.5634381E-01;0; -1.2254230E-01;  1.0004847E+04;  0.0000000E+00;  4.1838316E-08;  1.0000000E+04;  0.0000000E+00;  9.9998281E+03; -1.2686718E-01;  0.0000000E+00;  4.3248767E-03;  9.8832764E+01;
  1.1997226E-01;  9.9999998E-03; -4.3842748E-13;1230; -1.6631145E-02;  0.0000000E+00;  6.3535149E-10;  1.0002584E+03;  4.0000001E-01;  2.1401860E+02;3; -7.4360147E+00;  0.0000000E+00;  6.1530318E-07;0; -1.3272199E-01;  1.0005254E+04;  0.0000000E+00;  6.2895780E-16;  1.0000000E+04;  0.0000000E+00;  9.9999189E+03; -1.3549212E-01;  0.0000000E+00;  2.7701254E-03;  5.7113144E+01;
  1.1997223E-01;  9.9999998E-03;  2.0000050E-02;1231; -1.6646998E-02;  0.0000000E+00;  4.3094802E-05;  1.0002587E+03;  4.0000001E-01;  2.1431490E+02;3; -7.4382157E+00;  0.0000000E+00;  3.6818400E-02;0; -1.3281371E-01;  1.0005262E+04;  0.0000000E+00; -2.7093425E-10;  1.0000000E+04;  0.0000000E+00;  9.9999160E+03; -1.3563733E-01;  0.0000000E+00;  2.8236194E-03;  5.8502609E+01;
  1.1997214E-01;  9.9999998E-03;  4.0000107E-02;1232; -1.6692532E-02;  0.0000000E+00;  8.8550747E-05;  1.0002593E+03;  4.0000001E-01;  2.1480870E+02;3; -7.4439917E+00;  0.0000000E+00;  7.3471174E-02;0; -1.3308112E-01;  1.0005280E+04;  0.0000000E+00; -1.4887366E-09;  1.0000000E+04;  0.0000000E+00;  9.9999082E+03; -1.3606022E-01;  0.0000000E+00;  2.9790991E-03;  6.2585358E+01;
  1.1997200E-01;  9.9999998E-03;  6.0000174E-02;1233; -1.6761621E-02;  0.0000000E+00;  1.3884564E-04;  1.0002603E+03;  4.0000001E-01;  2.1559880E+02;3; -7.4509630E+00;  0.0000000E+00;  1.1015321E-01;0; -1.3350140E-01;  1.0005313E+04;  0.0000000E+00; -3.1717358E-09;  1.0000000E+04;  0.0000000E+00;  9.9998975E+03; -1.3672219E-01;  0.0000000E+00;  3.2207901E-03;  6.9090858E+01;
  1.1997183E-01;  9.9999998E-03;  8.0000259E-02;1234; -1.6843777E-02;  0.0000000E+00;  1.9621392E-04;  1.0002615E+03;  4.0000001E-01;  2.1668520E+02;3; -7.4551916E+00;  0.0000000E+00;  1.4658676E-01;0; -1.3403365E-01;  1.0005354E+04;  0.0000000E+00; -4.0878909E-09;  1.0000000E+04;  0.0000000E+00;  9.9998760E+03; -1.3755462E-01;  0.0000000E+00;  3.5209714E-03;  7.7537209E+01;
  1.1997164E-01;  9.9999998E-03;  1.0000037E-01;1235; -1.6923359E-02;  0.0000000E+00;  2.6291184E-04;  1.0002628E+03;  4.0000001E-01;  2.1777159E+02;3; -7.4507923E+00;  0.0000000E+00;  1.8276274E-01;0; -1.3461243E-01;  1.0005400E+04;  0.0000000E+00;  4.2352812E-11;  1.0000000E+04;  0.0000000E+00;  9.9998555E+03; -1.3845171E-01;  0.0000000E+00;  3.8392791E-03;  8.7194717E+01;
  1.1997149E-01;  9.9999998E-03;  1.2000050E-01;1236; -1.6978567E-02;  0.0000000E+00;  3.3954653E-04;  1.0002643E+03;  4.0000001E-01;  2.1895674E+02;3; -7.4299273E+00;  0.0000000E+00;  2.1845295E-01;0; -1.3513270E-01;  1.0005448E+04;  0.0000000E+00;  1.6736903E-08;  1.0000000E+04;  0.0000000E+00;  9.9998379E+03; -1.3925822E-01;  0.0000000E+00;  4.1255238E-03;  9.7083717E+01;
  1.1997143E-01;  9.9999998E-03;  1.4000067E-01;1237; -1.6979111E-02;  0.0000000E+00;  4.2804147E-04;  1.0002649E+03;  4.0000001E-01;  2.1945055E+02;3; -7.3815136E+00;  0.0000000E+00;  2.5365439E-01;0; -1.3542116E-01;  1.0005482E+04;  0.0000000E+00;  3.3506886E-08;  1.0000000E+04;  0.0000000E+00;  9.9998184E+03; -1.3975376E-01;  0.0000000E+00;  4.3326016E-03;  1.0610785E+02;
  1.3996699E-01;  9.9999998E-03;  9.1783558E-13;1261; -1.9490898E-02;  0.0000000E+00;  9.7057484E-10;  1.0002913E+03;  4.0000001E-01;  2.4137585E+02;3; -8.5785675E+00;  0.0000000E+00;  1.0679059E-06;0; -1.4582382E-01;  1.0005935E+04;  0.0000000E+00; -1.0469557E-15;  1.0000000E+04;  0.0000000E+00;  9.9998975E+03; -1.4925157E-01;  0.0000000E+00;  3.4277388E-03;  6.8911674E+01;
  1.3996696E-01;  9.9999998E-03;  2.0000059E-02;1262; -1.9510316E-02;  0.0000000E+00;  4.9982875E-05;  1.0002919E+03;  4.0000001E-01;  2.4177090E+02;3; -8.5809574E+00;  0.0000000E+00;  4.1235331E-02;0; -1.4594537E-01;  1.0005939E+04;  0.0000000E+00; -2.9263463E-11;  1.0000000E+04;  0.0000000E+00;  9.9998945E+03; -1.4941955E-01;  0.0000000E+00;  3.4741757E-03;  7.0356003E+01;
  1.3996685E-01;  9.9999998E-03;  4.0000122E-02;1263; -1.9566361E-02;  0.0000000E+00;  1.0187308E-04;  1.0002925E+03;  4.0000001E-01;  2.4236348E+02;3; -8.5873241E+00;  0.0000000E+00;  8.1970856E-02;0; -1.4630340E-01;  1.0005963E+04;  0.0000000E+00; -1.8751114E-09;  1.0000000E+04;  0.0000000E+00;  9.9998877E+03; -1.4991075E-01;  0.0000000E+00;  3.6073490E-03;  7.4581429E+01;
  1.3996667E-01;  9.9999998E-03;  6.0000200E-02;1264; -1.9652300E-02;  0.0000000E+00;  1.5763106E-04;  1.0002939E+03;  4.0000001E-01;  2.4354863E+02;3; -8.5951185E+00;  0.0000000E+00;  1.2190755E-01;0; -1.4687908E-01;  1.0006004E+04;  0.0000000E+00; -3.9437764E-09;  1.0000000E+04;  0.0000000E+00;  9.9998740E+03; -1.5068722E-01;  0.0000000E+00;  3.8081396E-03;  8.1252907E+01;
  1.3996644E-01;  9.9999998E-03;  8.0000289E-02;1265; -1.9756624E-02;  0.0000000E+00;  2.1908063E-04;  1.0002956E+03;  4.0000001E-01;  2.4493130E+02;3; -8.6001158E+00;  0.0000000E+00;  1.6050300E-01;0; -1.4763793E-01;  1.0006056E+04;  0.0000000E+00; -5.2412674E-09;  1.0000000E+04;  0.0000000E+00;  9.9998545E+03; -1.5168163E-01;  0.0000000E+00;  4.0437011E-03;  8.9784424E+01;
  1.3996619E-01;  9.9999998E-03;  1.0000041E-01;1266; -1.9862296E-02;  0.0000000E+00;  2.8776430E-04;  1.0002975E+03;  4.0000001E-01;  2.4651151E+02;3; -8.5962839E+00;  0.0000000E+00;  1.9755957E-01;0; -1.4852206E-01;  1.0006115E+04;  0.0000000E+00;  7.7970352E-10;  1.0000000E+04;  0.0000000E+00;  9.9998359E+03; -1.5279026E-01;  0.0000000E+00;  4.2682006E-03;  9.9320427E+01;
  1.3996598E-01;  9.9999998E-03;  1.2000055E-01;1267; -1.9945342E-02;  0.0000000E+00;  3.6432652E-04;  1.0002997E+03;  4.0000001E-01;  2.4828923E+02;3; -8.5752029E+00;  0.0000000E+00;  2.3238872E-01;0; -1.4943193E-01;  1.0006176E+04;  0.0000000E+00;  2.3287811E-08;  1.0000000E+04;  0.0000000E+00;  9.9998174E+03; -1.5386173E-01;  0.0000000E+00;  4.4298009E-03;  1.0878788E+02;
  1.3996585E-01;  9.9999998E-03;  1.4000072E-01;1268; -1.9972391E-02;  0.0000000E+00;  4.4841866E-04;  1.0003013E+03;  4.0000001E-01;  2.4967192E+02;3; -8.5251083E+00;  0.0000000E+00;  2.6397923E-01;0; -1.5018986E-01;  1.0006227E+04;  0.0000000E+00;  3.4503831E-08;  1.0000000E+04;  0.0000000E+00;  9.9998027E+03; -1.5468122E-01;  0.0000000E+00;  4.4913632E-03;  1.1714598E+02;
  1.5996101E-01;  9.9999998E-03; -1.5774723E-12;1292; -2.2662438E-02;  0.0000000E+00; -8.4477708E-10;  1.0003294E+03;  4.0000001E-01;  2.7288113E+02;3; -9.8142271E+00;  0.0000000E+00;  2.4322435E-07;0; -1.6045631E-01;  1.0006724E+04;  0.0000000E+00;  2.9252298E-15;  1.0000000E+04;  0.0000000E+00;  9.9998682E+03; -1.6494158E-01;  0.0000000E+00;  4.4852695E-03;  8.6738808E+01;
  1.5996097E-01;  9.9999998E-03;  2.0000080E-02;1293; -2.2685943E-02;  0.0000000E+00;  6.5101478E-05;  1.0003298E+03;  4.0000001E-01;  2.7327618E+02;3; -9.8168173E+00;  0.0000000E+00;  4.9527042E-02;0; -1.6060731E-01;  1.0006732E+04;  0.0000000E+00; -2.1641240E-10;  1.0000000E+04;  0.0000000E+00;  9.9998623E+03; -1.6513227E-01;  0.0000000E+00;  4.5249537E-03;  8.8290710E+01;
  1.5996082E-01;  9.9999998E-03;  4.0000163E-02;1294; -2.2754032E-02;  0.0000000E+00;  1.3167999E-04;  1.0003307E+03;  4.0000001E-01;  2.7406628E+02;3; -9.8237247E+00;  0.0000000E+00;  9.8218247E-02;0; -1.6105555E-01;  1.0006760E+04;  0.0000000E+00; -1.7959738E-09;  1.0000000E+04;  0.0000000E+00;  9.9998555E+03; -1.6569176E-01;  0.0000000E+00;  4.6362109E-03;  9.2808205E+01;
  1.5996060E-01;  9.9999998E-03;  6.0000259E-02;1295; -2.2859378E-02;  0.0000000E+00;  2.0128972E-04;  1.0003323E+03;  4.0000001E-01;  2.7535019E+02;3; -9.8322210E+00;  0.0000000E+00;  1.4542826E-01;0; -1.6178659E-01;  1.0006811E+04;  0.0000000E+00; -4.0672750E-09;  1.0000000E+04;  0.0000000E+00;  9.9998389E+03; -1.6658174E-01;  0.0000000E+00;  4.7951546E-03;  9.9864441E+01;
  1.5996030E-01;  9.9999998E-03;  8.0000371E-02;1296; -2.2989500E-02;  0.0000000E+00;  2.7520047E-04;  1.0003348E+03;  4.0000001E-01;  2.7732544E+02;3; -9.8379498E+00;  0.0000000E+00;  1.9016097E-01;0; -1.6277334E-01;  1.0006871E+04;  0.0000000E+00; -4.7921951E-09;  1.0000000E+04;  0.0000000E+00;  9.9998223E+03; -1.6773513E-01;  0.0000000E+00;  4.9617924E-03;  1.0872630E+02;
  1.5995999E-01;  9.9999998E-03;  1.0000051E-01;1297; -2.3125919E-02;  0.0000000E+00;  3.5448984E-04;  1.0003375E+03;  4.0000001E-01;  2.7959698E+02;3; -9.8345165E+00;  0.0000000E+00;  2.3196995E-01;0; -1.6396864E-01;  1.0006944E+04;  0.0000000E+00;  4.3062318E-09;  1.0000000E+04;  0.0000000E+00;  9.9998057E+03; -1.6905119E-01;  0.0000000E+00;  5.0825533E-03;  1.1836205E+02;
  1.5995967E-01;  9.9999998E-03;  1.2000067E-01;1298; -2.3242561E-02;  0.0000000E+00;  4.3856853E-04;  1.0003403E+03;  4.0000001E-01;  2.8196729E+02;3; -9.8132057E+00;  0.0000000E+00;  2.6920554E-01;0; -1.6528206E-01;  1.0007021E+04;  0.0000000E+00;  3.8520323E-08;  1.0000000E+04;  0.0000000E+00;  9.9997852E+03; -1.7038514E-01;  0.0000000E+00;  5.1030829E-03;  1.2757253E+02;
  1.5995947E-01;  9.9999998E-03;  1.4000085E-01;1299; -2.3303019E-02;  0.0000000E+00;  5.2473316E-04;  1.0003432E+03;  4.0000001E-01;  2.8433759E+02;3; -9.7615566E+00;  0.0000000E+00;  3.0004650E-01;0; -1.6653524E-01;  1.0007093E+04;  0.0000000E+00;  5.3453178E-08;  1.0000000E+04;  0.0000000E+00;  9.9997705E+03; -1.7153499E-01;  0.0000000E+00;  4.9997461E-03;  1.3542369E+02;
  1.7995422E-01;  9.9999998E-03;  5.1825639E-13;1323; -2.6179323E-02;  0.0000000E+00;  2.0526625E-09;  1.0003723E+03;  4.0000001E-01;  3.0843567E+02;3; -1.1143191E+01;  0.0000000E+00;  9.7105612E-06;0; -1.7657536E-01;  1.0007630E+04;  0.0000000E+00;  2.2084898E-15;  1.0000000E+04;  0.0000000E+00;  9.9998145E+03; -1.8265742E-01;  0.0000000E+00;  6.0820505E-03;  1.1257113E+02;
  1.7995414E-01;  9.9999998E-03;  2.0000115E-02;1324; -2.6207441E-02;  0.0000000E+00;  9.1989816E-05;  1.0003729E+03;  4.0000001E-01;  3.0892947E+02;3; -1.1145960E+01;  0.0000000E+00;  6.3024901E-02;0; -1.7675324E-01;  1.0007643E+04;  0.0000000E+00;  7.6788784E-11;  1.0000000E+04;  0.0000000E+00;  9.9998125E+03; -1.8286972E-01;  0.0000000E+00;  6.1164852E-03;  1.1432156E+02;
  1.7995396E-01;  9.9999998E-03;  4.0000238E-02;1325; -2.6289176E-02;  0.0000000E+00;  1.8517901E-04;  1.0003740E+03;  4.0000001E-01;  3.0981836E+02;3; -1.1153251E+01;  0.0000000E+00;  1.2522538E-01;0; -1.7728402E-01;  1.0007678E+04;  0.0000000E+00; -9.0130320E-10;  1.0000000E+04;  0.0000000E+00;  9.9998027E+03; -1.8349396E-01;  0.0000000E+00;  6.2099341E-03;  1.1939557E+02;
  1.7995368E-01;  9.9999998E-03;  6.0000371E-02;1326; -2.6416577E-02;  0.0000000E+00;  2.8077318E-04;  1.0003761E+03;  4.0000001E-01;  3.1159607E+02;3; -1.1162248E+01;  0.0000000E+00;  1.8534049E-01;0; -1.7815781E-01;  1.0007735E+04;  0.0000000E+00; -3.6416810E-09;  1.0000000E+04;  0.0000000E+00;  9.9997881E+03; -1.8449059E-01;  0.0000000E+00;  6.3327872E-03;  1.2725066E+02;
  1.7995332E-01;  9.9999998E-03;  8.0000527E-02;1327; -2.6576074E-02;  0.0000000E+00;  3.7995077E-04;  1.0003788E+03;  4.0000001E-01;  3.1376886E+02;3; -1.1168303E+01;  0.0000000E+00;  2.4253726E-01;0; -1.7935638E-01;  1.0007809E+04;  0.0000000E+00; -2.9528366E-09;  1.0000000E+04;  0.0000000E+00;  9.9997656E+03; -1.8579307E-01;  0.0000000E+00;  6.4366953E-03;  1.3697357E+02;
  1.7995290E-01;  9.9999998E-03;  1.0000070E-01;1328; -2.6747629E-02;  0.0000000E+00;  4.8296331E-04;  1.0003823E+03;  4.0000001E-01;  3.1673172E+02;3; -1.1164674E+01;  0.0000000E+00;  2.9507476E-01;0; -1.8084379E-01;  1.0007896E+04;  0.0000000E+00;  1.2884917E-08;  1.0000000E+04;  0.0000000E+00;  9.9997480E+03; -1.8730359E-01;  0.0000000E+00;  6.4597954E-03;  1.4732910E+02;
  1.7995250E-01;  9.9999998E-03;  1.2000090E-01;1329; -2.6903003E-02;  0.0000000E+00;  5.8735040E-04;  1.0003860E+03;  4.0000001E-01;  3.1979337E+02;3; -1.1142276E+01;  0.0000000E+00;  3.4036732E-01;0; -1.8254024E-01;  1.0007991E+04;  0.0000000E+00;  5.9653914E-08;  1.0000000E+04;  0.0000000E+00;  9.9997275E+03; -1.8888757E-01;  0.0000000E+00;  6.3473214E-03;  1.5701332E+02;
  1.7995217E-01;  9.9999998E-03;  1.4000112E-01;1330; -2.7002657E-02;  0.0000000E+00;  6.8874651E-04;  1.0003900E+03;  4.0000001E-01;  3.2315131E+02;3; -1.1088144E+01;  0.0000000E+00;  3.7579158E-01;0; -1.8426766E-01;  1.0008085E+04;  0.0000000E+00;  9.7543335E-08;  1.0000000E+04;  0.0000000E+00;  9.9997168E+03; -1.9036551E-01;  0.0000000E+00;  6.0978513E-03;  1.6535414E+02;
  1.9994646E-01;  9.9999998E-03; -1.0948224E-12;1354; -3.0074408E-02;  0.0000000E+00;  1.2457811E-09;  1.0004213E+03;  4.0000001E-01;  3.4902710E+02;3; -1.2567115E+01;  0.0000000E+00;  4.5087527E-06;0; -1.9422883E-01;  1.0008680E+04;  0.0000000E+00; -1.7886484E-16;  1.0000000E+04;  0.0000000E+00;  9.9997461E+03; -2.0257421E-01;  0.0000000E+00;  8.3453869E-03;  1.4822453E+02;
  1.9994639E-01;  9.9999998E-03;  2.0000175E-02;1355; -3.0107675E-02;  0.0000000E+00;  1.3412091E-04;  1.0004218E+03;  4.0000001E-01;  3.4942215E+02;3; -1.2569952E+01;  0.0000000E+00;  8.4285073E-02;0; -1.9442903E-01;  1.0008691E+04;  0.0000000E+00; -3.8673761E-10;  1.0000000E+04;  0.0000000E+00;  9.9997441E+03; -2.0280601E-01;  0.0000000E+00;  8.3769793E-03;  1.5030421E+02;
  1.9994618E-01;  9.9999998E-03;  4.0000357E-02;1356; -3.0204611E-02;  0.0000000E+00;  2.6940304E-04;  1.0004232E+03;  4.0000001E-01;  3.5060733E+02;3; -1.2577424E+01;  0.0000000E+00;  1.6698259E-01;0; -1.9502762E-01;  1.0008732E+04;  0.0000000E+00; -8.3015572E-10;  1.0000000E+04;  0.0000000E+00;  9.9997305E+03; -2.0348750E-01;  0.0000000E+00;  8.4598865E-03;  1.5632211E+02;
  1.9994582E-01;  9.9999998E-03;  6.0000550E-02;1357; -3.0356623E-02;  0.0000000E+00;  4.0669722E-04;  1.0004255E+03;  4.0000001E-01;  3.5258258E+02;3; -1.2586617E+01;  0.0000000E+00;  2.4599092E-01;0; -1.9601984E-01;  1.0008800E+04;  0.0000000E+00; -1.9331581E-09;  1.0000000E+04;  0.0000000E+00;  9.9997119E+03; -2.0457892E-01;  0.0000000E+00;  8.5590770E-03;  1.6561160E+02;
  1.9994538E-01;  9.9999998E-03;  8.0000773E-02;1358; -3.0548876E-02;  0.0000000E+00;  5.4733211E-04;  1.0004287E+03;  4.0000001E-01;  3.5515039E+02;3; -1.2592123E+01;  0.0000000E+00;  3.2234156E-01;0; -1.9739455E-01;  1.0008890E+04;  0.0000000E+00;  8.2847895E-11;  1.0000000E+04;  0.0000000E+00;  9.9996895E+03; -2.0601334E-01;  0.0000000E+00;  8.6187907E-03;  1.7707628E+02;
  1.9994485E-01;  9.9999998E-03;  1.0000101E-01;1359; -3.0759459E-02;  0.0000000E+00;  6.9122028E-04;  1.0004327E+03;  4.0000001E-01;  3.5850833E+02;3; -1.2587022E+01;  0.0000000E+00;  3.9333144E-01;0; -1.9912580E-01;  1.0008990E+04;  0.0000000E+00;  2.3269504E-08;  1.0000000E+04;  0.0000000E+00;  9.9996670E+03; -2.0769766E-01;  0.0000000E+00;  8.5718688E-03;  1.8930481E+02;
  1.9994432E-01;  9.9999998E-03;  1.2000129E-01;1360; -3.0957527E-02;  0.0000000E+00;  8.3520875E-04;  1.0004376E+03;  4.0000001E-01;  3.6255759E+02;3; -1.2561644E+01;  0.0000000E+00;  4.5589432E-01;0; -2.0114131E-01;  1.0009106E+04;  0.0000000E+00;  8.3059369E-08;  1.0000000E+04;  0.0000000E+00;  9.9996445E+03; -2.0951132E-01;  0.0000000E+00;  8.3700093E-03;  2.0099744E+02;
  1.9994387E-01;  9.9999998E-03;  1.4000158E-01;1361; -3.1100586E-02;  0.0000000E+00;  9.7154186E-04;  1.0004423E+03;  4.0000001E-01;  3.6640933E+02;3; -1.2502809E+01;  0.0000000E+00;  5.0439799E-01;0; -2.0325790E-01;  1.0009224E+04;  0.0000000E+00;  1.4414879E-07;  1.0000000E+04;  0.0000000E+00;  9.9996250E+03; -2.1130526E-01;  0.0000000E+00;  8.0473535E-03;  2.1200760E+02;
  2.1993765E-01;  9.9999998E-03; -1.1217496E-12;1385; -3.4389731E-02;  0.0000000E+00;  3.1797940E-09;  1.0004763E+03;  4.0000001E-01;  3.9455667E+02;3; -1.4091491E+01;  0.0000000E+00;  5.0371204E-06;0; -2.1345782E-01;  1.0009875E+04;  0.0000000E+00;  2.0442022E-15;  1.0000000E+04;  0.0000000E+00;  9.9996533E+03; -2.2483499E-01;  0.0000000E+00;  1.1377167E-02;  1.9514868E+02;
  2.1993756E-01;  9.9999998E-03;  2.0000257E-02;1386; -3.4428623E-02;  0.0000000E+00;  1.9388163E-04;  1.0004767E+03;  4.0000001E-01;  3.9495172E+02;3; -1.4094245E+01;  0.0000000E+00;  1.1269917E-01;0; -2.1367353E-01;  1.0009890E+04;  0.0000000E+00; -3.6842612E-11;  1.0000000E+04;  0.0000000E+00;  9.9996494E+03; -2.2508232E-01;  0.0000000E+00;  1.1408796E-02;  1.9772598E+02;
  2.1993729E-01;  9.9999998E-03;  4.0000524E-02;1387; -3.4542225E-02;  0.0000000E+00;  3.8918472E-04;  1.0004783E+03;  4.0000001E-01;  3.9623566E+02;3; -1.4101375E+01;  0.0000000E+00;  2.2412387E-01;0; -2.1431988E-01;  1.0009935E+04;  0.0000000E+00;  1.8104507E-10;  1.0000000E+04;  0.0000000E+00;  9.9996328E+03; -2.2581035E-01;  0.0000000E+00;  1.1490465E-02;  2.0519597E+02;
  2.1993688E-01;  9.9999998E-03;  6.0000811E-02;1388; -3.4721084E-02;  0.0000000E+00;  5.8753684E-04;  1.0004810E+03;  4.0000001E-01;  3.9850720E+02;3; -1.4109553E+01;  0.0000000E+00;  3.3295015E-01;0; -2.1539508E-01;  1.0010013E+04;  0.0000000E+00; -4.4736898E-10;  1.0000000E+04;  0.0000000E+00;  9.9996123E+03; -2.2697884E-01;  0.0000000E+00;  1.1583760E-02;  2.1678168E+02;
  2.1993631E-01;  9.9999998E-03;  8.0001123E-02;1389; -3.4948897E-02;  0.0000000E+00;  7.8961649E-04;  1.0004844E+03;  4.0000001E-01;  4.0137131E+02;3; -1.4113228E+01;  0.0000000E+00;  4.3726233E-01;0; -2.1689221E-01;  1.0010112E+04;  0.0000000E+00;  4.9995430E-09;  1.0000000E+04;  0.0000000E+00;  9.9995840E+03; -2.2852163E-01;  0.0000000E+00;  1.1629421E-02;  2.3124315E+02;
  2.1993567E-01;  9.9999998E-03;  1.0000147E-01;1390; -3.5201576E-02;  0.0000000E+00;  9.9552830E-04;  1.0004891E+03;  4.0000001E-01;  4.0522305E+02;3; -1.4104675E+01;  0.0000000E+00;  5.3539562E-01;0; -2.1879031E-01;  1.0010235E+04;  0.0000000E+00;  2.9288126E-08;  1.0000000E+04;  0.0000000E+00;  9.9995518E+03; -2.3035212E-01;  0.0000000E+00;  1.1561809E-02;  2.4708305E+02;
  2.1993500E-01;  9.9999998E-03;  1.2000185E-01;1391; -3.5445500E-02;  0.0000000E+00;  1.2000281E-03;  1.0004945E+03;  4.0000001E-01;  4.0966736E+02;3; -1.4074249E+01;  0.0000000E+00;  6.1995345E-01;0; -2.2101653E-01;  1.0010373E+04;  0.0000000E+00;  9.8872071E-08;  1.0000000E+04;  0.0000000E+00;  9.9995195E+03; -2.3236635E-01;  0.0000000E+00;  1.1349822E-02;  2.6318539E+02;
  2.1993440E-01;  9.9999998E-03;  1.4000225E-01;1392; -3.5634588E-02;  0.0000000E+00;  1.3939338E-03;  1.0005002E+03;  4.0000001E-01;  4.1440796E+02;3; -1.4006878E+01;  0.0000000E+00;  6.9268733E-01;0; -2.2337390E-01;  1.0010521E+04;  0.0000000E+00;  1.6783932E-07;  1.0000000E+04;  0.0000000E+00;  9.9994912E+03; -2.3444997E-01;  0.0000000E+00;  1.1076059E-02;  2.8021118E+02;
  2.3992762E-01;  9.9999998E-03; -2.8256426E-13;1416; -3.9174221E-02;  0.0000000E+00;  1.5942543E-09;  1.0005381E+03;  4.0000001E-01;  4.4581448E+02;3; -1.5722232E+01;  0.0000000E+00; -1.8180435E-07;0; -2.3433459E-01;  1.0011233E+04;  0.0000000E+00; -1.7606110E-15;  1.0000000E+04;  0.0000000E+00;  9.9995352E+03; -2.4957684E-01;  0.0000000E+00;  1.5242243E-02;  2.5427242E+02;
  2.3992752E-01;  9.9999998E-03;  2.0000368E-02;1417; -3.9219145E-02;  0.0000000E+00;  2.7407901E-04;  1.0005387E+03;  4.0000001E-01;  4.4630829E+02;3; -1.5724674E+01;  0.0000000E+00;  1.5111862E-01;0; -2.3455770E-01;  1.0011247E+04;  0.0000000E+00;  1.1716729E-09;  1.0000000E+04;  0.0000000E+00;  9.9995273E+03; -2.4983442E-01;  0.0000000E+00;  1.5276714E-02;  2.5754752E+02;
  2.3992719E-01;  9.9999998E-03;  4.0000752E-02;1418; -3.9350759E-02;  0.0000000E+00;  5.4928602E-04;  1.0005405E+03;  4.0000001E-01;  4.4778973E+02;3; -1.5731678E+01;  0.0000000E+00;  2.9698357E-01;0; -2.3522688E-01;  1.0011306E+04;  0.0000000E+00;  1.9968971E-09;  1.0000000E+04;  0.0000000E+00;  9.9995098E+03; -2.5059360E-01;  0.0000000E+00;  1.5366714E-02;  2.6708044E+02;
  2.3992668E-01;  9.9999998E-03;  6.0001157E-02;1419; -3.9558452E-02;  0.0000000E+00;  8.2856353E-04;  1.0005433E+03;  4.0000001E-01;  4.5016003E+02;3; -1.5737904E+01;  0.0000000E+00;  4.4216433E-01;0; -2.3634107E-01;  1.0011389E+04;  0.0000000E+00;  1.2655417E-09;  1.0000000E+04;  0.0000000E+00;  9.9994795E+03; -2.5181511E-01;  0.0000000E+00;  1.5474040E-02;  2.8202032E+02;
  2.3992601E-01;  9.9999998E-03;  8.0001600E-02;1420; -3.9824191E-02;  0.0000000E+00;  1.1122522E-03;  1.0005473E+03;  4.0000001E-01;  4.5341922E+02;3; -1.5738001E+01;  0.0000000E+00;  5.8233523E-01;0; -2.3789373E-01;  1.0011506E+04;  0.0000000E+00;  4.1010675E-09;  1.0000000E+04;  0.0000000E+00;  9.9994424E+03; -2.5343588E-01;  0.0000000E+00;  1.5542148E-02;  3.0105811E+02;
  2.3992522E-01;  9.9999998E-03;  1.0000209E-01;1421; -4.0121421E-02;  0.0000000E+00;  1.4000590E-03;  1.0005521E+03;  4.0000001E-01;  4.5746848E+02;3; -1.5723625E+01;  0.0000000E+00;  7.1548182E-01;0; -2.3986003E-01;  1.0011648E+04;  0.0000000E+00;  2.6738423E-08;  1.0000000E+04;  0.0000000E+00;  9.9993994E+03; -2.5537595E-01;  0.0000000E+00;  1.5515924E-02;  3.2273376E+02;
  2.3992440E-01;  9.9999998E-03;  1.2000261E-01;1422; -4.0413145E-02;  0.0000000E+00;  1.6879810E-03;  1.0005580E+03;  4.0000001E-01;  4.6230783E+02;3; -1.5683346E+01;  0.0000000E+00;  8.3894676E-01;0; -2.4215694E-01;  1.0011810E+04;  0.0000000E+00;  8.0426659E-08;  1.0000000E+04;  0.0000000E+00;  9.9993545E+03; -2.5754887E-01;  0.0000000E+00;  1.5391937E-02;  3.4628940E+02;
  2.3992363E-01;  9.9999998E-03;  1.4000317E-01;1423; -4.0649936E-02;  0.0000000E+00;  1.9653332E-03;  1.0005641E+03;  4.0000001E-01;  4.6734473E+02;3; -1.5604367E+01;  0.0000000E+00;  9.4087833E-01;0; -2.4456644E-01;  1.0011987E+04;  0.0000000E+00;  1.3603865E-07;  1.0000000E+04;  0.0000000E+00;  9.9993027E+03; -2.5987318E-01;  0.0000000E+00;  1.5306739E-02;  3.7334561E+02;
  2.5991619E-01;  9.9999998E-03; -1.7605207E-12;1447; -4.4483233E-02;  0.0000000E+00; -1.3631722E-09;  1.0006079E+03;  4.0000001E-01;  5.0368933E+02;3; -1.7470592E+01;  0.0000000E+00; -9.7790689E-07;0; -2.5697872E-01;  1.0012773E+04;  0.0000000E+00; -8.3729313E-17;  1.0000000E+04;  0.0000000E+00;  9.9993906E+03; -2.7693909E-01;  0.0000000E+00;  1.9960368E-02;  3.2591418E+02;
  2.5991607E-01;  9.9999998E-03;  2.0000508E-02;1448; -4.4534460E-02;  0.0000000E+00;  3.7377511E-04;  1.0006085E+03;  4.0000001E-01;  5.0408438E+02;3; -1.7472322E+01;  0.0000000E+00;  1.9595338E-01;0; -2.5720018E-01;  1.0012793E+04;  0.0000000E+00; -9.0313687E-11;  1.0000000E+04;  0.0000000E+00;  9.9993809E+03; -2.7719986E-01;  0.0000000E+00;  1.9999685E-02;  3.3010867E+02;
  2.5991568E-01;  9.9999998E-03;  4.0001031E-02;1449; -4.4684358E-02;  0.0000000E+00;  7.4997946E-04;  1.0006103E+03;  4.0000001E-01;  5.0556583E+02;3; -1.7476372E+01;  0.0000000E+00;  3.9015606E-01;0; -2.5786448E-01;  1.0012854E+04;  0.0000000E+00;  1.6903996E-09;  1.0000000E+04;  0.0000000E+00;  9.9993555E+03; -2.7797002E-01;  0.0000000E+00;  2.0105539E-02;  3.4238522E+02;
  2.5991508E-01;  9.9999998E-03;  6.0001589E-02;1450; -4.4921622E-02;  0.0000000E+00;  1.1311929E-03;  1.0006132E+03;  4.0000001E-01;  5.0803491E+02;3; -1.7478746E+01;  0.0000000E+00;  5.8170277E-01;0; -2.5896892E-01;  1.0012954E+04;  0.0000000E+00;  3.5794645E-09;  1.0000000E+04;  0.0000000E+00;  9.9993184E+03; -2.7921301E-01;  0.0000000E+00;  2.0244082E-02;  3.6186667E+02;
  2.5991428E-01;  9.9999998E-03;  8.0002196E-02;1451; -4.5226619E-02;  0.0000000E+00;  1.5193477E-03;  1.0006173E+03;  4.0000001E-01;  5.1139282E+02;3; -1.7473045E+01;  0.0000000E+00;  7.6736367E-01;0; -2.6050273E-01;  1.0013084E+04;  0.0000000E+00;  2.0812170E-09;  1.0000000E+04;  0.0000000E+00;  9.9992666E+03; -2.8087097E-01;  0.0000000E+00;  2.0368256E-02;  3.8725513E+02;
  2.5991333E-01;  9.9999998E-03;  1.0000286E-01;1452; -4.5569547E-02;  0.0000000E+00;  1.9114831E-03;  1.0006225E+03;  4.0000001E-01;  5.1573840E+02;3; -1.7448809E+01;  0.0000000E+00;  9.4282746E-01;0; -2.6243103E-01;  1.0013249E+04;  0.0000000E+00;  5.6353087E-09;  1.0000000E+04;  0.0000000E+00;  9.9992090E+03; -2.8287232E-01;  0.0000000E+00;  2.0441283E-02;  4.1722806E+02;
  2.5991231E-01;  9.9999998E-03;  1.2000358E-01;1453; -4.5909695E-02;  0.0000000E+00;  2.3068641E-03;  1.0006287E+03;  4.0000001E-01;  5.2087402E+02;3; -1.7393780E+01;  0.0000000E+00;  1.1123493E+00;0; -2.6465172E-01;  1.0013436E+04;  0.0000000E+00;  2.2744494E-08;  1.0000000E+04;  0.0000000E+00;  9.9991436E+03; -2.8514412E-01;  0.0000000E+00;  2.0492395E-02;  4.5145059E+02;
  2.5991133E-01;  9.9999998E-03;  1.4000435E-01;1454; -4.6197403E-02;  0.0000000E+00;  2.6846568E-03;  1.0006348E+03;  4.0000001E-01;  5.2591095E+02;3; -1.7299896E+01;  0.0000000E+00;  1.2429813E+00;0; -2.6692411E-01;  1.0013642E+04;  0.0000000E+00;  5.0670568E-08;  1.0000000E+04;  0.0000000E+00;  9.9990605E+03; -2.8762960E-01;  0.0000000E+00;  2.0705504E-02;  4.9240073E+02;
  2.7990320E-01;  9.9999998E-03; -1.3865633E-12;1478; -5.0371241E-02;  0.0000000E+00;  1.7152775E-09;  1.0006860E+03;  4.0000001E-01;  5.6828009E+02;3; -1.9337687E+01;  0.0000000E+00;  1.3073275E-05;0; -2.8155628E-01;  1.0014506E+04;  0.0000000E+00; -1.4286017E-15;  1.0000000E+04;  0.0000000E+00;  9.9992188E+03; -3.0705816E-01;  0.0000000E+00;  2.5501877E-02;  4.0978696E+02;
  2.7990305E-01;  9.9999998E-03;  2.0000676E-02;1479; -5.0428715E-02;  0.0000000E+00;  4.9540139E-04;  1.0006865E+03;  4.0000001E-01;  5.6877393E+02;3; -1.9338488E+01;  0.0000000E+00;  2.5223181E-01;0; -2.8176695E-01;  1.0014528E+04;  0.0000000E+00;  2.9787088E-09;  1.0000000E+04;  0.0000000E+00;  9.9992080E+03; -3.0731362E-01;  0.0000000E+00;  2.5546666E-02;  4.1513220E+02;
  2.7990261E-01;  9.9999998E-03;  4.0001370E-02;1480; -5.0597124E-02;  0.0000000E+00;  9.9368964E-04;  1.0006882E+03;  4.0000001E-01;  5.7015656E+02;3; -1.9339378E+01;  0.0000000E+00;  5.0282776E-01;0; -2.8239778E-01;  1.0014596E+04;  0.0000000E+00;  6.3383303E-09;  1.0000000E+04;  0.0000000E+00;  9.9991768E+03; -3.0806926E-01;  0.0000000E+00;  2.5671488E-02;  4.3086121E+02;
  2.7990189E-01;  9.9999998E-03;  6.0002111E-02;1481; -5.0864242E-02;  0.0000000E+00;  1.4977489E-03;  1.0006914E+03;  4.0000001E-01;  5.7282318E+02;3; -1.9336311E+01;  0.0000000E+00;  7.4797809E-01;0; -2.8344285E-01;  1.0014709E+04;  0.0000000E+00;  4.4335291E-09;  1.0000000E+04;  0.0000000E+00;  9.9991260E+03; -3.0929339E-01;  0.0000000E+00;  2.5850521E-02;  4.5610950E+02;
  2.7990094E-01;  9.9999998E-03;  8.0002911E-02;1482; -5.1208064E-02;  0.0000000E+00;  2.0083962E-03;  1.0006953E+03;  4.0000001E-01;  5.7608234E+02;3; -1.9320625E+01;  0.0000000E+00;  9.8641402E-01;0; -2.8488535E-01;  1.0014861E+04;  0.0000000E+00; -2.4040916E-09;  1.0000000E+04;  0.0000000E+00;  9.9990586E+03; -3.1093651E-01;  0.0000000E+00;  2.6051158E-02;  4.8963937E+02;
  2.7989981E-01;  9.9999998E-03;  1.0000379E-01;1483; -5.1597163E-02;  0.0000000E+00;  2.5275876E-03;  1.0007010E+03;  4.0000001E-01;  5.8072418E+02;3; -1.9284082E+01;  0.0000000E+00;  1.2135139E+00;0; -2.8667650E-01;  1.0015045E+04;  0.0000000E+00; -2.0066736E-08;  1.0000000E+04;  0.0000000E+00;  9.9989795E+03; -3.1293505E-01;  0.0000000E+00;  2.6258562E-02;  5.3028760E+02;
  2.7989858E-01;  9.9999998E-03;  1.2000474E-01;1484; -5.1989086E-02;  0.0000000E+00;  3.0449263E-03;  1.0007070E+03;  4.0000001E-01;  5.8576111E+02;3; -1.9214571E+01;  0.0000000E+00;  1.4128399E+00;0; -2.8869382E-01;  1.0015262E+04;  0.0000000E+00; -4.3829221E-08;  1.0000000E+04;  0.0000000E+00;  9.9988838E+03; -3.1522498E-01;  0.0000000E+00;  2.6531147E-02;  5.7803485E+02;
  2.7989736E-01;  9.9999998E-03;  1.4000578E-01;1485; -5.2328542E-02;  0.0000000E+00;  3.5554185E-03;  1.0007133E+03;  4.0000001E-01;  5.9089673E+02;3; -1.9095465E+01;  0.0000000E+00;  1.6054988E+00;0; -2.9067802E-01;  1.0015501E+04;  0.0000000E+00; -4.4068766E-08;  1.0000000E+04;  0.0000000E+00;  9.9987705E+03; -3.1775886E-01;  0.0000000E+00;  2.7080821E-02;  6.3583435E+02;
  2.9988843E-01;  9.9999998E-03; -1.2890097E-12;1509; -5.6896787E-02;  0.0000000E+00; -8.1352414E-10;  1.0007736E+03;  4.0000001E-01;  6.4087054E+02;3; -2.1332867E+01;  0.0000000E+00;  5.0552153E-06;0; -3.0826819E-01;  1.0016452E+04;  0.0000000E+00; -1.6696834E-15;  1.0000000E+04;  0.0000000E+00;  9.9990264E+03; -3.4005544E-01;  0.0000000E+00;  3.1787258E-02;  5.0513742E+02;
  2.9988825E-01;  9.9999998E-03;  2.0000866E-02;1510; -5.6960192E-02;  0.0000000E+00;  6.3582498E-04;  1.0007742E+03;  4.0000001E-01;  6.4146307E+02;3; -2.1332159E+01;  0.0000000E+00;  3.1444219E-01;0; -3.0845848E-01;  1.0016479E+04;  0.0000000E+00;  3.9647223E-09;  1.0000000E+04;  0.0000000E+00;  9.9990107E+03; -3.4029502E-01;  0.0000000E+00;  3.1836532E-02;  5.1186111E+02;
  2.9988775E-01;  9.9999998E-03;  4.0001757E-02;1511; -5.7146117E-02;  0.0000000E+00;  1.2738726E-03;  1.0007759E+03;  4.0000001E-01;  6.4284576E+02;3; -2.1328239E+01;  0.0000000E+00;  6.2487942E-01;0; -3.0902731E-01;  1.0016553E+04;  0.0000000E+00;  1.0943048E-08;  1.0000000E+04;  0.0000000E+00;  9.9989717E+03; -3.4100562E-01;  0.0000000E+00;  3.1978298E-02;  5.3173376E+02;
  2.9988688E-01;  9.9999998E-03;  6.0002703E-02;1512; -5.7441287E-02;  0.0000000E+00;  1.9173214E-03;  1.0007790E+03;  4.0000001E-01;  6.4541357E+02;3; -2.1315578E+01;  0.0000000E+00;  9.3044913E-01;0; -3.0996644E-01;  1.0016680E+04;  0.0000000E+00;  1.2147075E-08;  1.0000000E+04;  0.0000000E+00;  9.9989102E+03; -3.4216288E-01;  0.0000000E+00;  3.2196447E-02;  5.6391766E+02;
  2.9988578E-01;  9.9999998E-03;  8.0003724E-02;1513; -5.7823457E-02;  0.0000000E+00;  2.5673979E-03;  1.0007834E+03;  4.0000001E-01;  6.4906781E+02;3; -2.1289351E+01;  0.0000000E+00;  1.2194802E+00;0; -3.1125218E-01;  1.0016854E+04;  0.0000000E+00; -4.8936695E-09;  1.0000000E+04;  0.0000000E+00;  9.9988223E+03; -3.4372634E-01;  0.0000000E+00;  3.2474164E-02;  6.0722791E+02;
  2.9988444E-01;  9.9999998E-03;  1.0000485E-01;1514; -5.8258202E-02;  0.0000000E+00;  3.2260439E-03;  1.0007888E+03;  4.0000001E-01;  6.5351215E+02;3; -2.1233665E+01;  0.0000000E+00;  1.4963895E+00;0; -3.1282589E-01;  1.0017063E+04;  0.0000000E+00; -4.1823363E-08;  1.0000000E+04;  0.0000000E+00;  9.9987158E+03; -3.4564251E-01;  0.0000000E+00;  3.2816611E-02;  6.6057739E+02;
  2.9988295E-01;  9.9999998E-03;  1.2000608E-01;1515; -5.8700807E-02;  0.0000000E+00;  3.8870980E-03;  1.0007945E+03;  4.0000001E-01;  6.5825275E+02;3; -2.1140715E+01;  0.0000000E+00;  1.7573414E+00;0; -3.1454995E-01;  1.0017310E+04;  0.0000000E+00; -1.0051319E-07;  1.0000000E+04;  0.0000000E+00;  9.9985889E+03; -3.4785017E-01;  0.0000000E+00;  3.3300221E-02;  7.2399860E+02;
  2.9988149E-01;  9.9999998E-03;  1.4000744E-01;1516; -5.9094407E-02;  0.0000000E+00;  4.5537460E-03;  1.0008004E+03;  4.0000001E-01;  6.6309210E+02;3; -2.0994455E+01;  0.0000000E+00;  2.0087495E+00;0; -3.1615844E-01;  1.0017582E+04;  0.0000000E+00; -1.2448743E-07;  1.0000000E+04;  0.0000000E+00;  9.9984336E+03; -3.5029671E-01;  0.0000000E+00;  3.4138270E-02;  8.0034766E+02;
  3.1987166E-01;  9.9999998E-03; -5.9988325E-12;1540; -6.4122170E-02;  0.0000000E+00; -1.7007857E-09;  1.0008715E+03;  4.0000001E-01;  7.2205341E+02;3; -2.3460760E+01;  0.0000000E+00;  8.0653172E-06;0; -3.3732507E-01;  1.0018631E+04;  0.0000000E+00; -3.7502662E-16;  1.0000000E+04;  0.0000000E+00;  9.9988096E+03; -3.7601662E-01;  0.0000000E+00;  3.8691550E-02;  6.1106830E+02;
  3.1987146E-01;  9.9999998E-03;  2.0001078E-02;1541; -6.4190716E-02;  0.0000000E+00;  7.9241180E-04;  1.0008722E+03;  4.0000001E-01;  7.2254718E+02;3; -2.3457273E+01;  0.0000000E+00;  3.8275325E-01;0; -3.3748573E-01;  1.0018662E+04;  0.0000000E+00;  5.3000053E-09;  1.0000000E+04;  0.0000000E+00;  9.9987930E+03; -3.7622917E-01;  0.0000000E+00;  3.8743448E-02;  6.1937885E+02;
  3.1987086E-01;  9.9999998E-03;  4.0002186E-02;1542; -6.4392194E-02;  0.0000000E+00;  1.5853602E-03;  1.0008738E+03;  4.0000001E-01;  7.2392987E+02;3; -2.3446249E+01;  0.0000000E+00;  7.5684607E-01;0; -3.3796507E-01;  1.0018745E+04;  0.0000000E+00;  1.7978438E-08;  1.0000000E+04;  0.0000000E+00;  9.9987432E+03; -3.7686142E-01;  0.0000000E+00;  3.8896345E-02;  6.4402026E+02;
  3.1986988E-01;  9.9999998E-03;  6.0003363E-02;1543; -6.4712889E-02;  0.0000000E+00;  2.3809061E-03;  1.0008769E+03;  4.0000001E-01;  7.2649768E+02;3; -2.3422949E+01;  0.0000000E+00;  1.1162070E+00;0; -3.3875418E-01;  1.0018885E+04;  0.0000000E+00;  2.5829859E-08;  1.0000000E+04;  0.0000000E+00;  9.9986650E+03; -3.7789741E-01;  0.0000000E+00;  3.9143227E-02;  6.8416852E+02;
  3.1986856E-01;  9.9999998E-03;  8.0004632E-02;1544; -6.5128878E-02;  0.0000000E+00;  3.1824955E-03;  1.0008813E+03;  4.0000001E-01;  7.3015192E+02;3; -2.3375641E+01;  0.0000000E+00;  1.4687418E+00;0; -3.3982870E-01;  1.0019076E+04;  0.0000000E+00;  4.8702473E-09;  1.0000000E+04;  0.0000000E+00;  9.9985566E+03; -3.7930891E-01;  0.0000000E+00;  3.9480217E-02;  7.3862750E+02;
  3.1986701E-01;  9.9999998E-03;  1.0000603E-01;1545; -6.5605424E-02;  0.0000000E+00;  3.9937068E-03;  1.0008864E+03;  4.0000001E-01;  7.3429993E+02;3; -2.3296799E+01;  0.0000000E+00;  1.8084607E+00;0; -3.4112623E-01;  1.0019316E+04;  0.0000000E+00; -5.5209473E-08;  1.0000000E+04;  0.0000000E+00;  9.9984199E+03; -3.8105166E-01;  0.0000000E+00;  3.9925419E-02;  8.0622412E+02;
  3.1986526E-01;  9.9999998E-03;  1.2000757E-01;1546; -6.6097610E-02;  0.0000000E+00;  4.8135421E-03;  1.0008922E+03;  4.0000001E-01;  7.3913928E+02;3; -2.3176092E+01;  0.0000000E+00;  2.1273596E+00;0; -3.4250933E-01;  1.0019596E+04;  0.0000000E+00; -1.3265368E-07;  1.0000000E+04;  0.0000000E+00;  9.9982617E+03; -3.8306707E-01;  0.0000000E+00;  4.0557735E-02;  8.8669604E+02;
  3.1986347E-01;  9.9999998E-03;  1.4000928E-01;1547; -6.6545092E-02;  0.0000000E+00;  5.6484998E-03;  1.0008980E+03;  4.0000001E-01;  7.4397870E+02;3; -2.2993502E+01;  0.0000000E+00;  2.4405606E+00;0; -3.4371728E-01;  1.0019903E+04;  0.0000000E+00; -1.7191967E-07;  1.0000000E+04;  0.0000000E+00;  9.9980664E+03; -3.8528574E-01;  0.0000000E+00;  4.1568454E-02;  9.8221143E+02;
  3.3985266E-01;  9.9999998E-03;  3.6250148E-13;1571; -7.2114803E-02;  0.0000000E+00; -2.7099398E-09;  1.0009810E+03;  4.0000001E-01;  8.1271741E+02;3; -2.5732119E+01;  0.0000000E+00; -1.4259836E-05;0; -3.6891690E-01;  1.0021052E+04;  0.0000000E+00; -3.0575557E-16;  1.0000000E+04;  0.0000000E+00;  9.9985762E+03; -4.1497177E-01;  0.0000000E+00;  4.6054862E-02;  7.2709570E+02;
  3.3985242E-01;  9.9999998E-03;  2.0001302E-02;1572; -7.2187439E-02;  0.0000000E+00;  9.5982529E-04;  1.0009815E+03;  4.0000001E-01;  8.1311243E+02;3; -2.5725212E+01;  0.0000000E+00;  4.5280862E-01;0; -3.6903813E-01;  1.0021083E+04;  0.0000000E+00;  9.1096988E-09;  1.0000000E+04;  0.0000000E+00;  9.9985566E+03; -4.1514575E-01;  0.0000000E+00;  4.6107616E-02;  7.3716119E+02;
  3.3985174E-01;  9.9999998E-03;  4.0002644E-02;1573; -7.2400950E-02;  0.0000000E+00;  1.9198259E-03;  1.0009832E+03;  4.0000001E-01;  8.1459387E+02;3; -2.5702160E+01;  0.0000000E+00;  8.9801383E-01;0; -3.6940107E-01;  1.0021180E+04;  0.0000000E+00;  3.2117885E-08;  1.0000000E+04;  0.0000000E+00;  9.9984932E+03; -4.1566640E-01;  0.0000000E+00;  4.6265326E-02;  7.6707086E+02;
  3.3985060E-01;  9.9999998E-03;  6.0004063E-02;1574; -7.2741635E-02;  0.0000000E+00;  2.8806212E-03;  1.0009863E+03;  4.0000001E-01;  8.1716168E+02;3; -2.5657768E+01;  0.0000000E+00;  1.3309221E+00;0; -3.7000018E-01;  1.0021337E+04;  0.0000000E+00;  4.8828600E-08;  1.0000000E+04;  0.0000000E+00;  9.9983965E+03; -4.1652757E-01;  0.0000000E+00;  4.6527382E-02;  8.1598718E+02;
  3.3984908E-01;  9.9999998E-03;  8.0005601E-02;1575; -7.3185220E-02;  0.0000000E+00;  3.8454491E-03;  1.0009907E+03;  4.0000001E-01;  8.2071716E+02;3; -2.5585804E+01;  0.0000000E+00;  1.7435784E+00;0; -3.7081581E-01;  1.0021556E+04;  0.0000000E+00;  2.9942882E-08;  1.0000000E+04;  0.0000000E+00;  9.9982656E+03; -4.1771257E-01;  0.0000000E+00;  4.6896756E-02;  8.8261774E+02;
  3.3984727E-01;  9.9999998E-03;  1.0000730E-01;1576; -7.3696956E-02;  0.0000000E+00;  4.8182728E-03;  1.0009955E+03;  4.0000001E-01;  8.2476642E+02;3; -2.5473808E+01;  0.0000000E+00;  2.1390619E+00;0; -3.7179753E-01;  1.0021825E+04;  0.0000000E+00; -3.8813422E-08;  1.0000000E+04;  0.0000000E+00;  9.9981006E+03; -4.1919139E-01;  0.0000000E+00;  4.7393851E-02;  9.6551337E+02;
  3.3984521E-01;  9.9999998E-03;  1.2000918E-01;1577; -7.4231923E-02;  0.0000000E+00;  5.8017047E-03;  1.0010016E+03;  4.0000001E-01;  8.2980334E+02;3; -2.5314512E+01;  0.0000000E+00;  2.5150871E+00;0; -3.7282059E-01;  1.0022140E+04;  0.0000000E+00; -1.4480933E-07;  1.0000000E+04;  0.0000000E+00;  9.9979033E+03; -4.2090672E-01;  0.0000000E+00;  4.8086125E-02;  1.0637911E+03;
  3.3984306E-01;  9.9999998E-03;  1.4001127E-01;1578; -7.4729510E-02;  0.0000000E+00;  6.8023056E-03;  1.0010071E+03;  4.0000001E-01;  8.3434637E+02;3; -2.5092968E+01;  0.0000000E+00;  2.8726945E+00;0; -3.7364388E-01;  1.0022484E+04;  0.0000000E+00; -2.0042981E-07;  1.0000000E+04;  0.0000000E+00;  9.9976709E+03; -4.2277235E-01;  0.0000000E+00;  4.9128458E-02;  1.1784893E+03;
  3.5983115E-01;  9.9999998E-03; -2.3650381E-12;1602; -8.0939129E-02;  0.0000000E+00;  5.7561322E-10;  1.0011021E+03;  4.0000001E-01;  9.1306012E+02;3; -2.8133640E+01;  0.0000000E+00; -6.7576511E-06;0; -4.0317386E-01;  1.0023737E+04;  0.0000000E+00;  1.2892436E-15;  1.0000000E+04;  0.0000000E+00;  9.9983213E+03; -4.5687309E-01;  0.0000000E+00;  5.3699225E-02;  8.5399194E+02;
  3.5983089E-01;  9.9999998E-03;  2.0001536E-02;1603; -8.1014745E-02;  0.0000000E+00;  1.1356059E-03;  1.0011028E+03;  4.0000001E-01;  9.1365271E+02;3; -2.8121506E+01;  0.0000000E+00;  5.3510046E-01;0; -4.0324682E-01;  1.0023772E+04;  0.0000000E+00;  1.3110506E-08;  1.0000000E+04;  0.0000000E+00;  9.9982969E+03; -4.5699900E-01;  0.0000000E+00;  5.3752180E-02;  8.6591071E+02;
  3.5983011E-01;  9.9999998E-03;  4.0003121E-02;1604; -8.1236884E-02;  0.0000000E+00;  2.2714634E-03;  1.0011047E+03;  4.0000001E-01;  9.1523291E+02;3; -2.8084707E+01;  0.0000000E+00;  1.0608972E+00;0; -4.0346798E-01;  1.0023880E+04;  0.0000000E+00;  4.6748010E-08;  1.0000000E+04;  0.0000000E+00;  9.9982275E+03; -4.5737982E-01;  0.0000000E+00;  5.3911828E-02;  9.0138086E+02;
  3.5982880E-01;  9.9999998E-03;  6.0004801E-02;1605; -8.1591025E-02;  0.0000000E+00;  3.4062159E-03;  1.0011077E+03;  4.0000001E-01;  9.1770197E+02;3; -2.8017393E+01;  0.0000000E+00;  1.5641298E+00;0; -4.0383813E-01;  1.0024058E+04;  0.0000000E+00;  7.5958283E-08;  1.0000000E+04;  0.0000000E+00;  9.9981094E+03; -4.5801800E-01;  0.0000000E+00;  5.4179873E-02;  9.5953125E+02;
  3.5982707E-01;  9.9999998E-03;  8.0006622E-02;1606; -8.2054377E-02;  0.0000000E+00;  4.5420849E-03;  1.0011119E+03;  4.0000001E-01;  9.2115863E+02;3; -2.7912575E+01;  0.0000000E+00;  2.0421870E+00;0; -4.0435430E-01;  1.0024300E+04;  0.0000000E+00;  6.6812902E-08;  1.0000000E+04;  0.0000000E+00;  9.9979521E+03; -4.5891333E-01;  0.0000000E+00;  5.4559026E-02;  1.0389064E+03;
  3.5982493E-01;  9.9999998E-03;  1.0000863E-01;1607; -8.2592845E-02;  0.0000000E+00;  5.6832419E-03;  1.0011171E+03;  4.0000001E-01;  9.2550421E+02;3; -2.7762323E+01;  0.0000000E+00;  2.4907322E+00;0; -4.0498739E-01;  1.0024604E+04;  0.0000000E+00; -2.8318803E-08;  1.0000000E+04;  0.0000000E+00;  9.9977520E+03; -4.6004862E-01;  0.0000000E+00;  5.5061221E-02;  1.1376277E+03;
  3.5982251E-01;  9.9999998E-03;  1.2001087E-01;1608; -8.3161153E-02;  0.0000000E+00;  6.8305489E-03;  1.0011232E+03;  4.0000001E-01;  9.3054108E+02;3; -2.7558451E+01;  0.0000000E+00;  2.8981304E+00;0; -4.0564299E-01;  1.0024957E+04;  0.0000000E+00; -1.5259634E-07;  1.0000000E+04;  0.0000000E+00;  9.9975225E+03; -4.6137428E-01;  0.0000000E+00;  5.5731311E-02;  1.2539698E+03;
  3.5981998E-01;  9.9999998E-03;  1.4001335E-01;1609; -8.3698787E-02;  0.0000000E+00;  7.9893125E-03;  1.0011293E+03;  4.0000001E-01;  9.3557800E+02;3; -2.7283104E+01;  0.0000000E+00;  3.2809854E+00;0; -4.0610999E-01;  1.0025346E+04;  0.0000000E+00; -2.1703276E-07;  1.0000000E+04;  0.0000000E+00;  9.9972510E+03; -4.6279287E-01;  0.0000000E+00;  5.6682881E-02;  1.3876458E+03;
  3.7980688E-01;  9.9999998E-03; -3.7703356E-12;1633; -9.0660453E-02;  0.0000000E+00; -8.3635143E-09;  1.0012357E+03;  4.0000001E-01;  1.0237728E+03;3; -3.0682659E+01;  0.0000000E+00; -1.5503092E-05;0; -4.4012988E-01;  1.0026691E+04;  0.0000000E+00;  1.3131658E-15;  1.0000000E+04;  0.0000000E+00;  9.9980381E+03; -5.0158393E-01;  0.0000000E+00;  6.1454073E-02;  9.9492194E+02;
  3.7980658E-01;  9.9999998E-03;  2.0001778E-02;1634; -9.0737127E-02;  0.0000000E+00;  1.3111302E-03;  1.0012365E+03;  4.0000001E-01;  1.0243654E+03;3; -3.0664581E+01;  0.0000000E+00;  6.1337292E-01;0; -4.4014707E-01;  1.0026732E+04;  0.0000000E+00;  1.4474350E-08;  1.0000000E+04;  0.0000000E+00;  9.9980098E+03; -5.0165600E-01;  0.0000000E+00;  6.1508935E-02;  1.0086863E+03;
  3.7980565E-01;  9.9999998E-03;  4.0003613E-02;1635; -9.0962715E-02;  0.0000000E+00;  2.6212181E-03;  1.0012385E+03;  4.0000001E-01;  1.0260443E+03;3; -3.0608824E+01;  0.0000000E+00;  1.2137525E+00;0; -4.4020233E-01;  1.0026855E+04;  0.0000000E+00;  5.0586710E-08;  1.0000000E+04;  0.0000000E+00;  9.9979297E+03; -5.0187653E-01;  0.0000000E+00;  6.1674207E-02;  1.0496960E+03;
  3.7980419E-01;  9.9999998E-03;  6.0005561E-02;1636; -9.1324165E-02;  0.0000000E+00;  3.9303526E-03;  1.0012416E+03;  4.0000001E-01;  1.0287108E+03;3; -3.0510000E+01;  0.0000000E+00;  1.7883495E+00;0; -4.4030982E-01;  1.0027057E+04;  0.0000000E+00;  8.3962810E-08;  1.0000000E+04;  0.0000000E+00;  9.9977930E+03; -5.0226003E-01;  0.0000000E+00;  6.1950210E-02;  1.1170452E+03;
  3.7980217E-01;  9.9999998E-03;  8.0007672E-02;1637; -9.1797791E-02;  0.0000000E+00;  5.2405810E-03;  1.0012462E+03;  4.0000001E-01;  1.0324639E+03;3; -3.0364929E+01;  0.0000000E+00;  2.3271680E+00;0; -4.4048807E-01;  1.0027327E+04;  0.0000000E+00;  7.2106317E-08;  1.0000000E+04;  0.0000000E+00;  9.9976133E+03; -5.0282061E-01;  0.0000000E+00;  6.2332548E-02;  1.2090852E+03;
  3.7979972E-01;  9.9999998E-03;  1.0001001E-01;1638; -9.2350967E-02;  0.0000000E+00;  6.5520587E-03;  1.0012518E+03;  4.0000001E-01;  1.0371057E+03;3; -3.0162468E+01;  0.0000000E+00;  2.8178973E+00;0; -4.4074279E-01;  1.0027669E+04;  0.0000000E+00; -3.7489787E-08;  1.0000000E+04;  0.0000000E+00;  9.9973838E+03; -5.0355828E-01;  0.0000000E+00;  6.2815495E-02;  1.3234286E+03;
  3.7979692E-01;  9.9999998E-03;  1.2001262E-01;1639; -9.2939459E-02;  0.0000000E+00;  7.8629339E-03;  1.0012584E+03;  4.0000001E-01;  1.0425376E+03;3; -2.9898203E+01;  0.0000000E+00;  3.2559762E+00;0; -4.4102228E-01;  1.0028071E+04;  0.0000000E+00; -1.8823950E-07;  1.0000000E+04;  0.0000000E+00;  9.9971172E+03; -5.0443518E-01;  0.0000000E+00;  6.3412920E-02;  1.4574285E+03;
  3.7979394E-01;  9.9999998E-03;  1.4001553E-01;1640; -9.3503065E-02;  0.0000000E+00;  9.1794524E-03;  1.0012651E+03;  4.0000001E-01;  1.0481671E+03;3; -2.9557512E+01;  0.0000000E+00;  3.6574814E+00;0; -4.4115359E-01;  1.0028511E+04;  0.0000000E+00; -2.4420387E-07;  1.0000000E+04;  0.0000000E+00;  9.9968125E+03; -5.0535101E-01;  0.0000000E+00;  6.4197406E-02;  1.6095638E+03;
  3.9977956E-01;  9.9999998E-03; -2.5677520E-12;1664; -1.0133746E-01;  0.0000000E+00; -4.8876303E-09;  1.0013819E+03;  4.0000001E-01;  1.1448553E+03;3; -3.3380383E+01;  0.0000000E+00; -2.2215037E-05;0; -4.7968125E-01;  1.0029940E+04;  0.0000000E+00;  4.5959320E-16;  1.0000000E+04;  0.0000000E+00;  9.9977168E+03; -5.4887277E-01;  0.0000000E+00;  6.9191530E-02;  1.1568019E+03;
  3.9977920E-01;  9.9999998E-03;  2.0002032E-02;1665; -1.0141390E-01;  0.0000000E+00;  1.4803737E-03;  1.0013826E+03;  4.0000001E-01;  1.1454480E+03;3; -3.3353706E+01;  0.0000000E+00;  6.8952322E-01;0; -4.7963530E-01;  1.0029984E+04;  0.0000000E+00;  9.0644452E-09;  1.0000000E+04;  0.0000000E+00;  9.9976865E+03; -5.4888815E-01;  0.0000000E+00;  6.9252864E-02;  1.1722612E+03;
  3.9977819E-01;  9.9999998E-03;  4.0004127E-02;1666; -1.0163837E-01;  0.0000000E+00;  2.9598773E-03;  1.0013846E+03;  4.0000001E-01;  1.1471270E+03;3; -3.3273129E+01;  0.0000000E+00;  1.3599006E+00;0; -4.7950613E-01;  1.0030122E+04;  0.0000000E+00;  2.8397572E-08;  1.0000000E+04;  0.0000000E+00;  9.9975957E+03; -5.4894263E-01;  0.0000000E+00;  6.9436476E-02;  1.2183633E+03;
  3.9977649E-01;  9.9999998E-03;  6.0006350E-02;1667; -1.0199787E-01;  0.0000000E+00;  4.4374401E-03;  1.0013884E+03;  4.0000001E-01;  1.1501886E+03;3; -3.3135315E+01;  0.0000000E+00;  1.9968953E+00;0; -4.7932258E-01;  1.0030344E+04;  0.0000000E+00;  3.7734104E-08;  1.0000000E+04;  0.0000000E+00;  9.9974443E+03; -5.4905981E-01;  0.0000000E+00;  6.9737226E-02;  1.2941677E+03;
  3.9977419E-01;  9.9999998E-03;  8.0008768E-02;1668; -1.0247007E-01;  0.0000000E+00;  5.9137545E-03;  1.0013936E+03;  4.0000001E-01;  1.1545341E+03;3; -3.2935791E+01;  0.0000000E+00;  2.5851483E+00;0; -4.7913241E-01;  1.0030655E+04;  0.0000000E+00; -7.9449833E-09;  1.0000000E+04;  0.0000000E+00;  9.9972363E+03; -5.4926956E-01;  0.0000000E+00;  7.0137136E-02;  1.3978132E+03;
  3.9977139E-01;  9.9999998E-03;  1.0001145E-01;1669; -1.0302390E-01;  0.0000000E+00;  7.3910211E-03;  1.0014000E+03;  4.0000001E-01;  1.1598673E+03;3; -3.2668911E+01;  0.0000000E+00;  3.1188641E+00;0; -4.7898507E-01;  1.0031042E+04;  0.0000000E+00; -1.5366653E-07;  1.0000000E+04;  0.0000000E+00;  9.9969814E+03; -5.4958928E-01;  0.0000000E+00;  7.0604213E-02;  1.5263789E+03;
  3.9976814E-01;  9.9999998E-03;  1.2001445E-01;1670; -1.0361670E-01;  0.0000000E+00;  8.8675823E-03;  1.0014078E+03;  4.0000001E-01;  1.1663856E+03;3; -3.2328445E+01;  0.0000000E+00;  3.5761900E+00;0; -4.7888196E-01;  1.0031497E+04;  0.0000000E+00; -3.1616673E-07;  1.0000000E+04;  0.0000000E+00;  9.9966826E+03; -5.4999626E-01;  0.0000000E+00;  7.1114287E-02;  1.6763726E+03;
  3.9976466E-01;  9.9999998E-03;  1.4001781E-01;1671; -1.0418936E-01;  0.0000000E+00;  1.0340269E-02;  1.0014158E+03;  4.0000001E-01;  1.1730027E+03;3; -3.1907082E+01;  0.0000000E+00;  3.9835091E+00;0; -4.7869599E-01;  1.0031998E+04;  0.0000000E+00; -3.2828027E-07;  1.0000000E+04;  0.0000000E+00;  9.9963457E+03; -5.5039698E-01;  0.0000000E+00;  7.1700975E-02;  1.8454204E+03;
  4.1974896E-01;  9.9999998E-03; -4.1243723E-12;1695; -1.1301791E-01;  0.0000000E+00;  1.7337284E-10;  1.0015395E+03;  4.0000001E-01;  1.2754191E+03;3; -3.6224045E+01;  0.0000000E+00;  3.6112870E-06;0; -5.2153516E-01;  1.0033485E+04;  0.0000000E+00; -4.2432907E-15;  1.0000000E+04;  0.0000000E+00;  9.9973320E+03; -5.9840256E-01;  0.0000000E+00;  7.6867409E-02;  1.3516884E+03;
  4.1974854E-01;  9.9999998E-03;  2.0002315E-02;1696; -1.1309199E-01;  0.0000000E+00;  1.6409652E-03;  1.0015403E+03;  4.0000001E-01;  1.2761105E+03;3; -3.6187126E+01;  0.0000000E+00;  7.5600785E-01;0; -5.2142102E-01;  1.0033538E+04;  0.0000000E+00; -9.4901997E-09;  1.0000000E+04;  0.0000000E+00;  9.9972979E+03; -5.9836435E-01;  0.0000000E+00;  7.6943338E-02;  1.3685233E+03;
  4.1974738E-01;  9.9999998E-03;  4.0004700E-02;1697; -1.1331012E-01;  0.0000000E+00;  3.2796343E-03;  1.0015430E+03;  4.0000001E-01;  1.2783820E+03;3; -3.6074852E+01;  0.0000000E+00;  1.4894025E+00;0; -5.2109373E-01;  1.0033688E+04;  0.0000000E+00; -2.9611382E-08;  1.0000000E+04;  0.0000000E+00;  9.9971953E+03; -5.9826183E-01;  0.0000000E+00;  7.7168077E-02;  1.4187493E+03;
  4.1974548E-01;  9.9999998E-03;  6.0007226E-02;1698; -1.1365855E-01;  0.0000000E+00;  4.9154949E-03;  1.0015474E+03;  4.0000001E-01;  1.2820361E+03;3; -3.5887512E+01;  0.0000000E+00;  2.1779683E+00;0; -5.2060074E-01;  1.0033944E+04;  0.0000000E+00; -7.6497756E-08;  1.0000000E+04;  0.0000000E+00;  9.9970322E+03; -5.9812617E-01;  0.0000000E+00;  7.7525437E-02;  1.5013544E+03;
  4.1974285E-01;  9.9999998E-03;  8.0009967E-02;1699; -1.1411704E-01;  0.0000000E+00;  6.5493444E-03;  1.0015536E+03;  4.0000001E-01;  1.2871719E+03;3; -3.5621105E+01;  0.0000000E+00;  2.8065748E+00;0; -5.2002645E-01;  1.0034292E+04;  0.0000000E+00; -2.0355581E-07;  1.0000000E+04;  0.0000000E+00;  9.9968086E+03; -5.9800100E-01;  0.0000000E+00;  7.7974565E-02;  1.6141869E+03;
  4.1973963E-01;  9.9999998E-03;  1.0001301E-01;1700; -1.1465624E-01;  0.0000000E+00;  8.1834905E-03;  1.0015616E+03;  4.0000001E-01;  1.2937889E+03;3; -3.5273140E+01;  0.0000000E+00;  3.3629451E+00;0; -5.1947159E-01;  1.0034732E+04;  0.0000000E+00; -4.3009558E-07;  1.0000000E+04;  0.0000000E+00;  9.9965322E+03; -5.9791833E-01;  0.0000000E+00;  7.8446738E-02;  1.7537531E+03;
  4.1973591E-01;  9.9999998E-03;  1.2001642E-01;1701; -1.1523741E-01;  0.0000000E+00;  9.8190932E-03;  1.0015711E+03;  4.0000001E-01;  1.3015912E+03;3; -3.4844330E+01;  0.0000000E+00;  3.8409424E+00;0; -5.1900113E-01;  1.0035246E+04;  0.0000000E+00; -5.6918321E-07;  1.0000000E+04;  0.0000000E+00;  9.9962109E+03; -5.9787333E-01;  0.0000000E+00;  7.8872219E-02;  1.9158859E+03;
  4.1973186E-01;  9.9999998E-03;  1.4002024E-01;1702; -1.1580268E-01;  0.0000000E+00;  1.1451072E-02;  1.0015816E+03;  4.0000001E-01;  1.3102822E+03;3; -3.4322884E+01;  0.0000000E+00;  4.2407498E+00;0; -5.1853734E-01;  1.0035817E+04;  0.0000000E+00; -4.0343514E-07;  1.0000000E+04;  0.0000000E+00;  9.9958467E+03; -5.9778500E-01;  0.0000000E+00;  7.9247661E-02;  2.0979978E+03;
  4.3971479E-01;  9.9999998E-03;  2.9922694E-12;1726; -1.2573998E-01;  0.0000000E+00;  4.0936223E-09;  1.0017074E+03;  4.0000001E-01;  1.4145750E+03;3; -3.9207676E+01;  0.0000000E+00; -1.0148879E-05;0; -5.6510204E-01;  1.0037340E+04;  0.0000000E+00;  2.8470111E-16;  1.0000000E+04;  0.0000000E+00;  9.9968457E+03; -6.4966190E-01;  0.0000000E+00;  8.4559843E-02;  1.5978730E+03;
  4.3971434E-01;  9.9999998E-03;  2.0002661E-02;1727; -1.2581009E-01;  0.0000000E+00;  1.7906775E-03;  1.0017084E+03;  4.0000001E-01;  1.4153650E+03;3; -3.9157646E+01;  0.0000000E+00;  8.0927932E-01;0; -5.6491685E-01;  1.0037395E+04;  0.0000000E+00; -2.7473664E-08;  1.0000000E+04;  0.0000000E+00;  9.9968115E+03; -6.4957935E-01;  0.0000000E+00;  8.4662475E-02;  1.6155907E+03;
  4.3971300E-01;  9.9999998E-03;  4.0005393E-02;1728; -1.2601608E-01;  0.0000000E+00;  3.5780203E-03;  1.0017119E+03;  4.0000001E-01;  1.4183279E+03;3; -3.9007210E+01;  0.0000000E+00;  1.5906768E+00;0; -5.6438333E-01;  1.0037569E+04;  0.0000000E+00; -1.0684774E-07;  1.0000000E+04;  0.0000000E+00;  9.9967061E+03; -6.4934421E-01;  0.0000000E+00;  8.4960893E-02;  1.6684225E+03;
  4.3971083E-01;  9.9999998E-03;  6.0008280E-02;1729; -1.2634446E-01;  0.0000000E+00;  5.3613246E-03;  1.0017175E+03;  4.0000001E-01;  1.4229697E+03;3; -3.8758739E+01;  0.0000000E+00;  2.3165119E+00;0; -5.6357390E-01;  1.0037851E+04;  0.0000000E+00; -2.4250926E-07;  1.0000000E+04;  0.0000000E+00;  9.9965371E+03; -6.4899302E-01;  0.0000000E+00;  8.5419096E-02;  1.7551473E+03;
  4.3970788E-01;  9.9999998E-03;  8.0011398E-02;1730; -1.2677705E-01;  0.0000000E+00;  7.1418220E-03;  1.0017253E+03;  4.0000001E-01;  1.4293893E+03;3; -3.8410782E+01;  0.0000000E+00;  2.9693389E+00;0; -5.6261736E-01;  1.0038243E+04;  0.0000000E+00; -4.7454208E-07;  1.0000000E+04;  0.0000000E+00;  9.9963008E+03; -6.4857548E-01;  0.0000000E+00;  8.5958101E-02;  1.8731151E+03;
  4.3970418E-01;  9.9999998E-03;  1.0001484E-01;1731; -1.2728775E-01;  0.0000000E+00;  8.9247841E-03;  1.0017354E+03;  4.0000001E-01;  1.4376853E+03;3; -3.7966042E+01;  0.0000000E+00;  3.5363069E+00;0; -5.6168091E-01;  1.0038736E+04;  0.0000000E+00; -7.7120126E-07;  1.0000000E+04;  0.0000000E+00;  9.9960098E+03; -6.4813608E-01;  0.0000000E+00;  8.6455159E-02;  2.0180840E+03;
  4.3969989E-01;  9.9999998E-03;  1.2001868E-01;1732; -1.2784208E-01;  0.0000000E+00;  1.0712340E-02;  1.0017479E+03;  4.0000001E-01;  1.4481542E+03;3; -3.7429173E+01;  0.0000000E+00;  4.0134010E+00;0; -5.6090075E-01;  1.0039320E+04;  0.0000000E+00; -8.6201567E-07;  1.0000000E+04;  0.0000000E+00;  9.9956797E+03; -6.4768368E-01;  0.0000000E+00;  8.6782932E-02;  2.1853379E+03;
  4.3969518E-01;  9.9999998E-03;  1.4002298E-01;1733; -1.2838665E-01;  0.0000000E+00;  1.2505137E-02;  1.0017616E+03;  4.0000001E-01;  1.4594131E+03;3; -3.6796932E+01;  0.0000000E+00;  4.4138918E+00;0; -5.6025231E-01;  1.0039970E+04;  0.0000000E+00; -3.1694918E-07;  1.0000000E+04;  0.0000000E+00;  9.9953076E+03; -6.4715672E-01;  0.0000000E+00;  8.6904377E-02;  2.3728843E+03;
  4.5967674E-01;  9.9999998E-03;  9.4577462E-12;1757; -1.3953745E-01;  0.0000000E+00; -4.6145061E-09;  1.0018837E+03;  4.0000081E-01;  1.5605449E+03;3; -4.2319588E+01;  0.0000000E+00; -2.1492489E-05;0; -6.0923326E-01;  1.0041471E+04;  0.0000000E+00;  3.0093880E-15;  1.0000000E+04;  0.0000000E+00;  9.9962090E+03; -7.0172846E-01;  0.0000000E+00;  9.2495225E-02;  1.9201873E+03;
  4.5967624E-01;  9.9999998E-03;  2.0003125E-02;1758; -1.3960172E-01;  0.0000000E+00;  1.9317586E-03;  1.0018851E+03;  4.0000072E-01;  1.5617301E+03;3; -4.2254101E+01;  0.0000000E+00;  8.4284192E-01;0; -6.0897404E-01;  1.0041536E+04;  0.0000000E+00; -4.0339380E-08;  1.0000000E+04;  0.0000000E+00;  9.9961748E+03; -7.0161420E-01;  0.0000000E+00;  9.2640184E-02;  1.9381542E+03;
  4.5967472E-01;  9.9999998E-03;  4.0006321E-02;1759; -1.3979033E-01;  0.0000000E+00;  3.8595719E-03;  1.0018891E+03;  4.0000072E-01;  1.5650880E+03;3; -4.2058105E+01;  0.0000000E+00;  1.6516509E+00;0; -6.0822994E-01;  1.0041727E+04;  0.0000000E+00; -1.5292783E-07;  1.0000000E+04;  0.0000000E+00;  9.9960703E+03; -7.0128435E-01;  0.0000000E+00;  9.3054414E-02;  1.9916007E+03;
  4.5967224E-01;  9.9999998E-03;  6.0009666E-02;1760; -1.4009111E-01;  0.0000000E+00;  5.7818475E-03;  1.0018964E+03;  4.0000072E-01;  1.5711125E+03;3; -4.1735508E+01;  0.0000000E+00;  2.3972800E+00;0; -6.0710448E-01;  1.0042041E+04;  0.0000000E+00; -3.4618199E-07;  1.0000000E+04;  0.0000000E+00;  9.9958945E+03; -7.0077091E-01;  0.0000000E+00;  9.3666457E-02;  2.0788250E+03;
  4.5966887E-01;  9.9999998E-03;  8.0013253E-02;1761; -1.4048727E-01;  0.0000000E+00;  7.7029956E-03;  1.0019064E+03;  4.0000075E-01;  1.5794086E+03;3; -4.1291241E+01;  0.0000000E+00;  3.0548658E+00;0; -6.0578626E-01;  1.0042477E+04;  0.0000000E+00; -6.3514733E-07;  1.0000000E+04;  0.0000000E+00;  9.9956650E+03; -7.0012200E-01;  0.0000000E+00;  9.4335720E-02;  2.1962581E+03;
  4.5966464E-01;  9.9999998E-03;  1.0001717E-01;1762; -1.4095779E-01;  0.0000000E+00;  9.6306875E-03;  1.0019198E+03;  4.0000078E-01;  1.5904700E+03;3; -4.0733418E+01;  0.0000000E+00;  3.6170728E+00;0; -6.0452461E-01;  1.0043028E+04;  0.0000000E+00; -9.0630618E-07;  1.0000000E+04;  0.0000000E+00;  9.9953799E+03; -6.9938231E-01;  0.0000000E+00;  9.4857693E-02;  2.3384766E+03;
  4.5965973E-01;  9.9999998E-03;  1.2002151E-01;1763; -1.4147386E-01;  0.0000000E+00;  1.1569257E-02;  1.0019362E+03;  4.0000084E-01;  1.6040991E+03;3; -4.0071774E+01;  0.0000000E+00;  4.0786185E+00;0; -6.0354412E-01;  1.0043679E+04;  0.0000000E+00; -6.9334158E-07;  1.0000000E+04;  0.0000000E+00;  9.9950596E+03; -6.9857103E-01;  0.0000000E+00;  9.5026933E-02;  2.5001025E+03;
  4.5965427E-01;  9.9999998E-03;  1.4002632E-01;1764; -1.4198720E-01;  0.0000000E+00;  1.3522256E-02;  1.0019548E+03;  4.0000084E-01;  1.6195061E+03;3; -3.9314312E+01;  0.0000000E+00;  4.4660568E+00;0; -6.0287803E-01;  1.0044412E+04;  0.0000000E+00;  6.4129125E-07;  1.0000000E+04;  0.0000000E+00;  9.9947061E+03; -6.9765329E-01;  0.0000000E+00;  9.4775245E-02;  2.6805549E+03;
  4.7963437E-01;  9.9999998E-03; -1.2585952E-12;1788; -1.5444158E-01;  0.0000000E+00; -1.3520457E-09;  1.0020604E+03;  4.0000236E-01;  1.7070083E+03;3; -4.5543579E+01;  0.0000000E+00; -1.1108414E-06;0; -6.5173483E-01;  1.0045790E+04;  0.0000000E+00; -2.8737464E-16;  1.0000000E+04;  0.0000000E+00;  9.9953594E+03; -7.5278223E-01;  0.0000000E+00;  1.0104741E-01;  2.3491272E+03;
  4.7963381E-01;  9.9999998E-03;  2.0003779E-02;1789; -1.5449859E-01;  0.0000000E+00;  2.0708479E-03;  1.0020620E+03;  4.0000224E-01;  1.7082922E+03;3; -4.5460136E+01;  0.0000000E+00;  8.4903449E-01;0; -6.5139884E-01;  1.0045860E+04;  0.0000000E+00; -3.7176004E-08;  1.0000000E+04;  0.0000000E+00;  9.9953271E+03; -7.5265276E-01;  0.0000000E+00;  1.0125393E-01;  2.3666350E+03;
  4.7963208E-01;  9.9999998E-03;  4.0007621E-02;1790; -1.5466635E-01;  0.0000000E+00;  4.1368208E-03;  1.0020673E+03;  4.0000230E-01;  1.7126377E+03;3; -4.5209763E+01;  0.0000000E+00;  1.6615136E+00;0; -6.5043628E-01;  1.0046072E+04;  0.0000000E+00; -1.4112952E-07;  1.0000000E+04;  0.0000000E+00;  9.9952227E+03; -7.5227070E-01;  0.0000000E+00;  1.0183442E-01;  2.4184241E+03;
  4.7962928E-01;  9.9999998E-03;  6.0011607E-02;1791; -1.5493356E-01;  0.0000000E+00;  6.1993599E-03;  1.0020763E+03;  4.0000242E-01;  1.7201437E+03;3; -4.4800575E+01;  0.0000000E+00;  2.3993347E+00;0; -6.4899451E-01;  1.0046418E+04;  0.0000000E+00; -2.8333980E-07;  1.0000000E+04;  0.0000000E+00;  9.9950547E+03; -7.5165457E-01;  0.0000000E+00;  1.0266007E-01;  2.5018962E+03;
  4.7962546E-01;  9.9999998E-03;  8.0015816E-02;1792; -1.5528615E-01;  0.0000000E+00;  8.2645062E-03;  1.0020892E+03;  4.0000218E-01;  1.7309088E+03;3; -4.4244698E+01;  0.0000000E+00;  3.0415187E+00;0; -6.4733851E-01;  1.0046896E+04;  0.0000000E+00; -4.4413716E-07;  1.0000000E+04;  0.0000000E+00;  9.9948359E+03; -7.5083303E-01;  0.0000000E+00;  1.0349452E-01;  2.6118884E+03;
  4.7962064E-01;  9.9999998E-03;  1.0002036E-01;1793; -1.5570894E-01;  0.0000000E+00;  1.0343606E-02;  1.0021064E+03;  4.0000242E-01;  1.7451306E+03;3; -4.3557194E+01;  0.0000000E+00;  3.5782769E+00;0; -6.4582682E-01;  1.0047498E+04;  0.0000000E+00; -2.9573897E-07;  1.0000000E+04;  0.0000000E+00;  9.9945820E+03; -7.4983859E-01;  0.0000000E+00;  1.0401177E-01;  2.7410137E+03;
  4.7961497E-01;  9.9999998E-03;  1.2002531E-01;1794; -1.5617928E-01;  0.0000000E+00;  1.2443652E-02;  1.0021283E+03;  4.0000233E-01;  1.7632041E+03;3; -4.2755947E+01;  0.0000000E+00;  4.0107498E+00;0; -6.4479899E-01;  1.0048212E+04;  0.0000000E+00;  1.0129143E-06;  1.0000000E+04;  0.0000000E+00;  9.9943057E+03; -7.4869543E-01;  0.0000000E+00;  1.0389645E-01;  2.8827522E+03;
  4.7960865E-01;  9.9999998E-03;  1.4003073E-01;1795; -1.5665454E-01;  0.0000000E+00;  1.4562251E-02;  1.0021538E+03;  4.0000236E-01;  1.7843392E+03;3; -4.1856541E+01;  0.0000000E+00;  4.3651242E+00;0; -6.4435852E-01;  1.0049024E+04;  0.0000000E+00;  4.3563373E-06;  1.0000000E+04;  0.0000000E+00;  9.9940010E+03; -7.4740809E-01;  0.0000000E+00;  1.0304960E-01;  3.0386184E+03;
  4.9958724E-01;  9.9999998E-03; -5.6951856E-12;1819; -1.7047855E-01;  0.0000000E+00; -6.6276664E-09;  1.0022249E+03;  4.0000546E-01;  1.8432000E+03;3; -4.8858425E+01;  0.0000000E+00; -1.7999701E-06;0; -6.8875873E-01;  1.0050073E+04;  0.0000000E+00; -2.0902454E-15;  1.0000000E+04;  0.0000000E+00;  9.9942227E+03; -7.9946512E-01;  0.0000000E+00;  1.1070637E-01;  2.9185776E+03;
  4.9958658E-01;  9.9999998E-03;  2.0004708E-02;1820; -1.7052853E-01;  0.0000000E+00;  2.2171133E-03;  1.0022272E+03;  4.0000540E-01;  1.8451752E+03;3; -4.8752186E+01;  0.0000000E+00;  8.2263070E-01;0; -6.8833876E-01;  1.0050142E+04;  0.0000000E+00; -1.0949088E-08;  1.0000000E+04;  0.0000000E+00;  9.9941904E+03; -7.9933476E-01;  0.0000000E+00;  1.1099600E-01;  2.9349026E+03;
  4.9958465E-01;  9.9999998E-03;  4.0009473E-02;1821; -1.7067377E-01;  0.0000000E+00;  4.4326205E-03;  1.0022332E+03;  4.0000540E-01;  1.8502120E+03;3; -4.8439598E+01;  0.0000000E+00;  1.6023631E+00;0; -6.8714255E-01;  1.0050371E+04;  0.0000000E+00; -2.3588733E-08;  1.0000000E+04;  0.0000000E+00;  9.9940977E+03; -7.9894054E-01;  0.0000000E+00;  1.1179801E-01;  2.9826958E+03;
  4.9958149E-01;  9.9999998E-03;  6.0014356E-02;1822; -1.7090556E-01;  0.0000000E+00;  6.6480297E-03;  1.0022446E+03;  4.0000525E-01;  1.8595945E+03;3; -4.7933533E+01;  0.0000000E+00;  2.3000767E+00;0; -6.8537313E-01;  1.0050743E+04;  0.0000000E+00;  2.6404976E-08;  1.0000000E+04;  0.0000000E+00;  9.9939453E+03; -7.9827207E-01;  0.0000000E+00;  1.1289892E-01;  3.0579275E+03;
  4.9957713E-01;  9.9999998E-03;  8.0019452E-02;1823; -1.7121288E-01;  0.0000000E+00;  8.8754613E-03;  1.0022604E+03;  4.0000531E-01;  1.8726311E+03;3; -4.7250648E+01;  0.0000000E+00;  2.9015872E+00;0; -6.8339670E-01;  1.0051257E+04;  0.0000000E+00;  4.6258512E-07;  1.0000000E+04;  0.0000000E+00;  9.9937549E+03; -7.9732150E-01;  0.0000000E+00;  1.1392481E-01;  3.1529648E+03;
  4.9957165E-01;  9.9999998E-03;  1.0002487E-01;1824; -1.7158493E-01;  0.0000000E+00;  1.1132721E-02;  1.0022824E+03;  4.0000528E-01;  1.8909021E+03;3; -4.6418983E+01;  0.0000000E+00;  3.3959632E+00;0; -6.8171299E-01;  1.0051902E+04;  0.0000000E+00;  2.1198755E-06;  1.0000000E+04;  0.0000000E+00;  9.9935537E+03; -7.9609114E-01;  0.0000000E+00;  1.1437815E-01;  3.2573818E+03;
  4.9956518E-01;  9.9999998E-03;  1.2003067E-01;1825; -1.7200620E-01;  0.0000000E+00;  1.3423375E-02;  1.0023107E+03;  4.0000525E-01;  1.9144075E+03;3; -4.5464439E+01;  0.0000000E+00;  3.7871180E+00;0; -6.8081129E-01;  1.0052668E+04;  0.0000000E+00;  6.6144239E-06;  1.0000000E+04;  0.0000000E+00;  9.9933486E+03; -7.9460609E-01;  0.0000000E+00;  1.1379477E-01;  3.3627402E+03;
  4.9955788E-01;  9.9999998E-03;  1.4003685E-01;1826; -1.7243946E-01;  0.0000000E+00;  1.5728785E-02;  1.0023437E+03;  4.0000531E-01;  1.9416659E+03;3; -4.4411995E+01;  0.0000000E+00;  4.0963883E+00;0; -6.8087995E-01;  1.0053546E+04;  0.0000000E+00;  1.4900704E-05;  1.0000000E+04;  0.0000000E+00;  9.9931387E+03; -7.9292506E-01;  0.0000000E+00;  1.1204514E-01;  3.4732581E+03;
  5.1953489E-01;  9.9999998E-03; -6.7676511E-12;1850; -1.8765272E-01;  0.0000000E+00; -1.8110395E-08;  1.0023654E+03;  4.0001476E-01;  1.9597366E+03;3; -5.2234440E+01;  0.0000000E+00; -2.7688591E-05;0; -7.1441084E-01;  1.0053901E+04;  0.0000000E+00; -5.5746821E-15;  1.0000000E+04;  0.0000000E+00;  9.9927285E+03; -8.3642006E-01;  0.0000000E+00;  1.2200920E-01;  3.6620188E+03;
  5.1953417E-01;  9.9999998E-03;  2.0006012E-02;1851; -1.8769594E-01;  0.0000000E+00;  2.3846969E-03;  1.0023682E+03;  4.0001476E-01;  1.9620081E+03;3; -5.2105305E+01;  0.0000000E+00;  7.4583256E-01;0; -7.1389771E-01;  1.0053980E+04;  0.0000000E+00;  3.6320753E-08;  1.0000000E+04;  0.0000000E+00;  9.9927012E+03; -8.3629948E-01;  0.0000000E+00;  1.2240175E-01;  3.6764546E+03;
  5.1953202E-01;  9.9999998E-03;  4.0012065E-02;1852; -1.8782173E-01;  0.0000000E+00;  4.7693523E-03;  1.0023755E+03;  4.0001479E-01;  1.9680326E+03;3; -5.1722385E+01;  0.0000000E+00;  1.4508924E+00;0; -7.1244502E-01;  1.0054220E+04;  0.0000000E+00;  2.1839831E-07;  1.0000000E+04;  0.0000000E+00;  9.9926172E+03; -8.3591974E-01;  0.0000000E+00;  1.2347471E-01;  3.7179702E+03;
  5.1952839E-01;  9.9999998E-03;  6.0018223E-02;1853; -1.8802103E-01;  0.0000000E+00;  7.1687074E-03;  1.0023887E+03;  4.0001485E-01;  1.9789954E+03;3; -5.1106224E+01;  0.0000000E+00;  2.0801435E+00;0; -7.1032619E-01;  1.0054610E+04;  0.0000000E+00;  8.5755880E-07;  1.0000000E+04;  0.0000000E+00;  9.9924932E+03; -8.3522838E-01;  0.0000000E+00;  1.2490216E-01;  3.7805735E+03;
  5.1952350E-01;  9.9999998E-03;  8.0024585E-02;1854; -1.8828541E-01;  0.0000000E+00;  9.6024815E-03;  1.0024083E+03;  4.0001470E-01;  1.9951923E+03;3; -5.0286560E+01;  0.0000000E+00;  2.6136212E+00;0; -7.0803279E-01;  1.0055146E+04;  0.0000000E+00;  2.9046398E-06;  1.0000000E+04;  0.0000000E+00;  9.9923496E+03; -8.3416337E-01;  0.0000000E+00;  1.2613060E-01;  3.8532681E+03;
  5.1951730E-01;  9.9999998E-03;  1.0003124E-01;1855; -1.8860911E-01;  0.0000000E+00;  1.2087939E-02;  1.0024351E+03;  4.0001476E-01;  2.0174138E+03;3; -4.9299728E+01;  0.0000000E+00;  3.0457873E+00;0; -7.0623988E-01;  1.0055817E+04;  0.0000000E+00;  8.4274525E-06;  1.0000000E+04;  0.0000000E+00;  9.9922148E+03; -8.3268422E-01;  0.0000000E+00;  1.2644432E-01;  3.9215181E+03;
  5.1950991E-01;  9.9999998E-03;  1.2003823E-01;1856; -1.8898094E-01;  0.0000000E+00;  1.4618311E-02;  1.0024702E+03;  4.0001473E-01;  2.0465486E+03;3; -4.8181946E+01;  0.0000000E+00;  3.3798068E+00;0; -7.0561874E-01;  1.0056615E+04;  0.0000000E+00;  2.0065070E-05;  1.0000000E+04;  0.0000000E+00;  9.9921182E+03; -8.3081406E-01;  0.0000000E+00;  1.2519535E-01;  3.9742998E+03;
  5.1950163E-01;  9.9999998E-03;  1.4004545E-01;1857; -1.8936498E-01;  0.0000000E+00;  1.7143650E-02;  1.0025126E+03;  4.0001482E-01;  2.0816091E+03;3; -4.6959736E+01;  0.0000000E+00;  3.6123471E+00;0; -7.0645058E-01;  1.0057539E+04;  0.0000000E+00;  3.7750084E-05;  1.0000000E+04;  0.0000000E+00;  9.9920449E+03; -8.2868189E-01;  0.0000000E+00;  1.2223129E-01;  4.0195168E+03;
  5.3947741E-01;  9.9999998E-03;  3.5826472E-12;1881; -2.0588772E-01;  0.0000000E+00; -6.8816499E-09;  1.0024733E+03;  4.0003973E-01;  2.0491125E+03;3; -5.5634895E+01;  0.0000000E+00; -1.9743020E-05;0; -7.2097141E-01;  1.0056704E+04;  0.0000000E+00; -2.2955738E-15;  1.0000000E+04;  0.0000000E+00;  9.9908154E+03; -8.5642427E-01;  0.0000000E+00;  1.3545287E-01;  4.6087129E+03;
  5.3947657E-01;  9.9999998E-03;  2.0007774E-02;1882; -2.0592511E-01;  0.0000000E+00;  2.5826166E-03;  1.0024763E+03;  4.0003964E-01;  2.0514829E+03;3; -5.5478668E+01;  0.0000000E+00;  6.1306018E-01;0; -7.2035539E-01;  1.0056787E+04;  0.0000000E+00;  1.6547119E-07;  1.0000000E+04;  0.0000000E+00;  9.9907900E+03; -8.5631347E-01;  0.0000000E+00;  1.3595806E-01;  4.6204990E+03;
  5.3947413E-01;  9.9999998E-03;  4.0015586E-02;1883; -2.0603503E-01;  0.0000000E+00;  5.1824544E-03;  1.0024848E+03;  4.0003976E-01;  2.0585938E+03;3; -5.5021210E+01;  0.0000000E+00;  1.1932524E+00;0; -7.1861851E-01;  1.0057031E+04;  0.0000000E+00;  8.1980153E-07;  1.0000000E+04;  0.0000000E+00;  9.9907197E+03; -8.5594308E-01;  0.0000000E+00;  1.3732456E-01;  4.6533774E+03;
  5.3947008E-01;  9.9999998E-03;  6.0023498E-02;1884; -2.0620891E-01;  0.0000000E+00;  7.8186179E-03;  1.0025000E+03;  4.0003973E-01;  2.0712351E+03;3; -5.4289677E+01;  0.0000000E+00;  1.7053063E+00;0; -7.1611810E-01;  1.0057425E+04;  0.0000000E+00;  2.8097672E-06;  1.0000000E+04;  0.0000000E+00;  9.9906318E+03; -8.5521448E-01;  0.0000000E+00;  1.3909635E-01;  4.6991255E+03;
  5.3946453E-01;  9.9999998E-03;  8.0031596E-02;1885; -2.0643848E-01;  0.0000000E+00;  1.0517360E-02;  1.0025225E+03;  4.0003973E-01;  2.0898025E+03;3; -5.3325550E+01;  0.0000000E+00;  2.1383083E+00;0; -7.1348786E-01;  1.0057967E+04;  0.0000000E+00;  8.4307958E-06;  1.0000000E+04;  0.0000000E+00;  9.9905449E+03; -8.5400420E-01;  0.0000000E+00;  1.4051637E-01;  4.7428584E+03;
  5.3945756E-01;  9.9999998E-03;  1.0003997E-01;1886; -2.0671862E-01;  0.0000000E+00;  1.3295740E-02;  1.0025541E+03;  4.0003970E-01;  2.1159744E+03;3; -5.2174877E+01;  0.0000000E+00;  2.4874270E+00;0; -7.1159542E-01;  1.0058643E+04;  0.0000000E+00;  2.1415479E-05;  1.0000000E+04;  0.0000000E+00;  9.9905039E+03; -8.5222203E-01;  0.0000000E+00;  1.4062662E-01;  4.7654478E+03;
  5.3944927E-01;  9.9999998E-03;  1.2004860E-01;1887; -2.0703879E-01;  0.0000000E+00;  1.6133158E-02;  1.0025959E+03;  4.0003958E-01;  2.1506399E+03;3; -5.0886356E+01;  0.0000000E+00;  2.7590914E+00;0; -7.1130264E-01;  1.0059445E+04;  0.0000000E+00;  4.4668152E-05;  1.0000000E+04;  0.0000000E+00;  9.9905381E+03; -8.4989047E-01;  0.0000000E+00;  1.3858782E-01;  4.7536982E+03;
  5.3943992E-01;  9.9999998E-03;  1.4005728E-01;1888; -2.0735958E-01;  0.0000000E+00;  1.8928695E-02;  1.0026468E+03;  4.0003937E-01;  2.1928110E+03;3; -4.9493858E+01;  0.0000000E+00;  2.9291430E+00;0; -7.1295446E-01;  1.0060380E+04;  0.0000000E+00;  7.3380950E-05;  1.0000000E+04;  0.0000000E+00;  9.9906260E+03; -8.4721476E-01;  0.0000000E+00;  1.3426030E-01;  4.7216963E+03;
  5.5941552E-01;  9.9999998E-03; -8.5343364E-12;1912; -2.2490476E-01;  0.0000000E+00; -1.2266913E-08;  1.0025756E+03;  4.0010688E-01;  2.1337463E+03;3; -5.8997311E+01;  0.0000000E+00; -2.3252331E-05;0; -6.9971073E-01;  1.0057760E+04;  0.0000000E+00; -8.2451331E-15;  1.0000000E+04;  0.0000000E+00;  9.9884219E+03; -8.5122079E-01;  0.0000000E+00;  1.5151006E-01;  5.7834370E+03;
  5.5941457E-01;  9.9999998E-03;  2.0010106E-02;1913; -2.2493915E-01;  0.0000000E+00;  2.8445828E-03;  1.0025788E+03;  4.0010694E-01;  2.1365117E+03;3; -5.8812462E+01;  0.0000000E+00;  4.1088995E-01;0; -6.9898236E-01;  1.0057839E+04;  0.0000000E+00;  4.3003013E-07;  1.0000000E+04;  0.0000000E+00;  9.9884063E+03; -8.5109520E-01;  0.0000000E+00;  1.5211284E-01;  5.7915361E+03;
  5.5941182E-01;  9.9999998E-03;  4.0020254E-02;1914; -2.2503841E-01;  0.0000000E+00;  5.7168044E-03;  1.0025883E+03;  4.0010706E-01;  2.1443140E+03;3; -5.8275227E+01;  0.0000000E+00;  7.9196680E-01;0; -6.9693571E-01;  1.0058074E+04;  0.0000000E+00;  2.0311766E-06;  1.0000000E+04;  0.0000000E+00;  9.9883555E+03; -8.5066736E-01;  0.0000000E+00;  1.5373166E-01;  5.8128257E+03;
  5.5940735E-01;  9.9999998E-03;  6.0030494E-02;1915; -2.2519241E-01;  0.0000000E+00;  8.6518172E-03;  1.0026047E+03;  4.0010694E-01;  2.1579429E+03;3; -5.7423046E+01;  0.0000000E+00;  1.1376820E+00;0; -6.9400311E-01;  1.0058455E+04;  0.0000000E+00;  6.5114868E-06;  1.0000000E+04;  0.0000000E+00;  9.9883057E+03; -8.4979427E-01;  0.0000000E+00;  1.5579119E-01;  5.8371943E+03;
  5.5940115E-01;  9.9999998E-03;  8.0040909E-02;1916; -2.2539552E-01;  0.0000000E+00;  1.1674713E-02;  1.0026296E+03;  4.0010682E-01;  2.1784854E+03;3; -5.6307747E+01;  0.0000000E+00;  1.4360858E+00;0; -6.9094861E-01;  1.0058973E+04;  0.0000000E+00;  1.7917720E-05;  1.0000000E+04;  0.0000000E+00;  9.9882891E+03; -8.4829950E-01;  0.0000000E+00;  1.5735091E-01;  5.8463799E+03;
  5.5939341E-01;  9.9999998E-03;  1.0005154E-01;1917; -2.2563277E-01;  0.0000000E+00;  1.4814761E-02;  1.0026650E+03;  4.0010682E-01;  2.2078176E+03;3; -5.4990273E+01;  0.0000000E+00;  1.6793435E+00;0; -6.8881196E-01;  1.0059614E+04;  0.0000000E+00;  4.0943341E-05;  1.0000000E+04;  0.0000000E+00;  9.9883516E+03; -8.4605622E-01;  0.0000000E+00;  1.5724425E-01;  5.8178062E+03;
  5.5938423E-01;  9.9999998E-03;  1.2006235E-01;1918; -2.2588642E-01;  0.0000000E+00;  1.8038549E-02;  1.0027117E+03;  4.0010682E-01;  2.2465322E+03;3; -5.3524406E+01;  0.0000000E+00;  1.8843681E+00;0; -6.8858856E-01;  1.0060380E+04;  0.0000000E+00;  7.4505726E-05;  1.0000000E+04;  0.0000000E+00;  9.9885254E+03; -8.4308654E-01;  0.0000000E+00;  1.5449798E-01;  5.7391011E+03;
  5.5937386E-01;  9.9999998E-03;  1.4007302E-01;1919; -2.2610821E-01;  0.0000000E+00;  2.1194113E-02;  1.0027680E+03;  4.0010676E-01;  2.2932466E+03;3; -5.1953342E+01;  0.0000000E+00;  2.0101197E+00;0; -6.9061393E-01;  1.0061282E+04;  0.0000000E+00;  1.0349551E-04;  1.0000000E+04;  0.0000000E+00;  9.9887578E+03; -8.3965808E-01;  0.0000000E+00;  1.4904414E-01;  5.6351313E+03;
  5.7935166E-01;  9.9999998E-03; -4.4248511E-12;1943; -2.4402095E-01;  0.0000000E+00; -6.9497812E-09;  1.0027954E+03;  4.0028501E-01;  2.3159541E+03;3; -6.2204735E+01;  0.0000000E+00; -7.4527343E-06;0; -6.4049506E-01;  1.0056151E+04;  0.0000000E+00; -6.6364936E-16;  1.0000000E+04;  0.0000000E+00;  9.9854883E+03; -8.1141132E-01;  0.0000000E+00;  1.7091623E-01;  7.2113442E+03;
  5.7935065E-01;  9.9999998E-03;  2.0012990E-02;1944; -2.4405746E-01;  0.0000000E+00;  3.1653822E-03;  1.0027988E+03;  4.0028495E-01;  2.3187192E+03;3; -6.1995190E+01;  0.0000000E+00;  1.3779932E-01;0; -6.3966405E-01;  1.0056222E+04;  0.0000000E+00;  8.6421005E-07;  1.0000000E+04;  0.0000000E+00;  9.9854824E+03; -8.1122136E-01;  0.0000000E+00;  1.7155728E-01;  7.2142202E+03;
  5.7934755E-01;  9.9999998E-03;  4.0025994E-02;1945; -2.4415562E-01;  0.0000000E+00;  6.3701952E-03;  1.0028088E+03;  4.0028507E-01;  2.3270154E+03;3; -6.1379761E+01;  0.0000000E+00;  2.5525215E-01;0; -6.3731396E-01;  1.0056437E+04;  0.0000000E+00;  3.9036963E-06;  1.0000000E+04;  0.0000000E+00;  9.9854668E+03; -8.1058639E-01;  0.0000000E+00;  1.7327246E-01;  7.2198369E+03;
  5.7934260E-01;  9.9999998E-03;  6.0039077E-02;1946; -2.4430113E-01;  0.0000000E+00;  9.6621886E-03;  1.0028256E+03;  4.0028498E-01;  2.3409409E+03;3; -6.0388504E+01;  0.0000000E+00;  4.0660429E-01;0; -6.3390017E-01;  1.0056775E+04;  0.0000000E+00;  1.1666891E-05;  1.0000000E+04;  0.0000000E+00;  9.9854668E+03; -8.0933189E-01;  0.0000000E+00;  1.7543171E-01;  7.2176162E+03;
  5.7933581E-01;  9.9999998E-03;  8.0052353E-02;1947; -2.4448992E-01;  0.0000000E+00;  1.3060899E-02;  1.0028511E+03;  4.0028489E-01;  2.3620759E+03;3; -5.9134850E+01;  0.0000000E+00;  5.0065899E-01;0; -6.3023704E-01;  1.0057238E+04;  0.0000000E+00;  2.9374201E-05;  1.0000000E+04;  0.0000000E+00;  9.9855244E+03; -8.0724508E-01;  0.0000000E+00;  1.7700802E-01;  7.1881777E+03;
  5.7932729E-01;  9.9999998E-03;  1.0006586E-01;1948; -2.4467947E-01;  0.0000000E+00;  1.6626971E-02;  1.0028876E+03;  4.0028486E-01;  2.3922969E+03;3; -5.7654835E+01;  0.0000000E+00;  6.1477762E-01;0; -6.2742341E-01;  1.0057801E+04;  0.0000000E+00;  5.9318128E-05;  1.0000000E+04;  0.0000000E+00;  9.9856875E+03; -8.0417615E-01;  0.0000000E+00;  1.7675272E-01;  7.1092813E+03;
  5.7931727E-01;  9.9999998E-03;  1.2007946E-01;1949; -2.4483947E-01;  0.0000000E+00;  2.0305548E-02;  1.0029354E+03;  4.0028480E-01;  2.4319001E+03;3; -5.6011150E+01;  0.0000000E+00;  7.4005669E-01;0; -6.2646163E-01;  1.0058476E+04;  0.0000000E+00;  8.8373519E-05;  1.0000000E+04;  0.0000000E+00;  9.9859736E+03; -8.0015475E-01;  0.0000000E+00;  1.7369314E-01;  6.9754023E+03;
  5.7930601E-01;  9.9999998E-03;  1.4009272E-01;1950; -2.4491760E-01;  0.0000000E+00;  2.3899535E-02;  1.0029907E+03;  4.0028477E-01;  2.4777256E+03;3; -5.4247101E+01;  0.0000000E+00;  8.1867820E-01;0; -6.2761980E-01;  1.0059272E+04;  0.0000000E+00;  8.7536268E-05;  1.0000000E+04;  0.0000000E+00;  9.9862939E+03; -7.9547906E-01;  0.0000000E+00;  1.6785927E-01;  6.8269233E+03;
  5.9928995E-01;  9.9999998E-03;  8.0929412E-12;1974; -2.6202282E-01;  0.0000000E+00; -2.5001863E-09;  1.0034686E+03;  4.0073767E-01;  2.8736470E+03;3; -6.4996422E+01;  0.0000000E+00; -3.0505034E-06;0; -5.2666616E-01;  1.0050558E+04;  0.0000000E+00; -1.2192552E-14;  1.0000000E+04;  0.0000000E+00;  9.9819385E+03; -7.2189075E-01;  0.0000000E+00;  1.9522461E-01;  8.9248955E+03;
  5.9928882E-01;  9.9999998E-03;  2.0016501E-02;1975; -2.6206502E-01;  0.0000000E+00;  3.5199074E-03;  1.0034719E+03;  4.0073758E-01;  2.8764121E+03;3; -6.4766731E+01;  0.0000000E+00; -2.8063604E-01;0; -5.2577883E-01;  1.0050615E+04;  0.0000000E+00;  1.3133737E-06;  1.0000000E+04;  0.0000000E+00;  9.9819463E+03; -7.2156173E-01;  0.0000000E+00;  1.9578288E-01;  8.9205547E+03;
  5.9928542E-01;  9.9999998E-03;  4.0032960E-02;1976; -2.6217908E-01;  0.0000000E+00;  7.1056997E-03;  1.0034818E+03;  4.0073746E-01;  2.8846094E+03;3; -6.4112495E+01;  0.0000000E+00; -5.0830144E-01;0; -5.2321684E-01;  1.0050785E+04;  0.0000000E+00;  5.5105188E-06;  1.0000000E+04;  0.0000000E+00;  9.9819717E+03; -7.2049892E-01;  0.0000000E+00;  1.9728211E-01;  8.9054805E+03;
  5.9928000E-01;  9.9999998E-03;  6.0049448E-02;1977; -2.6233575E-01;  0.0000000E+00;  1.0815995E-02;  1.0034984E+03;  4.0073755E-01;  2.8983372E+03;3; -6.3035812E+01;  0.0000000E+00; -6.7883188E-01;0; -5.1933247E-01;  1.0051060E+04;  0.0000000E+00;  1.5277654E-05;  1.0000000E+04;  0.0000000E+00;  9.9820322E+03; -7.1850353E-01;  0.0000000E+00;  1.9917105E-01;  8.8713135E+03;
  5.9927261E-01;  9.9999998E-03;  8.0066137E-02;1978; -2.6250017E-01;  0.0000000E+00;  1.4687243E-02;  1.0035229E+03;  4.0073743E-01;  2.9185830E+03;3; -6.1618950E+01;  0.0000000E+00; -7.3898268E-01;0; -5.1481616E-01;  1.0051419E+04;  0.0000000E+00;  3.5093344E-05;  1.0000000E+04;  0.0000000E+00;  9.9821729E+03; -7.1534342E-01;  0.0000000E+00;  2.0052727E-01;  8.8017061E+03;
  5.9926349E-01;  9.9999998E-03;  1.0008308E-01;1979; -2.6264489E-01;  0.0000000E+00;  1.8730817E-02;  1.0035570E+03;  4.0073714E-01;  2.9468286E+03;3; -6.0004658E+01;  0.0000000E+00; -8.2901555E-01;0; -5.1062632E-01;  1.0051854E+04;  0.0000000E+00;  5.8122892E-05;  1.0000000E+04;  0.0000000E+00;  9.9824209E+03; -7.1086526E-01;  0.0000000E+00;  2.0023897E-01;  8.6809424E+03;
  5.9925276E-01;  9.9999998E-03;  1.2010004E-01;1980; -2.6269004E-01;  0.0000000E+00;  2.2928430E-02;  1.0035991E+03;  4.0073702E-01;  2.9816914E+03;3; -5.8181870E+01;  0.0000000E+00; -7.7551830E-01;0; -5.0761378E-01;  1.0052364E+04;  0.0000000E+00;  5.0955699E-05;  1.0000000E+04;  0.0000000E+00;  9.9827588E+03; -7.0509750E-01;  0.0000000E+00;  1.9748369E-01;  8.5171885E+03;
  5.9924072E-01;  9.9999998E-03;  1.4011639E-01;1981; -2.6259515E-01;  0.0000000E+00;  2.7045192E-02;  1.0036444E+03;  4.0073693E-01;  3.0193196E+03;3; -5.6239849E+01;  0.0000000E+00; -7.1425343E-01;0; -5.0605679E-01;  1.0052959E+04;  0.0000000E+00; -2.3217155E-05;  1.0000000E+04;  0.0000000E+00;  9.9830801E+03; -6.9833547E-01;  0.0000000E+00;  1.9227865E-01;  8.3670566E+03;
  6.1923420E-01;  9.9999998E-03; -3.4058245E-12;2005; -2.7776447E-01;  0.0000000E+00; -2.2462934E-09;  1.0052722E+03;  4.0177557E-01;  4.3677749E+03;3; -6.7056381E+01;  0.0000000E+00; -9.1557376E-07;0; -3.2930225E-01;  1.0039092E+04;  0.0000000E+00; -2.5941358E-15;  1.0000000E+04;  0.0000000E+00;  9.9776650E+03; -5.5637693E-01;  0.0000000E+00;  2.2707467E-01;  1.0963144E+04;
  6.1923295E-01;  9.9999998E-03;  2.0020695E-02;2006; -2.7781314E-01;  0.0000000E+00;  3.9472310E-03;  1.0052755E+03;  4.0177560E-01;  4.3705400E+03;3; -6.6863052E+01;  0.0000000E+00; -8.9233392E-01;0; -3.2845718E-01;  1.0039131E+04;  0.0000000E+00;  1.0373095E-06;  1.0000000E+04;  0.0000000E+00;  9.9776924E+03; -5.5581689E-01;  0.0000000E+00;  2.2735970E-01;  1.0949362E+04;
  6.1922932E-01;  9.9999998E-03;  4.0041234E-02;2007; -2.7793428E-01;  0.0000000E+00;  7.9544978E-03;  1.0052847E+03;  4.0177548E-01;  4.3781450E+03;3; -6.6157028E+01;  0.0000000E+00; -1.6345434E+00;0; -3.2591021E-01;  1.0039239E+04;  0.0000000E+00;  3.4989898E-06;  1.0000000E+04;  0.0000000E+00;  9.9777725E+03; -5.5405456E-01;  0.0000000E+00;  2.2814435E-01;  1.0908264E+04;
  6.1922348E-01;  9.9999998E-03;  6.0061723E-02;2008; -2.7810436E-01;  0.0000000E+00;  1.2116712E-02;  1.0052999E+03;  4.0177542E-01;  4.3907861E+03;3; -6.5055534E+01;  0.0000000E+00; -2.1653695E+00;0; -3.2172543E-01;  1.0039410E+04;  0.0000000E+00;  8.4433350E-06;  1.0000000E+04;  0.0000000E+00;  9.9779082E+03; -5.5088603E-01;  0.0000000E+00;  2.2916062E-01;  1.0837286E+04;
  6.1921555E-01;  9.9999998E-03;  8.0082297E-02;2009; -2.7825549E-01;  0.0000000E+00;  1.6478151E-02;  1.0053208E+03;  4.0177521E-01;  4.4080693E+03;3; -6.3580681E+01;  0.0000000E+00; -2.5028496E+00;0; -3.1621778E-01;  1.0039622E+04;  0.0000000E+00;  1.6646542E-05;  1.0000000E+04;  0.0000000E+00;  9.9781270E+03; -5.4608387E-01;  0.0000000E+00;  2.2986610E-01;  1.0728440E+04;
  6.1920589E-01;  9.9999998E-03;  1.0010293E-01;2010; -2.7832681E-01;  0.0000000E+00;  2.1043403E-02;  1.0053475E+03;  4.0177497E-01;  4.4301914E+03;3; -6.1863415E+01;  0.0000000E+00; -2.6806922E+00;0; -3.0996028E-01;  1.0039862E+04;  0.0000000E+00;  6.4894271E-06;  1.0000000E+04;  0.0000000E+00;  9.9784287E+03; -5.3949612E-01;  0.0000000E+00;  2.2953585E-01;  1.0578976E+04;
  6.1919469E-01;  9.9999998E-03;  1.2012349E-01;2011; -2.7827013E-01;  0.0000000E+00;  2.5700800E-02;  1.0053771E+03;  4.0177456E-01;  4.4547827E+03;3; -5.9917542E+01;  0.0000000E+00; -2.7019408E+00;0; -3.0358675E-01;  1.0040132E+04;  0.0000000E+00; -7.5642834E-05;  1.0000000E+04;  0.0000000E+00;  9.9787637E+03; -5.3113729E-01;  0.0000000E+00;  2.2755054E-01;  1.0414102E+04;
  6.1918199E-01;  9.9999998E-03;  1.4014329E-01;2012; -2.7800968E-01;  0.0000000E+00;  3.0273044E-02;  1.0054024E+03;  4.0177444E-01;  4.4757202E+03;3; -5.7821701E+01;  0.0000000E+00; -2.6614306E+00;0; -2.9755813E-01;  1.0040418E+04;  0.0000000E+00; -2.6039116E-04;  1.0000000E+04;  0.0000000E+00;  9.9790010E+03; -5.2122629E-01;  0.0000000E+00;  2.2366816E-01;  1.0301581E+04;
  6.3918704E-01;  9.9999998E-03;  2.8189930E-11;2036; -2.9058170E-01;  0.0000000E+00; -5.2378063E-10;  1.0088167E+03;  4.0368596E-01;  7.3042559E+03;3; -6.8609375E+01;  0.0000000E+00; -2.6093039E-07;0; -1.1780143E-02;  1.0019815E+04;  0.0000000E+00; -1.2633629E-15;  1.0000000E+04;  0.0000000E+00;  9.9725889E+03; -2.8145066E-01;  0.0000000E+00;  2.6967052E-01;  1.3356324E+04;
  6.3918579E-01;  9.9999998E-03;  2.0024970E-02;2037; -2.9064780E-01;  0.0000000E+00;  4.4333865E-03;  1.0088197E+03;  4.0368572E-01;  7.3067251E+03;3; -6.8258743E+01;  0.0000000E+00; -1.2819674E+00;0; -1.1153281E-02;  1.0019825E+04;  0.0000000E+00; -1.5343913E-06;  1.0000000E+04;  0.0000000E+00;  9.9726426E+03; -2.8057349E-01;  0.0000000E+00;  2.6942021E-01;  1.3330764E+04;
  6.3918191E-01;  9.9999998E-03;  4.0049747E-02;2038; -2.9080337E-01;  0.0000000E+00;  8.9199152E-03;  1.0088280E+03;  4.0368563E-01;  7.3136382E+03;3; -6.7537819E+01;  0.0000000E+00; -2.6099865E+00;0; -9.0739429E-03;  1.0019850E+04;  0.0000000E+00; -8.7277358E-06;  1.0000000E+04;  0.0000000E+00;  9.9727871E+03; -2.7787080E-01;  0.0000000E+00;  2.6879686E-01;  1.3258055E+04;
  6.3917571E-01;  9.9999998E-03;  6.0074329E-02;2039; -2.9097524E-01;  0.0000000E+00;  1.3522561E-02;  1.0088401E+03;  4.0368539E-01;  7.3236128E+03;3; -6.6383957E+01;  0.0000000E+00; -3.7196975E+00;0; -5.1012337E-03;  1.0019878E+04;  0.0000000E+00; -2.3600469E-05;  1.0000000E+04;  0.0000000E+00;  9.9730098E+03; -2.7316526E-01;  0.0000000E+00;  2.6806402E-01;  1.3145324E+04;
  6.3916737E-01;  9.9999998E-03;  8.0098994E-02;2040; -2.9111442E-01;  0.0000000E+00;  1.8313365E-02;  1.0088552E+03;  4.0368512E-01;  7.3361553E+03;3; -6.4925293E+01;  0.0000000E+00; -4.4132552E+00;0;  1.1135638E-03;  1.0019894E+04;  0.0000000E+00; -5.0434151E-05;  1.0000000E+04;  0.0000000E+00;  9.9733027E+03; -2.6625842E-01;  0.0000000E+00;  2.6737198E-01;  1.2997979E+04;
  6.3915706E-01;  9.9999998E-03;  1.0012377E-01;2041; -2.9111850E-01;  0.0000000E+00;  2.3303796E-02;  1.0088701E+03;  4.0368474E-01;  7.3484014E+03;3; -6.3124969E+01;  0.0000000E+00; -4.8035216E+00;0;  9.5678866E-03;  1.0019874E+04;  0.0000000E+00; -1.2112414E-04;  1.0000000E+04;  0.0000000E+00;  9.9736387E+03; -2.5701374E-01;  0.0000000E+00;  2.6658162E-01;  1.2829404E+04;
  6.3914531E-01;  9.9999998E-03;  1.2014844E-01;2042; -2.9094690E-01;  0.0000000E+00;  2.8309735E-02;  1.0088805E+03;  4.0368420E-01;  7.3570923E+03;3; -6.1099022E+01;  0.0000000E+00; -4.9679723E+00;0;  1.9794166E-02;  1.0019807E+04;  0.0000000E+00; -2.9378294E-04;  1.0000000E+04;  0.0000000E+00;  9.9739434E+03; -2.4540323E-01;  0.0000000E+00;  2.6519740E-01;  1.2678999E+04;
  6.3913238E-01;  9.9999998E-03;  1.4017205E-01;2043; -2.9051378E-01;  0.0000000E+00;  3.3179451E-02;  1.0088786E+03;  4.0368366E-01;  7.3555127E+03;3; -5.8922104E+01;  0.0000000E+00; -5.0142961E+00;0;  3.0957267E-02;  1.0019665E+04;  0.0000000E+00; -5.7271711E-04;  1.0000000E+04;  0.0000000E+00;  9.9740762E+03; -2.3145582E-01;  0.0000000E+00;  2.6241308E-01;  1.2616269E+04;
  6.5915084E-01;  9.9999998E-03; -1.1010354E-11;2067; -3.0003136E-01;  0.0000000E+00; -1.2328184E-09;  1.0131386E+03;  4.0610370E-01;  1.0884665E+04;3; -6.8940956E+01;  0.0000000E+00;  5.6991703E-06;0;  4.5377505E-01;  9.9917891E+03;  0.0000000E+00;  1.0545209E-14;  1.0000000E+04;  0.0000000E+00;  9.9667158E+03;  1.2841745E-01;  0.0000000E+00;  3.2535762E-01;  1.6093588E+04;
  6.5914959E-01;  9.9999998E-03;  2.0029996E-02;2068; -3.0014834E-01;  0.0000000E+00;  4.7427244E-03;  1.0131412E+03;  4.0610361E-01;  1.0886838E+04;3; -6.8836655E+01;  0.0000000E+00; -2.1493380E+00;0;  4.5388398E-01;  9.9917617E+03;  0.0000000E+00; -7.8817511E-06;  1.0000000E+04;  0.0000000E+00;  9.9667959E+03;  1.2963459E-01;  0.0000000E+00;  3.2424939E-01;  1.6053724E+04;
  6.5914571E-01;  9.9999998E-03;  4.0059716E-02;2069; -3.0032155E-01;  0.0000000E+00;  9.6300449E-03;  1.0131484E+03;  4.0610364E-01;  1.0892764E+04;3; -6.8209877E+01;  0.0000000E+00; -4.1177950E+00;0;  4.5468447E-01;  9.9916807E+03;  0.0000000E+00; -3.6017740E-05;  1.0000000E+04;  0.0000000E+00;  9.9670225E+03;  1.3332948E-01;  0.0000000E+00;  3.2135499E-01;  1.5943208E+04;
  6.5913934E-01;  9.9999998E-03;  6.0088888E-02;2070; -3.0047527E-01;  0.0000000E+00;  1.4605612E-02;  1.0131569E+03;  4.0610337E-01;  1.0899775E+04;3; -6.7118515E+01;  0.0000000E+00; -5.7357402E+00;0;  4.5734814E-01;  9.9915303E+03;  0.0000000E+00; -8.9435205E-05;  1.0000000E+04;  0.0000000E+00;  9.9673486E+03;  1.3961923E-01;  0.0000000E+00;  3.1772891E-01;  1.5782110E+04;
  6.5913075E-01;  9.9999998E-03;  8.0117829E-02;2071; -3.0055910E-01;  0.0000000E+00;  1.9743549E-02;  1.0131634E+03;  4.0610313E-01;  1.0905207E+04;3; -6.5679855E+01;  0.0000000E+00; -6.7541494E+00;0;  4.6313658E-01;  9.9912920E+03;  0.0000000E+00; -1.7087755E-04;  1.0000000E+04;  0.0000000E+00;  9.9677324E+03;  1.4864433E-01;  0.0000000E+00;  3.1449226E-01;  1.5591959E+04;
  6.5912038E-01;  9.9999998E-03;  1.0014711E-01;2072; -3.0048028E-01;  0.0000000E+00;  2.5114374E-02;  1.0131642E+03;  4.0610269E-01;  1.0905898E+04;3; -6.3878689E+01;  0.0000000E+00; -7.4041624E+00;0;  4.7270584E-01;  9.9909453E+03;  0.0000000E+00; -3.0277102E-04;  1.0000000E+04;  0.0000000E+00;  9.9681143E+03;  1.6050968E-01;  0.0000000E+00;  3.1219617E-01;  1.5400437E+04;
  6.5910870E-01;  9.9999998E-03;  1.2017660E-01;2073; -3.0011636E-01;  0.0000000E+00;  3.0580558E-02;  1.0131539E+03;  4.0610224E-01;  1.0897307E+04;3; -6.1810921E+01;  0.0000000E+00; -7.7275743E+00;0;  4.8559850E-01;  9.9904648E+03;  0.0000000E+00; -5.1942532E-04;  1.0000000E+04;  0.0000000E+00;  9.9684092E+03;  1.7528868E-01;  0.0000000E+00;  3.1030983E-01;  1.5252604E+04;
  6.5909582E-01;  9.9999998E-03;  1.4020509E-01;2074; -2.9951912E-01;  0.0000000E+00;  3.5994630E-02;  1.0131243E+03;  4.0610200E-01;  1.0872814E+04;3; -5.9580338E+01;  0.0000000E+00; -7.8103781E+00;0;  5.0032556E-01;  9.9898105E+03;  0.0000000E+00; -7.8183535E-04;  1.0000000E+04;  0.0000000E+00;  9.9684971E+03;  1.9316269E-01;  0.0000000E+00;  3.0716288E-01;  1.5208195E+04;
  6.7913270E-01;  9.9999998E-03;  4.5160264E-12;2098; -3.0565992E-01;  0.0000000E+00;  4.5183737E-09;  1.0158625E+03;  4.0804896E-01;  1.3141102E+04;3; -6.9436745E+01;  0.0000000E+00;  6.4690321E-06;0;  1.0627615E+00;  9.9563652E+03;  0.0000000E+00;  4.5050542E-14;  1.0000000E+04;  0.0000000E+00;  9.9602441E+03;  6.6929287E-01;  0.0000000E+00;  3.9346862E-01;  1.9079982E+04;
  6.7913151E-01;  9.9999998E-03;  2.0038893E-02;2099; -3.0562037E-01;  0.0000000E+00;  6.1798422E-03;  1.0158647E+03;  4.0804875E-01;  1.3142880E+04;3; -6.9254524E+01;  0.0000000E+00; -3.5559189E+00;0;  1.0619196E+00;  9.9562988E+03;  0.0000000E+00; -1.6472797E-05;  1.0000000E+04;  0.0000000E+00;  9.9603643E+03;  6.7074680E-01;  0.0000000E+00;  3.9117274E-01;  1.9023430E+04;
  6.7912787E-01;  9.9999998E-03;  4.0076520E-02;2100; -3.0555421E-01;  0.0000000E+00;  1.2156967E-02;  1.0158706E+03;  4.0804878E-01;  1.3147720E+04;3; -6.8678162E+01;  0.0000000E+00; -6.5581388E+00;0;  1.0602357E+00;  9.9560957E+03;  0.0000000E+00; -7.1622708E-05;  1.0000000E+04;  0.0000000E+00;  9.9606836E+03;  6.7512685E-01;  0.0000000E+00;  3.8510895E-01;  1.8868855E+04;
  6.7912191E-01;  9.9999998E-03;  6.0112491E-02;2101; -3.0546355E-01;  0.0000000E+00;  1.7969506E-02;  1.0158754E+03;  4.0804881E-01;  1.3151670E+04;3; -6.7697189E+01;  0.0000000E+00; -8.8367538E+00;0;  1.0598122E+00;  9.9557344E+03;  0.0000000E+00; -1.6928572E-04;  1.0000000E+04;  0.0000000E+00;  9.9611348E+03;  6.8247813E-01;  0.0000000E+00;  3.7733403E-01;  1.8650793E+04;
  6.7911386E-01;  9.9999998E-03;  8.0147602E-02;2102; -3.0528602E-01;  0.0000000E+00;  2.3732632E-02;  1.0158738E+03;  4.0804872E-01;  1.3150386E+04;3; -6.6278732E+01;  0.0000000E+00; -1.0212852E+01;0;  1.0629665E+00;  9.9552090E+03;  0.0000000E+00; -2.9923554E-04;  1.0000000E+04;  0.0000000E+00;  9.9616328E+03;  6.9285047E-01;  0.0000000E+00;  3.7011603E-01;  1.8405848E+04;
  6.7910409E-01;  9.9999998E-03;  1.0018267E-01;2103; -3.0492979E-01;  0.0000000E+00;  2.9602388E-02;  1.0158618E+03;  4.0804869E-01;  1.3140412E+04;3; -6.4429558E+01;  0.0000000E+00; -1.0976774E+01;0;  1.0709722E+00;  9.9544980E+03;  0.0000000E+00; -4.5030919E-04;  1.0000000E+04;  0.0000000E+00;  9.9621064E+03;  7.0626026E-01;  0.0000000E+00;  3.6471197E-01;  1.8169678E+04;
  6.7909312E-01;  9.9999998E-03;  1.2021800E-01;2104; -3.0422512E-01;  0.0000000E+00;  3.5666302E-02;  1.0158332E+03;  4.0804863E-01;  1.3116710E+04;3; -6.2288433E+01;  0.0000000E+00; -1.1305022E+01;0;  1.0831485E+00;  9.9535713E+03;  0.0000000E+00; -6.0586754E-04;  1.0000000E+04;  0.0000000E+00;  9.9624854E+03;  7.2275364E-01;  0.0000000E+00;  3.6039481E-01;  1.7981709E+04;
  6.7908114E-01;  9.9999998E-03;  1.4025232E-01;2105; -3.0316374E-01;  0.0000000E+00;  4.1886888E-02;  1.0157828E+03;  4.0804866E-01;  1.3075034E+04;3; -5.9896580E+01;  0.0000000E+00; -1.1159462E+01;0;  1.0970117E+00;  9.9523740E+03;  0.0000000E+00; -6.8951602E-04;  1.0000000E+04;  0.0000000E+00;  9.9626855E+03;  7.4259079E-01;  0.0000000E+00;  3.5442087E-01;  1.7881482E+04;
  6.9914460E-01;  9.9999998E-03;  2.6045614E-11;2129; -3.0529875E-01;  0.0000000E+00;  5.1607190E-09;  1.0162427E+03;  4.0912142E-01;  1.3455771E+04;3; -6.9798424E+01;  0.0000000E+00;  2.0023435E-06;0;  1.7567178E+00;  9.9180830E+03;  0.0000000E+00;  2.5861349E-14;  1.0000000E+04;  0.0000000E+00;  9.9536367E+03;  1.2883327E+00;  0.0000000E+00;  4.6838513E-01;  2.2114307E+04;
  6.9914365E-01;  9.9999998E-03;  2.0049240E-02;2130; -3.0515066E-01;  0.0000000E+00;  9.0397941E-03;  1.0162449E+03;  4.0912130E-01;  1.3457549E+04;3; -6.9662674E+01;  0.0000000E+00; -4.2511630E+00;0;  1.7544837E+00;  9.9179678E+03;  0.0000000E+00; -2.1708978E-05;  1.0000000E+04;  0.0000000E+00;  9.9537900E+03;  1.2898139E+00;  0.0000000E+00;  4.6466982E-01;  2.2039270E+04;
  6.9914067E-01;  9.9999998E-03;  4.0096924E-02;2131; -3.0467692E-01;  0.0000000E+00;  1.7743405E-02;  1.0162491E+03;  4.0912154E-01;  1.3461005E+04;3; -6.8962975E+01;  0.0000000E+00; -7.9761329E+00;0;  1.7490175E+00;  9.9176191E+03;  0.0000000E+00; -9.1961672E-05;  1.0000000E+04;  0.0000000E+00;  9.9542207E+03;  1.2942444E+00;  0.0000000E+00;  4.5477301E-01;  2.1835096E+04;
  6.9913554E-01;  9.9999998E-03;  6.0142476E-02;2132; -3.0395898E-01;  0.0000000E+00;  2.5731817E-02;  1.0162500E+03;  4.0912163E-01;  1.3461795E+04;3; -6.7761703E+01;  0.0000000E+00; -1.0896846E+01;0;  1.7434151E+00;  9.9170371E+03;  0.0000000E+00; -2.1021074E-04;  1.0000000E+04;  0.0000000E+00;  9.9548125E+03;  1.3015803E+00;  0.0000000E+00;  4.4183478E-01;  2.1549771E+04;
  6.9912869E-01;  9.9999998E-03;  8.0186665E-02;2133; -3.0304939E-01;  0.0000000E+00;  3.3065092E-02;  1.0162417E+03;  4.0912190E-01;  1.3454883E+04;3; -6.6194565E+01;  0.0000000E+00; -1.2858421E+01;0;  1.7410433E+00;  9.9162100E+03;  0.0000000E+00; -3.4913493E-04;  1.0000000E+04;  0.0000000E+00;  9.9554707E+03;  1.3117276E+00;  0.0000000E+00;  4.2931572E-01;  2.1231297E+04;
  6.9912064E-01;  9.9999998E-03;  1.0023060E-01;2134; -3.0188951E-01;  0.0000000E+00;  4.0032897E-02;  1.0162197E+03;  4.0912196E-01;  1.3436613E+04;3; -6.4320473E+01;  0.0000000E+00; -1.3937635E+01;0;  1.7436494E+00;  9.9151250E+03;  0.0000000E+00; -4.5894322E-04;  1.0000000E+04;  0.0000000E+00;  9.9561143E+03;  1.3245268E+00;  0.0000000E+00;  4.1912255E-01;  2.0915270E+04;
  6.9911236E-01;  9.9999998E-03;  1.2027534E-01;2135; -3.0025578E-01;  0.0000000E+00;  4.7300238E-02;  1.0161810E+03;  4.0912244E-01;  1.3404617E+04;3; -6.2133327E+01;  0.0000000E+00; -1.4334811E+01;0;  1.7500898E+00;  9.9137695E+03;  0.0000000E+00; -4.7811380E-04;  1.0000000E+04;  0.0000000E+00;  9.9567021E+03;  1.3398479E+00;  0.0000000E+00;  4.1024187E-01;  2.0625457E+04;
  6.9910425E-01;  9.9999998E-03;  1.4032003E-01;2136; -2.9783383E-01;  0.0000000E+00;  5.5292722E-02;  1.0161226E+03;  4.0912279E-01;  1.3356228E+04;3; -5.9496674E+01;  0.0000000E+00; -1.3967064E+01;0;  1.7566010E+00;  9.9120986E+03;  0.0000000E+00; -3.2298951E-04;  1.0000000E+04;  0.0000000E+00;  9.9572119E+03;  1.3577620E+00;  0.0000000E+00;  3.9883900E-01;  2.0375563E+04;
  7.1928281E-01;  9.9999998E-03; -2.3756707E-11;2160; -2.7460805E-01;  0.0000000E+00; -9.4094466E-09;  1.0153672E+03;  4.0959466E-01;  1.2730070E+04;3; -7.0440620E+01;  0.0000000E+00; -4.2440370E-06;0;  2.4221838E+00;  9.8841240E+03;  0.0000000E+00;  5.7981418E-14;  1.0000000E+04;  0.0000000E+00;  9.9474980E+03;  1.8820097E+00;  0.0000000E+00;  5.4017395E-01;  2.4930480E+04;
  7.1928138E-01;  9.9999998E-03;  2.0060726E-02;2161; -2.7461022E-01;  0.0000000E+00;  1.3682733E-02;  1.0153692E+03;  4.0959448E-01;  1.2731749E+04;3; -7.0059441E+01;  0.0000000E+00; -3.5952671E+00;0;  2.4182487E+00;  9.8839619E+03;  0.0000000E+00; -1.7440660E-05;  1.0000000E+04;  0.0000000E+00;  9.9477002E+03;  1.8832968E+00;  0.0000000E+00;  5.3495175E-01;  2.4834828E+04;
  7.1927708E-01;  9.9999998E-03;  4.0119652E-02;2162; -2.7457955E-01;  0.0000000E+00;  2.6736945E-02;  1.0153721E+03;  4.0959463E-01;  1.2734218E+04;3; -6.8936333E+01;  0.0000000E+00; -6.7845125E+00;0;  2.4080479E+00;  9.8834688E+03;  0.0000000E+00; -7.3909388E-05;  1.0000000E+04;  0.0000000E+00;  9.9482500E+03;  1.8870902E+00;  0.0000000E+00;  5.2095777E-01;  2.4574063E+04;
  7.1927035E-01;  9.9999998E-03;  6.0176447E-02;2163; -2.7434483E-01;  0.0000000E+00;  3.8875483E-02;  1.0153701E+03;  4.0959498E-01;  1.2732539E+04;3; -6.7033546E+01;  0.0000000E+00; -9.3474779E+00;0;  2.3955765E+00;  9.8826523E+03;  0.0000000E+00; -1.6622362E-04;  1.0000000E+04;  0.0000000E+00;  9.9490186E+03;  1.8931948E+00;  0.0000000E+00;  5.0238174E-01;  2.4207775E+04;
  7.1926188E-01;  9.9999998E-03;  8.0232501E-02;2164; -2.7363759E-01;  0.0000000E+00;  5.0284632E-02;  1.0153569E+03;  4.0959552E-01;  1.2721580E+04;3; -6.4490501E+01;  0.0000000E+00; -1.1128939E+01;0;  2.3850689E+00;  9.8815244E+03;  0.0000000E+00; -2.6186960E-04;  1.0000000E+04;  0.0000000E+00;  9.9498828E+03;  1.9012665E+00;  0.0000000E+00;  4.8380247E-01;  2.3791701E+04;
  7.1925229E-01;  9.9999998E-03;  1.0028988E-01;2165; -2.7227122E-01;  0.0000000E+00;  6.1544262E-02;  1.0153297E+03;  4.0959564E-01;  1.2699064E+04;3; -6.1449360E+01;  0.0000000E+00; -1.2126700E+01;0;  2.3785362E+00;  9.8800889E+03;  0.0000000E+00; -2.9992184E-04;  1.0000000E+04;  0.0000000E+00;  9.9507783E+03;  1.9108298E+00;  0.0000000E+00;  4.6770641E-01;  2.3356006E+04;
  7.1924233E-01;  9.9999998E-03;  1.2034938E-01;2166; -2.6981843E-01;  0.0000000E+00;  7.3021673E-02;  1.0152892E+03;  4.0959626E-01;  1.2665488E+04;3; -5.7891247E+01;  0.0000000E+00; -1.2430243E+01;0;  2.3742447E+00;  9.8783691E+03;  0.0000000E+00; -2.1388185E-04;  1.0000000E+04;  0.0000000E+00;  9.9516943E+03;  1.9213943E+00;  0.0000000E+00;  4.5285031E-01;  2.2905082E+04;
  7.1923274E-01;  9.9999998E-03;  1.4040892E-01;2167; -2.6623547E-01;  0.0000000E+00;  8.4689341E-02;  1.0152366E+03;  4.0959689E-01;  1.2621938E+04;3; -5.3985256E+01;  0.0000000E+00; -1.1979566E+01;0;  2.3671236E+00;  9.8763545E+03;  0.0000000E+00;  5.1350798E-05;  1.0000000E+04;  0.0000000E+00;  9.9526738E+03;  1.9325696E+00;  0.0000000E+00;  4.3455389E-01;  2.2430129E+04;
  7.3953491E-01;  9.9999998E-03;  5.2999372E-11;2191; -1.8448655E-01;  0.0000000E+00;  2.5271776E-09;  1.0144153E+03;  4.0978214E-01;  1.1941191E+04;3; -4.9486118E+01;  0.0000000E+00;  2.3116881E-06;0;  2.9201176E+00;  9.8615850E+03;  0.0000000E+00;  2.0394915E-14;  1.0000000E+04;  0.0000000E+00;  9.9424541E+03;  2.3224211E+00;  0.0000000E+00;  5.9769648E-01;  2.7262344E+04;
  7.3953384E-01;  9.9999998E-03;  2.0065755E-02;2192; -1.8439895E-01;  0.0000000E+00;  1.4498571E-02;  1.0144175E+03;  4.0978232E-01;  1.1942970E+04;3; -4.9128059E+01;  0.0000000E+00; -4.3033543E+00;0;  2.9144320E+00;  9.8613760E+03;  0.0000000E+00; -5.9921399E-06;  1.0000000E+04;  0.0000000E+00;  9.9427002E+03;  2.3233621E+00;  0.0000000E+00;  5.9107006E-01;  2.7144109E+04;
  7.3953092E-01;  9.9999998E-03;  4.0129293E-02;2193; -1.8409328E-01;  0.0000000E+00;  2.8208664E-02;  1.0144208E+03;  4.0978241E-01;  1.1945636E+04;3; -4.8074871E+01;  0.0000000E+00; -8.1765432E+00;0;  2.8992672E+00;  9.8607539E+03;  0.0000000E+00; -2.7341965E-05;  1.0000000E+04;  0.0000000E+00;  9.9433906E+03;  2.3260446E+00;  0.0000000E+00;  5.7322258E-01;  2.6820078E+04;
  7.3952639E-01;  9.9999998E-03;  6.0189988E-02;2194; -1.8345508E-01;  0.0000000E+00;  4.0736601E-02;  1.0144186E+03;  4.0978271E-01;  1.1943859E+04;3; -4.6383553E+01;  0.0000000E+00; -1.1323011E+01;0;  2.8792901E+00;  9.8597393E+03;  0.0000000E+00; -6.3100488E-05;  1.0000000E+04;  0.0000000E+00;  9.9443584E+03;  2.3300436E+00;  0.0000000E+00;  5.4924661E-01;  2.6359523E+04;
  7.3952079E-01;  9.9999998E-03;  8.0249175E-02;2195; -1.8233824E-01;  0.0000000E+00;  5.2248199E-02;  1.0144053E+03;  4.0978324E-01;  1.1932898E+04;3; -4.4136730E+01;  0.0000000E+00; -1.3630132E+01;0;  2.8594334E+00;  9.8583525E+03;  0.0000000E+00; -9.1688555E-05;  1.0000000E+04;  0.0000000E+00;  9.9454736E+03;  2.3347223E+00;  0.0000000E+00;  5.2471107E-01;  2.5824340E+04;
  7.3951453E-01;  9.9999998E-03;  1.0030904E-01;2196; -1.8061964E-01;  0.0000000E+00;  6.3343942E-02;  1.0143798E+03;  4.0978372E-01;  1.1911767E+04;3; -4.1433064E+01;  0.0000000E+00; -1.5099890E+01;0;  2.8419895E+00;  9.8566484E+03;  0.0000000E+00; -7.3336843E-05;  1.0000000E+04;  0.0000000E+00;  9.9466777E+03;  2.3392754E+00;  0.0000000E+00;  5.0271404E-01;  2.5240092E+04;
  7.3950797E-01;  9.9999998E-03;  1.2037080E-01;2197; -1.7824650E-01;  0.0000000E+00;  7.4737348E-02;  1.0143456E+03;  4.0978432E-01;  1.1883327E+04;3; -3.8386314E+01;  0.0000000E+00; -1.5731302E+01;0;  2.8248744E+00;  9.8546592E+03;  0.0000000E+00;  2.8616494E-05;  1.0000000E+04;  0.0000000E+00;  9.9479980E+03;  2.3428066E+00;  0.0000000E+00;  4.8206776E-01;  2.4597650E+04;
  7.3950136E-01;  9.9999998E-03;  1.4043275E-01;2198; -1.7526433E-01;  0.0000000E+00;  8.6630955E-02;  1.0143091E+03;  4.0978494E-01;  1.1853208E+04;3; -3.5137230E+01;  0.0000000E+00; -1.5470435E+01;0;  2.8020530E+00;  9.8524502E+03;  0.0000000E+00;  2.2660078E-04;  1.0000000E+04;  0.0000000E+00;  9.9494766E+03;  2.3443489E+00;  0.0000000E+00;  4.5770401E-01;  2.3878107E+04;
  7.5972861E-01;  9.9999998E-03;  1.4380667E-10;2222; -1.1455322E-01;  0.0000000E+00;  1.6525160E-08;  1.0139504E+03;  4.0985271E-01;  1.1555499E+04;3; -3.3089897E+01;  0.0000000E+00; -7.1200775E-06;0;  3.1781757E+00;  9.8527656E+03;  0.0000000E+00; -2.4732967E-14;  1.0000000E+04;  0.0000000E+00;  9.9388770E+03;  2.5438519E+00;  0.0000000E+00;  6.3432378E-01;  2.8937932E+04;
  7.5972801E-01;  9.9999998E-03;  2.0068904E-02;2223; -1.1437489E-01;  0.0000000E+00;  1.4699421E-02;  1.0139536E+03;  4.0985301E-01;  1.1558066E+04;3; -3.2787121E+01;  0.0000000E+00; -5.0342441E+00;0;  3.1708081E+00;  9.8525303E+03;  0.0000000E+00;  2.8210957E-06;  1.0000000E+04;  0.0000000E+00;  9.9391787E+03;  2.5442393E+00;  0.0000000E+00;  6.2656873E-01;  2.8797047E+04;
  7.5972652E-01;  9.9999998E-03;  4.0135220E-02;2224; -1.1381388E-01;  0.0000000E+00;  2.8485449E-02;  1.0139601E+03;  4.0985325E-01;  1.1563497E+04;3; -3.1900297E+01;  0.0000000E+00; -9.5989399E+00;0;  3.1508222E+00;  9.8518340E+03;  0.0000000E+00;  8.3389987E-06;  1.0000000E+04;  0.0000000E+00;  9.9400000E+03;  2.5452096E+00;  0.0000000E+00;  6.0561264E-01;  2.8408928E+04;
  7.5972426E-01;  9.9999998E-03;  6.0198043E-02;2225; -1.1280350E-01;  0.0000000E+00;  4.0863879E-02;  1.0139628E+03;  4.0985349E-01;  1.1565670E+04;3; -3.0489082E+01;  0.0000000E+00; -1.3373806E+01;0;  3.1234903E+00;  9.8507070E+03;  0.0000000E+00;  1.4149741E-05;  1.0000000E+04;  0.0000000E+00;  9.9411738E+03;  2.5462420E+00;  0.0000000E+00;  5.7724833E-01;  2.7851303E+04;
  7.5972170E-01;  9.9999998E-03;  8.0258600E-02;2226; -1.1127010E-01;  0.0000000E+00;  5.1944815E-02;  1.0139557E+03;  4.0985402E-01;  1.1559844E+04;3; -2.8642670E+01;  0.0000000E+00; -1.6243601E+01;0;  3.0944562E+00;  9.8491914E+03;  0.0000000E+00;  2.6890257E-05;  1.0000000E+04;  0.0000000E+00;  9.9425498E+03;  2.5465748E+00;  0.0000000E+00;  5.4788136E-01;  2.7192684E+04;
  7.5971913E-01;  9.9999998E-03;  1.0031907E-01;2227; -1.0917484E-01;  0.0000000E+00;  6.2319320E-02;  1.0139392E+03;  4.0985453E-01;  1.1546217E+04;3; -2.6469437E+01;  0.0000000E+00; -1.8223969E+01;0;  3.0665851E+00;  9.8473477E+03;  0.0000000E+00;  5.9314942E-05;  1.0000000E+04;  0.0000000E+00;  9.9440635E+03;  2.5453117E+00;  0.0000000E+00;  5.2127326E-01;  2.6458996E+04;
  7.5971675E-01;  9.9999998E-03;  1.2038067E-01;2228; -1.0654106E-01;  0.0000000E+00;  7.2716847E-02;  1.0139185E+03;  4.0985519E-01;  1.1529035E+04;3; -2.4089602E+01;  0.0000000E+00; -1.9330284E+01;0;  3.0379753E+00;  9.8452520E+03;  0.0000000E+00;  1.1837608E-04;  1.0000000E+04;  0.0000000E+00;  9.9457461E+03;  2.5413852E+00;  0.0000000E+00;  4.9659014E-01;  2.5637896E+04;
  7.5971466E-01;  9.9999998E-03;  1.4044154E-01;2229; -1.0345890E-01;  0.0000000E+00;  8.3394058E-02;  1.0139024E+03;  4.0985587E-01;  1.1515705E+04;3; -2.1638025E+01;  0.0000000E+00; -1.9495808E+01;0;  3.0021904E+00;  9.8430293E+03;  0.0000000E+00;  1.9370737E-04;  1.0000000E+04;  0.0000000E+00;  9.9476465E+03;  2.5333688E+00;  0.0000000E+00;  4.6882156E-01;  2.4714883E+04;
  7.7987355E-01;  9.9999998E-03; -4.2329494E-11;2253; -6.0832419E-02;  0.0000000E+00; -3.7062815E-08;  1.0139963E+03;  4.0987828E-01;  1.1592736E+04;3; -2.0192404E+01;  0.0000000E+00; -2.9831892E-05;0;  3.2331028E+00;  9.8544932E+03;  0.0000000E+00;  9.2484427E-15;  1.0000000E+04;  0.0000000E+00;  9.9368281E+03;  2.5827811E+00;  0.0000000E+00;  6.5032172E-01;  2.9914236E+04;
  7.7987337E-01;  9.9999998E-03;  2.0070383E-02;2254; -6.0625512E-02;  0.0000000E+00;  1.4496033E-02;  1.0140015E+03;  4.0987831E-01;  1.1596982E+04;3; -1.9977419E+01;  0.0000000E+00; -5.6401129E+00;0;  3.2243795E+00;  9.8542559E+03;  0.0000000E+00;  4.1251433E-06;  1.0000000E+04;  0.0000000E+00;  9.9371699E+03;  2.5825360E+00;  0.0000000E+00;  6.4184350E-01;  2.9753842E+04;
  7.7987301E-01;  9.9999998E-03;  4.0137909E-02;2255; -5.9995927E-02;  0.0000000E+00;  2.8011823E-02;  1.0140138E+03;  4.0987867E-01;  1.1607152E+04;3; -1.9352396E+01;  0.0000000E+00; -1.0765803E+01;0;  3.2005291E+00;  9.8535488E+03;  0.0000000E+00;  1.4621285E-05;  1.0000000E+04;  0.0000000E+00;  9.9381074E+03;  2.5816255E+00;  0.0000000E+00;  6.1890358E-01;  2.9310566E+04;
  7.7987266E-01;  9.9999998E-03;  6.0201492E-02;2256; -5.8926098E-02;  0.0000000E+00;  4.0004101E-02;  1.0140245E+03;  4.0987885E-01;  1.1616039E+04;3; -1.8372837E+01;  0.0000000E+00; -1.5024712E+01;0;  3.1673832E+00;  9.8524111E+03;  0.0000000E+00;  2.8509261E-05;  1.0000000E+04;  0.0000000E+00;  9.9394561E+03;  2.5796044E+00;  0.0000000E+00;  5.8777887E-01;  2.8669709E+04;
  7.7987242E-01;  9.9999998E-03;  8.0262288E-02;2257; -5.7411768E-02;  0.0000000E+00;  5.0565310E-02;  1.0140281E+03;  4.0987933E-01;  1.1619001E+04;3; -1.7122370E+01;  0.0000000E+00; -1.8288879E+01;0;  3.1313758E+00;  9.8508877E+03;  0.0000000E+00;  4.4639804E-05;  1.0000000E+04;  0.0000000E+00;  9.9410439E+03;  2.5758605E+00;  0.0000000E+00;  5.5551541E-01;  2.7907598E+04;
  7.7987260E-01;  9.9999998E-03;  1.0032251E-01;2258; -5.5489209E-02;  0.0000000E+00;  6.0295735E-02;  1.0140242E+03;  4.0987992E-01;  1.1615742E+04;3; -1.5703175E+01;  0.0000000E+00; -2.0580763E+01;0;  3.0961828E+00;  9.8490439E+03;  0.0000000E+00;  6.2562838E-05;  1.0000000E+04;  0.0000000E+00;  9.9428047E+03;  2.5696876E+00;  0.0000000E+00;  5.2649522E-01;  2.7055830E+04;
  7.7987313E-01;  9.9999998E-03;  1.2038336E-01;2259; -5.3248350E-02;  0.0000000E+00;  6.9934770E-02;  1.0140184E+03;  4.0988040E-01;  1.1611003E+04;3; -1.4225083E+01;  0.0000000E+00; -2.1936234E+01;0;  3.0605264E+00;  9.8469766E+03;  0.0000000E+00;  7.8574420E-05;  1.0000000E+04;  0.0000000E+00;  9.9447480E+03;  2.5601697E+00;  0.0000000E+00;  5.0035661E-01;  2.6107418E+04;
  7.7987403E-01;  9.9999998E-03;  1.4044291E-01;2260; -5.0820515E-02;  0.0000000E+00;  7.9754338E-02;  1.0140197E+03;  4.0988114E-01;  1.1612089E+04;3; -1.2799042E+01;  0.0000000E+00; -2.2299429E+01;0;  3.0180545E+00;  9.8448486E+03;  0.0000000E+00;  8.2736267E-05;  1.0000000E+04;  0.0000000E+00;  9.9468926E+03;  2.5457153E+00;  0.0000000E+00;  4.7233924E-01;  2.5060992E+04;
  7.9999483E-01;  9.9999998E-03; -1.8063691E-10;2284; -1.3948550E-02;  0.0000000E+00; -4.8813742E-08;  1.0143600E+03;  4.0988538E-01;  1.1892808E+04;3; -8.2840137E+00;  0.0000000E+00; -3.0906958E-05;0;  3.1626554E+00;  9.8618545E+03;  0.0000000E+00; -1.3512231E-14;  1.0000000E+04;  0.0000000E+00;  9.9361416E+03;  2.5124936E+00;  0.0000000E+00;  6.5016186E-01;  3.0242818E+04;
  7.9999501E-01;  9.9999998E-03;  2.0070475E-02;2285; -1.3765804E-02;  0.0000000E+00;  1.4061173E-02;  1.0143671E+03;  4.0988538E-01;  1.1898731E+04;3; -8.1764154E+00;  0.0000000E+00; -6.0414915E+00;0;  3.1531808E+00;  9.8616299E+03;  0.0000000E+00;  1.3166235E-06;  1.0000000E+04;  0.0000000E+00;  9.9365117E+03;  2.5117640E+00;  0.0000000E+00;  6.4141685E-01;  3.0069148E+04;
  7.9999554E-01;  9.9999998E-03;  4.0137947E-02;2286; -1.3222926E-02;  0.0000000E+00;  2.7133528E-02;  1.0143848E+03;  4.0988567E-01;  1.1913441E+04;3; -7.8683038E+00;  0.0000000E+00; -1.1523088E+01;0;  3.1272600E+00;  9.8609561E+03;  0.0000000E+00;  4.7783515E-06;  1.0000000E+04;  0.0000000E+00;  9.9375254E+03;  2.5094812E+00;  0.0000000E+00;  6.1777884E-01;  2.9588783E+04;
  7.9999650E-01;  9.9999998E-03;  6.0201243E-02;2287; -1.2337949E-02;  0.0000000E+00;  3.8674701E-02;  1.0144043E+03;  4.0988603E-01;  1.1929534E+04;3; -7.4012313E+00;  0.0000000E+00; -1.6056635E+01;0;  3.0912035E+00;  9.8598682E+03;  0.0000000E+00;  9.3451254E-06;  1.0000000E+04;  0.0000000E+00;  9.9389873E+03;  2.5054152E+00;  0.0000000E+00;  5.8578831E-01;  2.8893484E+04;
  7.9999804E-01;  9.9999998E-03;  8.0261514E-02;2288; -1.1153474E-02;  0.0000000E+00;  4.8793599E-02;  1.0144181E+03;  4.0988645E-01;  1.1940986E+04;3; -6.8378425E+00;  0.0000000E+00; -1.9495651E+01;0;  3.0521989E+00;  9.8584121E+03;  0.0000000E+00;  1.3909880E-05;  1.0000000E+04;  0.0000000E+00;  9.9407100E+03;  2.4993191E+00;  0.0000000E+00;  5.5287975E-01;  2.8067561E+04;
  8.0000013E-01;  9.9999998E-03;  1.0032102E-01;2289; -9.7472183E-03;  0.0000000E+00;  5.8118004E-02;  1.0144244E+03;  4.0988687E-01;  1.1946219E+04;3; -6.2529030E+00;  0.0000000E+00; -2.1863609E+01;0;  3.0148175E+00;  9.8566387E+03;  0.0000000E+00;  1.7059838E-05;  1.0000000E+04;  0.0000000E+00;  9.9425996E+03;  2.4909332E+00;  0.0000000E+00;  5.2388430E-01;  2.7151139E+04;
  8.0000269E-01;  9.9999998E-03;  1.2038103E-01;2290; -8.2375063E-03;  0.0000000E+00;  6.7400768E-02;  1.0144283E+03;  4.0988740E-01;  1.1949378E+04;3; -5.7242665E+00;  0.0000000E+00; -2.3217422E+01;0;  2.9785249E+00;  9.8546465E+03;  0.0000000E+00;  1.6785169E-05;  1.0000000E+04;  0.0000000E+00;  9.9446563E+03;  2.4797277E+00;  0.0000000E+00;  4.9879727E-01;  2.6146367E+04;
  8.0000561E-01;  9.9999998E-03;  1.4043956E-01;2291; -6.7617879E-03;  0.0000000E+00;  7.6903209E-02;  1.0144376E+03;  4.0988818E-01;  1.1957078E+04;3; -5.3197641E+00;  0.0000000E+00; -2.3532326E+01;0;  2.9373045E+00;  9.8526094E+03;  0.0000000E+00;  1.0265046E-05;  1.0000000E+04;  0.0000000E+00;  9.9468701E+03;  2.4642770E+00;  0.0000000E+00;  4.7302741E-01;  2.5065623E+04;
  8.2011402E-01;  9.9999998E-03;  2.9776976E-11;2315;  3.3306573E-02;  0.0000000E+00; -2.3076416E-09;  1.0148347E+03;  4.0987182E-01;  1.2284438E+04;3;  4.1568632E+00;  0.0000000E+00; -3.1309639E-05;0;  3.0299428E+00;  9.8712510E+03;  0.0000000E+00;  1.8769396E-14;  1.0000000E+04;  0.0000000E+00;  9.9365645E+03;  2.3902731E+00;  0.0000000E+00;  6.3966972E-01;  3.0025316E+04;
  8.2011443E-01;  9.9999998E-03;  2.0069495E-02;2316;  3.3432886E-02;  0.0000000E+00;  1.3553773E-02;  1.0148433E+03;  4.0987197E-01;  1.2291645E+04;3;  4.1535778E+00;  0.0000000E+00; -6.1915250E+00;0;  3.0204802E+00;  9.8710410E+03;  0.0000000E+00; -8.0001792E-07;  1.0000000E+04;  0.0000000E+00;  9.9369443E+03;  2.3894050E+00;  0.0000000E+00;  6.3107502E-01;  2.9846361E+04;
  8.2011563E-01;  9.9999998E-03;  4.0135961E-02;2317;  3.3800308E-02;  0.0000000E+00;  2.6155023E-02;  1.0148649E+03;  4.0987214E-01;  1.2309513E+04;3;  4.1372151E+00;  0.0000000E+00; -1.1785216E+01;0;  2.9947224E+00;  9.8704170E+03;  0.0000000E+00; -2.7947631E-06;  1.0000000E+04;  0.0000000E+00;  9.9379893E+03;  2.3868086E+00;  0.0000000E+00;  6.0791367E-01;  2.9351986E+04;
  8.2011765E-01;  9.9999998E-03;  6.0198218E-02;2318;  3.4373928E-02;  0.0000000E+00;  3.7297439E-02;  1.0148896E+03;  4.0987250E-01;  1.2329945E+04;3;  4.0895309E+00;  0.0000000E+00; -1.6362211E+01;0;  2.9593418E+00;  9.8693955E+03;  0.0000000E+00; -5.0342232E-06;  1.0000000E+04;  0.0000000E+00;  9.9394883E+03;  2.3825517E+00;  0.0000000E+00;  5.7679003E-01;  2.8638607E+04;
  8.2012045E-01;  9.9999998E-03;  8.0257446E-02;2319;  3.5098769E-02;  0.0000000E+00;  4.7127381E-02;  1.0149091E+03;  4.0987289E-01;  1.2346135E+04;3;  3.9838414E+00;  0.0000000E+00; -1.9757948E+01;0;  2.9220753E+00;  9.8680137E+03;  0.0000000E+00; -6.5280842E-06;  1.0000000E+04;  0.0000000E+00;  9.9412412E+03;  2.3768246E+00;  0.0000000E+00;  5.4525054E-01;  2.7796957E+04;
  8.2012403E-01;  9.9999998E-03;  1.0031599E-01;2320;  3.5899062E-02;  0.0000000E+00;  5.6309283E-02;  1.0149194E+03;  4.0987328E-01;  1.2354625E+04;3;  3.7909675E+00;  0.0000000E+00; -2.1993877E+01;0;  2.8881946E+00;  9.8663066E+03;  0.0000000E+00; -6.6940993E-06;  1.0000000E+04;  0.0000000E+00;  9.9431416E+03;  2.3699031E+00;  0.0000000E+00;  5.1829135E-01;  2.6874949E+04;
  8.2012820E-01;  9.9999998E-03;  1.2037519E-01;2321;  3.6681097E-02;  0.0000000E+00;  6.5612040E-02;  1.0149240E+03;  4.0987393E-01;  1.2358376E+04;3;  3.4855461E+00;  0.0000000E+00; -2.3145966E+01;0;  2.8577402E+00;  9.8643564E+03;  0.0000000E+00; -5.5587952E-06;  1.0000000E+04;  0.0000000E+00;  9.9451670E+03;  2.3617406E+00;  0.0000000E+00;  4.9599957E-01;  2.5882504E+04;
  8.2013291E-01;  9.9999998E-03;  1.4043312E-01;2322;  3.7352279E-02;  0.0000000E+00;  7.5270697E-02;  1.0149289E+03;  4.0987450E-01;  1.2362521E+04;3;  3.0585029E+00;  0.0000000E+00; -2.3231937E+01;0;  2.8249373E+00;  9.8623145E+03;  0.0000000E+00; -2.1414403E-06;  1.0000000E+04;  0.0000000E+00;  9.9472998E+03;  2.3512108E+00;  0.0000000E+00;  4.7372642E-01;  2.4840547E+04;
  8.4023941E-01;  9.9999998E-03;  1.6823090E-10;2346;  8.3009541E-02;  0.0000000E+00;  5.1090563E-08;  1.0150386E+03;  4.0971085E-01;  1.2451278E+04;3;  1.7230455E+01;  0.0000000E+00;  4.6649773E-05;0;  2.8581831E+00;  9.8816699E+03;  0.0000000E+00;  2.2798176E-15;  1.0000000E+04;  0.0000000E+00;  9.9378535E+03;  2.2344742E+00;  0.0000000E+00;  6.2370896E-01;  2.9370875E+04;
  8.4024000E-01;  9.9999998E-03;  2.0067723E-02;2347;  8.3071657E-02;  0.0000000E+00;  1.3079808E-02;  1.0150474E+03;  4.0971103E-01;  1.2458483E+04;3;  1.7126509E+01;  0.0000000E+00; -6.0848484E+00;0;  2.8494697E+00;  9.8814736E+03;  0.0000000E+00; -7.6143789E-07;  1.0000000E+04;  0.0000000E+00;  9.9382305E+03;  2.2338989E+00;  0.0000000E+00;  6.1557090E-01;  2.9194664E+04;
  8.4024179E-01;  9.9999998E-03;  4.0132485E-02;2348;  8.3245799E-02;  0.0000000E+00;  2.5266936E-02;  1.0150701E+03;  4.0971118E-01;  1.2477336E+04;3;  1.6818466E+01;  0.0000000E+00; -1.1550568E+01;0;  2.8260257E+00;  9.8808877E+03;  0.0000000E+00; -2.5539607E-06;  1.0000000E+04;  0.0000000E+00;  9.9392529E+03;  2.2322798E+00;  0.0000000E+00;  5.9374595E-01;  2.8709334E+04;
  8.4024459E-01;  9.9999998E-03;  6.0193148E-02;2349;  8.3501004E-02;  0.0000000E+00;  3.6106881E-02;  1.0150956E+03;  4.0971145E-01;  1.2498457E+04;3;  1.6316540E+01;  0.0000000E+00; -1.5960580E+01;0;  2.7946799E+00;  9.8799180E+03;  0.0000000E+00; -4.0281129E-06;  1.0000000E+04;  0.0000000E+00;  9.9407129E+03;  2.2299409E+00;  0.0000000E+00;  5.6473893E-01;  2.8013396E+04;
  8.4024847E-01;  9.9999998E-03;  8.0250941E-02;2350;  8.3799548E-02;  0.0000000E+00;  4.5787714E-02;  1.0151140E+03;  4.0971202E-01;  1.2513656E+04;3;  1.5639406E+01;  0.0000000E+00; -1.9139170E+01;0;  2.7634180E+00;  9.8785771E+03;  0.0000000E+00; -3.7456355E-06;  1.0000000E+04;  0.0000000E+00;  9.9424072E+03;  2.2274561E+00;  0.0000000E+00;  5.3596193E-01;  2.7200998E+04;
  8.4025335E-01;  9.9999998E-03;  1.0030828E-01;2351;  8.4107943E-02;  0.0000000E+00;  5.5006564E-02;  1.0151204E+03;  4.0971234E-01;  1.2518986E+04;3;  1.4814741E+01;  0.0000000E+00; -2.1106112E+01;0;  2.7377908E+00;  9.8768867E+03;  0.0000000E+00; -1.0923585E-06;  1.0000000E+04;  0.0000000E+00;  9.9442119E+03;  2.2255270E+00;  0.0000000E+00;  5.1226383E-01;  2.6324098E+04;
  8.4025919E-01;  9.9999998E-03;  1.2036659E-01;2352;  8.4403202E-02;  0.0000000E+00;  6.4545169E-02;  1.0151161E+03;  4.0971294E-01;  1.2515432E+04;3;  1.3881483E+01;  0.0000000E+00; -2.1951759E+01;0;  2.7180171E+00;  9.8749023E+03;  0.0000000E+00;  3.7699524E-06;  1.0000000E+04;  0.0000000E+00;  9.9461064E+03;  2.2244949E+00;  0.0000000E+00;  4.9352214E-01;  2.5395578E+04;
  8.4026587E-01;  9.9999998E-03;  1.4042401E-01;2353;  8.4683441E-02;  0.0000000E+00;  7.4606828E-02;  1.0151066E+03;  4.0971336E-01;  1.2507635E+04;3;  1.2896654E+01;  0.0000000E+00; -2.1734890E+01;0;  2.6983237E+00;  9.8727451E+03;  0.0000000E+00;  1.3396283E-05;  1.0000000E+04;  0.0000000E+00;  9.9480586E+03;  2.2235181E+00;  0.0000000E+00;  4.7480550E-01;  2.4437568E+04;
  8.6036718E-01;  9.9999998E-03;  1.1317817E-10;2377;  1.3314304E-01;  0.0000000E+00;  4.2080316E-08;  1.0149955E+03;  4.0939522E-01;  1.2412771E+04;3;  3.0213440E+01;  0.0000000E+00;  1.7791433E-05;0;  2.6357789E+00;  9.8941514E+03;  0.0000000E+00;  2.4541164E-14;  1.0000000E+04;  0.0000000E+00;  9.9398213E+03;  2.0307314E+00;  0.0000000E+00;  6.0504735E-01;  2.8370803E+04;
  8.6036795E-01;  9.9999998E-03;  2.0065330E-02;2378;  1.3315167E-01;  0.0000000E+00;  1.2672882E-02;  1.0150037E+03;  4.0939528E-01;  1.2419579E+04;3;  3.0027763E+01;  0.0000000E+00; -5.7523193E+00;0;  2.6283817E+00;  9.8939600E+03;  0.0000000E+00;  1.8961228E-07;  1.0000000E+04;  0.0000000E+00;  9.9401748E+03;  2.0308449E+00;  0.0000000E+00;  5.9753686E-01;  2.8203982E+04;
  8.6037016E-01;  9.9999998E-03;  4.0127821E-02;2379;  1.3316980E-01;  0.0000000E+00;  2.4516623E-02;  1.0150243E+03;  4.0939528E-01;  1.2436650E+04;3;  2.9484358E+01;  0.0000000E+00; -1.0887209E+01;0;  2.6088519E+00;  9.8933916E+03;  0.0000000E+00;  8.9944479E-07;  1.0000000E+04;  0.0000000E+00;  9.9411436E+03;  2.0313346E+00;  0.0000000E+00;  5.7751733E-01;  2.7746541E+04;
  8.6037374E-01;  9.9999998E-03;  6.0186412E-02;2380;  1.3318293E-01;  0.0000000E+00;  3.5126146E-02;  1.0150457E+03;  4.0939564E-01;  1.2454313E+04;3;  2.8623495E+01;  0.0000000E+00; -1.4969254E+01;0;  2.5839491E+00;  9.8924385E+03;  0.0000000E+00;  2.6784498E-06;  1.0000000E+04;  0.0000000E+00;  9.9425088E+03;  2.0326684E+00;  0.0000000E+00;  5.5128068E-01;  2.7096459E+04;
  8.6037868E-01;  9.9999998E-03;  8.0242373E-02;2381;  1.3319029E-01;  0.0000000E+00;  4.4721641E-02;  1.0150577E+03;  4.0939593E-01;  1.2464278E+04;3;  2.7509724E+01;  0.0000000E+00; -1.7822584E+01;0;  2.5615468E+00;  9.8911055E+03;  0.0000000E+00;  5.8714513E-06;  1.0000000E+04;  0.0000000E+00;  9.9440693E+03;  2.0356197E+00;  0.0000000E+00;  5.2592701E-01;  2.6347428E+04;
  8.6038488E-01;  9.9999998E-03;  1.0029816E-01;2382;  1.3322285E-01;  0.0000000E+00;  5.4019388E-02;  1.0150539E+03;  4.0939632E-01;  1.2461120E+04;3;  2.6228611E+01;  0.0000000E+00; -1.9467148E+01;0;  2.5469990E+00;  9.8893818E+03;  0.0000000E+00;  9.7533621E-06;  1.0000000E+04;  0.0000000E+00;  9.9457070E+03;  2.0410855E+00;  0.0000000E+00;  5.0591338E-01;  2.5550416E+04;
  8.6039251E-01;  9.9999998E-03;  1.2035526E-01;2383;  1.3335289E-01;  0.0000000E+00;  6.3804425E-02;  1.0150352E+03;  4.0939671E-01;  1.2445627E+04;3;  2.4883623E+01;  0.0000000E+00; -2.0000793E+01;0;  2.5402915E+00;  9.8873057E+03;  0.0000000E+00;  1.4093257E-05;  1.0000000E+04;  0.0000000E+00;  9.9474043E+03;  2.0496101E+00;  0.0000000E+00;  4.9068150E-01;  2.4715703E+04;
  8.6040151E-01;  9.9999998E-03;  1.4041190E-01;2384;  1.3369249E-01;  0.0000000E+00;  7.4253529E-02;  1.0150048E+03;  4.0939718E-01;  1.2420463E+04;3;  2.3595037E+01;  0.0000000E+00; -1.9509727E+01;0;  2.5354218E+00;  9.8849619E+03;  0.0000000E+00;  2.3422015E-05;  1.0000000E+04;  0.0000000E+00;  9.9491533E+03;  2.0605342E+00;  0.0000000E+00;  4.7488758E-01;  2.3860055E+04;
  8.8048846E-01;  9.9999998E-03; -1.2095711E-10;2408;  1.8053742E-01;  0.0000000E+00; -3.1543816E-09;  1.0148179E+03;  4.0894213E-01;  1.2262031E+04;3;  4.2456474E+01;  0.0000000E+00;  1.7260580E-05;0;  2.3408628E+00;  9.9101680E+03;  0.0000000E+00;  1.1271784E-14;  1.0000000E+04;  0.0000000E+00;  9.9423379E+03;  1.7563205E+00;  0.0000000E+00;  5.8454216E-01;  2.7093887E+04;
  8.8048935E-01;  9.9999998E-03;  2.0062393E-02;2409;  1.8051414E-01;  0.0000000E+00;  1.2306649E-02;  1.0148248E+03;  4.0894210E-01;  1.2267852E+04;3;  4.2210911E+01;  0.0000000E+00; -5.2511573E+00;0;  2.3350654E+00;  9.9099766E+03;  0.0000000E+00;  5.1749657E-07;  1.0000000E+04;  0.0000000E+00;  9.9426611E+03;  1.7573557E+00;  0.0000000E+00;  5.7770956E-01;  2.6940965E+04;
  8.8049203E-01;  9.9999998E-03;  4.0122095E-02;2410;  1.8044297E-01;  0.0000000E+00;  2.3836892E-02;  1.0148412E+03;  4.0894228E-01;  1.2281366E+04;3;  4.1496689E+01;  0.0000000E+00; -9.9120760E+00;0;  2.3202336E+00;  9.9094141E+03;  0.0000000E+00;  1.8445954E-06;  1.0000000E+04;  0.0000000E+00;  9.9435469E+03;  1.7606128E+00;  0.0000000E+00;  5.5962080E-01;  2.6524025E+04;
  8.8049632E-01;  9.9999998E-03;  6.0178149E-02;2411;  1.8033113E-01;  0.0000000E+00;  3.4222510E-02;  1.0148564E+03;  4.0894243E-01;  1.2293992E+04;3;  4.0380970E+01;  0.0000000E+00; -1.3568563E+01;0;  2.3028398E+00;  9.9084639E+03;  0.0000000E+00;  3.8834132E-06;  1.0000000E+04;  0.0000000E+00;  9.9447832E+03;  1.7665488E+00;  0.0000000E+00;  5.3629100E-01;  2.5938191E+04;
  8.8050228E-01;  9.9999998E-03;  8.0231830E-02;2412;  1.8021847E-01;  0.0000000E+00;  4.3699473E-02;  1.0148589E+03;  4.0894270E-01;  1.2296063E+04;3;  3.8967781E+01;  0.0000000E+00; -1.6056118E+01;0;  2.2902963E+00;  9.9071230E+03;  0.0000000E+00;  6.0075486E-06;  1.0000000E+04;  0.0000000E+00;  9.9461699E+03;  1.7758936E+00;  0.0000000E+00;  5.1440275E-01;  2.5272947E+04;
  8.8050997E-01;  9.9999998E-03;  1.0028557E-01;2413;  1.8020162E-01;  0.0000000E+00;  5.2986056E-02;  1.0148431E+03;  4.0894306E-01;  1.2282940E+04;3;  3.7391930E+01;  0.0000000E+00; -1.7396217E+01;0;  2.2874031E+00;  9.9053613E+03;  0.0000000E+00;  6.6752291E-06;  1.0000000E+04;  0.0000000E+00;  9.9476045E+03;  1.7894950E+00;  0.0000000E+00;  4.9790823E-01;  2.4573803E+04;
  8.8051945E-01;  9.9999998E-03;  1.2034091E-01;2414;  1.8044402E-01;  0.0000000E+00;  6.2861107E-02;  1.0148087E+03;  4.0894344E-01;  1.2254431E+04;3;  3.5810047E+01;  0.0000000E+00; -1.7684305E+01;0;  2.2936404E+00;  9.9031943E+03;  0.0000000E+00;  5.8927285E-06;  1.0000000E+04;  0.0000000E+00;  9.9490908E+03;  1.8079102E+00;  0.0000000E+00;  4.8573023E-01;  2.3844018E+04;
  8.8053107E-01;  9.9999998E-03;  1.4039618E-01;2415;  1.8116485E-01;  0.0000000E+00;  7.3487110E-02;  1.0147581E+03;  4.0894398E-01;  1.2212600E+04;3;  3.4392258E+01;  0.0000000E+00; -1.7012852E+01;0;  2.3027627E+00;  9.9006572E+03;  0.0000000E+00;  8.8655243E-06;  1.0000000E+04;  0.0000000E+00;  9.9506279E+03;  1.8306534E+00;  0.0000000E+00;  4.7210926E-01;  2.3091113E+04;
  9.0059423E-01;  9.9999998E-03; -1.3209069E-10;2439;  2.2262548E-01;  0.0000000E+00;  4.1801158E-09;  1.0145710E+03;  4.0837684E-01;  1.2052812E+04;3;  5.3762249E+01;  0.0000000E+00;  3.3953067E-05;0;  1.9701201E+00;  9.9299092E+03;  0.0000000E+00;  2.2453951E-14;  1.0000000E+04;  0.0000000E+00;  9.9452959E+03;  1.4079795E+00;  0.0000000E+00;  5.6214058E-01;  2.5593959E+04;
  9.0059531E-01;  9.9999998E-03;  2.0058943E-02;2440;  2.2259979E-01;  0.0000000E+00;  1.1922829E-02;  1.0145770E+03;  4.0837681E-01;  1.2057741E+04;3;  5.3478569E+01;  0.0000000E+00; -4.6496682E+00;0;  1.9658945E+00;  9.9297314E+03;  0.0000000E+00; -1.7513945E-07;  1.0000000E+04;  0.0000000E+00;  9.9455879E+03;  1.4099351E+00;  0.0000000E+00;  5.5595940E-01;  2.5457459E+04;
  9.0059847E-01;  9.9999998E-03;  4.0115368E-02;2441;  2.2252762E-01;  0.0000000E+00;  2.3105476E-02;  1.0145895E+03;  4.0837678E-01;  1.2068095E+04;3;  5.2657532E+01;  0.0000000E+00; -8.7598553E+00;0;  1.9556179E+00;  9.9291855E+03;  0.0000000E+00; -1.0253557E-06;  1.0000000E+04;  0.0000000E+00;  9.9463740E+03;  1.4159061E+00;  0.0000000E+00;  5.3971189E-01;  2.5087891E+04;
  9.0060365E-01;  9.9999998E-03;  6.0168389E-02;2442;  2.2243410E-01;  0.0000000E+00;  3.3199362E-02;  1.0145977E+03;  4.0837690E-01;  1.2074896E+04;3;  5.1386242E+01;  0.0000000E+00; -1.1955655E+01;0;  1.9453127E+00;  9.9282607E+03;  0.0000000E+00; -2.6652801E-06;  1.0000000E+04;  0.0000000E+00;  9.9474619E+03;  1.4262120E+00;  0.0000000E+00;  5.1910079E-01;  2.4575482E+04;
  9.0061080E-01;  9.9999998E-03;  8.0219284E-02;2443;  2.2238953E-01;  0.0000000E+00;  4.2441595E-02;  1.0145923E+03;  4.0837705E-01;  1.2070459E+04;3;  4.9798672E+01;  0.0000000E+00; -1.4092358E+01;0;  1.9417164E+00;  9.9269453E+03;  0.0000000E+00; -5.2946934E-06;  1.0000000E+04;  0.0000000E+00;  9.9486592E+03;  1.4413658E+00;  0.0000000E+00;  5.0035065E-01;  2.4002559E+04;
  9.0061998E-01;  9.9999998E-03;  1.0027044E-01;2444;  2.2253504E-01;  0.0000000E+00;  5.1539931E-02;  1.0145671E+03;  4.0837732E-01;  1.2049648E+04;3;  4.8062031E+01;  0.0000000E+00; -1.5191231E+01;0;  1.9488859E+00;  9.9252070E+03;  0.0000000E+00; -1.0068181E-05;  1.0000000E+04;  0.0000000E+00;  9.9498896E+03;  1.4619862E+00;  0.0000000E+00;  4.8689979E-01;  2.3406057E+04;
  9.0063149E-01;  9.9999998E-03;  1.2032338E-01;2445;  2.2309339E-01;  0.0000000E+00;  6.1262030E-02;  1.0145211E+03;  4.0837783E-01;  1.2011583E+04;3;  4.6366497E+01;  0.0000000E+00; -1.5333039E+01;0;  1.9657679E+00;  9.9230254E+03;  0.0000000E+00; -1.7417449E-05;  1.0000000E+04;  0.0000000E+00;  9.9511592E+03;  1.4885534E+00;  0.0000000E+00;  4.7721446E-01;  2.2779918E+04;
  9.0064567E-01;  9.9999998E-03;  1.4037652E-01;2446;  2.2435541E-01;  0.0000000E+00;  7.1770318E-02;  1.0144565E+03;  4.0837812E-01;  1.1958134E+04;3;  4.4910080E+01;  0.0000000E+00; -1.4593347E+01;0;  1.9860985E+00;  9.9203994E+03;  0.0000000E+00; -2.5580999E-05;  1.0000000E+04;  0.0000000E+00;  9.9525117E+03;  1.5208589E+00;  0.0000000E+00;  4.6523961E-01;  2.2121281E+04;
  9.2065305E-01;  9.9999998E-03; -1.0266961E-11;2470;  2.5083068E-01;  0.0000000E+00;  8.4417691E-09;  1.0142279E+03;  4.0772849E-01;  1.1762553E+04;3;  6.3939426E+01;  0.0000000E+00;  1.2387172E-06;0;  1.5556383E+00;  9.9515283E+03;  0.0000000E+00; -3.7452971E-14;  1.0000000E+04;  0.0000000E+00;  9.9485801E+03;  1.0178057E+00;  0.0000000E+00;  5.3783268E-01;  2.3919076E+04;
  9.2065448E-01;  9.9999998E-03;  2.0055175E-02;2471;  2.5090101E-01;  0.0000000E+00;  1.1467606E-02;  1.0142326E+03;  4.0772846E-01;  1.1766495E+04;3;  6.3656456E+01;  0.0000000E+00; -4.0111227E+00;0;  1.5526724E+00;  9.9513633E+03;  0.0000000E+00; -1.0858793E-06;  1.0000000E+04;  0.0000000E+00;  9.9488359E+03;  1.0204133E+00;  0.0000000E+00;  5.3225917E-01;  2.3800332E+04;
  9.2065871E-01;  9.9999998E-03;  4.0107962E-02;2472;  2.5112262E-01;  0.0000000E+00;  2.2216575E-02;  1.0142424E+03;  4.0772858E-01;  1.1774574E+04;3;  6.2842136E+01;  0.0000000E+00; -7.5521207E+00;0;  1.5459814E+00;  9.9508672E+03;  0.0000000E+00; -4.5479924E-06;  1.0000000E+04;  0.0000000E+00;  9.9495225E+03;  1.0282769E+00;  0.0000000E+00;  5.1770455E-01;  2.3481328E+04;
  9.2066574E-01;  9.9999998E-03;  6.0157530E-02;2473;  2.5153905E-01;  0.0000000E+00;  3.1901240E-02;  1.0142474E+03;  4.0772855E-01;  1.1778711E+04;3;  6.1574955E+01;  0.0000000E+00; -1.0303263E+01;0;  1.5410465E+00;  9.9500264E+03;  0.0000000E+00; -1.0036631E-05;  1.0000000E+04;  0.0000000E+00;  9.9504561E+03;  1.0415195E+00;  0.0000000E+00;  4.9952698E-01;  2.3045385E+04;
  9.2067552E-01;  9.9999998E-03;  8.0205098E-02;2474;  2.5221795E-01;  0.0000000E+00;  4.0743615E-02;  1.0142379E+03;  4.0772885E-01;  1.1770823E+04;3;  5.9974007E+01;  0.0000000E+00; -1.2141514E+01;0;  1.5438440E+00;  9.9488242E+03;  0.0000000E+00; -1.6379989E-05;  1.0000000E+04;  0.0000000E+00;  9.9514619E+03;  1.0603650E+00;  0.0000000E+00;  4.8347905E-01;  2.2565539E+04;
  9.2068815E-01;  9.9999998E-03;  1.0025302E-01;2475;  2.5328642E-01;  0.0000000E+00;  4.9437225E-02;  1.0142094E+03;  4.0772900E-01;  1.1747264E+04;3;  5.8212276E+01;  0.0000000E+00; -1.3081103E+01;0;  1.5576878E+00;  9.9472266E+03;  0.0000000E+00; -2.3199991E-05;  1.0000000E+04;  0.0000000E+00;  9.9524922E+03;  1.0851611E+00;  0.0000000E+00;  4.7252670E-01;  2.2068408E+04;
  9.2070377E-01;  9.9999998E-03;  1.2030283E-01;2476;  2.5494331E-01;  0.0000000E+00;  5.8747958E-02;  1.0141605E+03;  4.0772918E-01;  1.1706851E+04;3;  5.6505795E+01;  0.0000000E+00; -1.3174959E+01;0;  1.5811445E+00;  9.9451816E+03;  0.0000000E+00; -3.1692896E-05;  1.0000000E+04;  0.0000000E+00;  9.9535781E+03;  1.1163357E+00;  0.0000000E+00;  4.6480867E-01;  2.1538053E+04;
  9.2072260E-01;  9.9999998E-03;  1.4035311E-01;2477;  2.5748277E-01;  0.0000000E+00;  6.8864599E-02;  1.0140921E+03;  4.0772936E-01;  1.1650275E+04;3;  5.5054031E+01;  0.0000000E+00; -1.2461370E+01;0;  1.6083107E+00;  9.9426426E+03;  0.0000000E+00; -4.7582831E-05;  1.0000000E+04;  0.0000000E+00;  9.9547637E+03;  1.1541390E+00;  0.0000000E+00;  4.5417172E-01;  2.0962029E+04;
  9.4066554E-01;  9.9999998E-03;  1.0793251E-10;2501;  2.5950277E-01;  0.0000000E+00;  2.9875139E-08;  1.0137070E+03;  4.0702915E-01;  1.1323601E+04;3;  6.9087791E+01;  0.0000000E+00;  6.8684603E-06;0;  1.1523337E+00;  9.9720176E+03;  0.0000000E+00; -1.5463601E-14;  1.0000000E+04;  0.0000000E+00;  9.9520742E+03;  6.4034784E-01;  0.0000000E+00;  5.1198584E-01;  2.2115721E+04;
  9.4066709E-01;  9.9999998E-03;  2.0050976E-02;2502;  2.5971046E-01;  0.0000000E+00;  1.0850353E-02;  1.0137112E+03;  4.0702918E-01;  1.1327047E+04;3;  6.8946594E+01;  0.0000000E+00; -3.3659995E+00;0;  1.1502042E+00;  9.9718838E+03;  0.0000000E+00; -1.2280125E-06;  1.0000000E+04;  0.0000000E+00;  9.9522939E+03;  6.4320743E-01;  0.0000000E+00;  5.0699681E-01;  2.2015561E+04;
  9.4067180E-01;  9.9999998E-03;  4.0099785E-02;2503;  2.6035243E-01;  0.0000000E+00;  2.1040989E-02;  1.0137200E+03;  4.0702921E-01;  1.1334332E+04;3;  6.8525940E+01;  0.0000000E+00; -6.3333087E+00;0;  1.1458018E+00;  9.9714678E+03;  0.0000000E+00; -5.1548841E-06;  1.0000000E+04;  0.0000000E+00;  9.9528770E+03;  6.5176123E-01;  0.0000000E+00;  4.9404058E-01;  2.1748652E+04;
  9.4067961E-01;  9.9999998E-03;  6.0145624E-02;2504;  2.6146561E-01;  0.0000000E+00;  3.0234590E-02;  1.0137236E+03;  4.0702915E-01;  1.1337282E+04;3;  6.7773895E+01;  0.0000000E+00; -8.6434126E+00;0;  1.1440233E+00;  9.9707637E+03;  0.0000000E+00; -1.0950672E-05;  1.0000000E+04;  0.0000000E+00;  9.9536533E+03;  6.6594732E-01;  0.0000000E+00;  4.7807598E-01;  2.1389158E+04;
  9.4069070E-01;  9.9999998E-03;  8.0189645E-02;2505;  2.6311746E-01;  0.0000000E+00;  3.8624398E-02;  1.0137150E+03;  4.0702927E-01;  1.1330188E+04;3;  6.6799660E+01;  0.0000000E+00; -1.0202698E+01;0;  1.1500804E+00;  9.9697549E+03;  0.0000000E+00; -1.6005084E-05;  1.0000000E+04;  0.0000000E+00;  9.9544814E+03;  6.8572634E-01;  0.0000000E+00;  4.6435413E-01;  2.0998957E+04;
  9.4070506E-01;  9.9999998E-03;  1.0023403E-01;2506;  2.6539677E-01;  0.0000000E+00;  4.6841256E-02;  1.0136893E+03;  4.0702939E-01;  1.1308908E+04;3;  6.5764992E+01;  0.0000000E+00; -1.1030554E+01;0;  1.1666255E+00;  9.9684004E+03;  0.0000000E+00; -1.8104311E-05;  1.0000000E+04;  0.0000000E+00;  9.9553301E+03;  7.1121943E-01;  0.0000000E+00;  4.5540610E-01;  2.0593510E+04;
  9.4072288E-01;  9.9999998E-03;  1.2028033E-01;2507;  2.6842761E-01;  0.0000000E+00;  5.5626217E-02;  1.0136465E+03;  4.0702936E-01;  1.1273545E+04;3;  6.4649673E+01;  0.0000000E+00; -1.1156675E+01;0;  1.1920558E+00;  9.9666387E+03;  0.0000000E+00; -1.7696890E-05;  1.0000000E+04;  0.0000000E+00;  9.9562451E+03;  7.4288315E-01;  0.0000000E+00;  4.4917271E-01;  2.0147637E+04;
  9.4074446E-01;  9.9999998E-03;  1.4032736E-01;2508;  2.7243283E-01;  0.0000000E+00;  6.5215938E-02;  1.0135847E+03;  4.0702954E-01;  1.1222424E+04;3;  6.3703487E+01;  0.0000000E+00; -1.0555740E+01;0;  1.2211565E+00;  9.9643594E+03;  0.0000000E+00; -2.6185158E-05;  1.0000000E+04;  0.0000000E+00;  9.9572998E+03;  7.8155184E-01;  0.0000000E+00;  4.3960467E-01;  1.9641324E+04;
  9.6066338E-01;  9.9999998E-03;  3.3048366E-11;2532;  2.6062223E-01;  0.0000000E+00;  1.3820131E-08;  1.0129537E+03;  4.0630871E-01;  1.0690567E+04;3;  7.0549515E+01;  0.0000000E+00; -2.8913200E-06;0;  8.0807757E-01;  9.9889551E+03;  0.0000000E+00;  2.3610201E-14;  1.0000000E+04;  0.0000000E+00;  9.9556484E+03;  3.2273582E-01;  0.0000000E+00;  4.8534173E-01;  2.0234137E+04;
  9.6066499E-01;  9.9999998E-03;  2.0046530E-02;2533;  2.6089793E-01;  0.0000000E+00;  1.0207437E-02;  1.0129575E+03;  4.0630865E-01;  1.0693813E+04;3;  7.0446053E+01;  0.0000000E+00; -2.7393777E+00;0;  8.0643696E-01;  9.9888467E+03;  0.0000000E+00; -7.9249588E-07;  1.0000000E+04;  0.0000000E+00;  9.9558271E+03;  3.2549772E-01;  0.0000000E+00;  4.8093924E-01;  2.0152969E+04;
  9.6066982E-01;  9.9999998E-03;  4.0091075E-02;2534;  2.6173365E-01;  0.0000000E+00;  1.9770343E-02;  1.0129655E+03;  4.0630877E-01;  1.0700303E+04;3;  7.0157066E+01;  0.0000000E+00; -5.1495771E+00;0;  8.0326521E-01;  9.9885264E+03;  0.0000000E+00; -3.3239626E-06;  1.0000000E+04;  0.0000000E+00;  9.9563047E+03;  3.3371004E-01;  0.0000000E+00;  4.6955520E-01;  1.9938311E+04;
  9.6067798E-01;  9.9999998E-03;  6.0133077E-02;2535;  2.6318368E-01;  0.0000000E+00;  2.8434029E-02;  1.0129695E+03;  4.0630871E-01;  1.0703644E+04;3;  6.9711594E+01;  0.0000000E+00; -7.0109782E+00;0;  8.0283964E-01;  9.9879785E+03;  0.0000000E+00; -6.5273430E-06;  1.0000000E+04;  0.0000000E+00;  9.9569297E+03;  3.4717429E-01;  0.0000000E+00;  4.5566532E-01;  1.9652813E+04;
  9.6068954E-01;  9.9999998E-03;  8.0173612E-02;2536;  2.6530600E-01;  0.0000000E+00;  3.6397818E-02;  1.0129638E+03;  4.0630874E-01;  1.0698914E+04;3;  6.9148605E+01;  0.0000000E+00; -8.2675619E+00;0;  8.0962217E-01;  9.9871885E+03;  0.0000000E+00; -7.0747533E-06;  1.0000000E+04;  0.0000000E+00;  9.9575947E+03;  3.6566466E-01;  0.0000000E+00;  4.4395748E-01;  1.9345354E+04;
  9.6070457E-01;  9.9999998E-03;  1.0021467E-01;2537;  2.6819023E-01;  0.0000000E+00;  4.4215534E-02;  1.0129445E+03;  4.0630874E-01;  1.0682967E+04;3;  6.8627235E+01;  0.0000000E+00; -8.9453783E+00;0;  8.2569087E-01;  9.9861221E+03;  0.0000000E+00; -1.1685186E-06;  1.0000000E+04;  0.0000000E+00;  9.9582822E+03;  3.8915423E-01;  0.0000000E+00;  4.3653664E-01;  1.9020119E+04;
  9.6072322E-01;  9.9999998E-03;  1.2025756E-01;2538;  2.7197191E-01;  0.0000000E+00;  5.2546985E-02;  1.0129120E+03;  4.0630874E-01;  1.0656196E+04;3;  6.8135811E+01;  0.0000000E+00; -9.0442104E+00;0;  8.4941018E-01;  9.9846953E+03;  0.0000000E+00;  1.3143263E-05;  1.0000000E+04;  0.0000000E+00;  9.9590703E+03;  4.1817215E-01;  0.0000000E+00;  4.3123800E-01;  1.8644203E+04;
  9.6074575E-01;  9.9999998E-03;  1.4030129E-01;2539;  2.7678168E-01;  0.0000000E+00;  6.1657891E-02;  1.0128632E+03;  4.0630877E-01;  1.0615943E+04;3;  6.7794930E+01;  0.0000000E+00; -8.4973526E+00;0;  8.7640971E-01;  9.9827813E+03;  0.0000000E+00;  2.5440586E-05;  1.0000000E+04;  0.0000000E+00;  9.9600176E+03;  4.5411438E-01;  0.0000000E+00;  4.2229533E-01;  1.8192861E+04;
  9.8065460E-01;  9.9999998E-03; -3.3914586E-11;2563;  2.5917938E-01;  0.0000000E+00; -7.2778934E-09;  1.0119830E+03;  4.0559509E-01;  9.8763223E+03;3;  7.1171196E+01;  0.0000000E+00; -2.3275352E-06;0;  5.4520893E-01;  1.0001382E+04;  0.0000000E+00;  2.4857444E-14;  1.0000000E+04;  0.0000000E+00;  9.9591738E+03;  8.6411655E-02;  0.0000000E+00;  4.5879731E-01;  1.8327629E+04;
  9.8065627E-01;  9.9999998E-03;  2.0042131E-02;2564;  2.5950253E-01;  0.0000000E+00;  9.5355529E-03;  1.0119861E+03;  4.0559512E-01;  9.8788760E+03;3;  7.1088455E+01;  0.0000000E+00; -2.1570535E+00;0;  5.4388762E-01;  1.0001299E+04;  0.0000000E+00; -5.5615573E-07;  1.0000000E+04;  0.0000000E+00;  9.9593145E+03;  8.8892646E-02;  0.0000000E+00;  4.5499498E-01;  1.8265098E+04;
  9.8066127E-01;  9.9999998E-03;  4.0082686E-02;2565;  2.6047623E-01;  0.0000000E+00;  1.8549288E-02;  1.0119929E+03;  4.0559503E-01;  9.8844727E+03;3;  7.0829453E+01;  0.0000000E+00; -4.0351300E+00;0;  5.4141468E-01;  1.0001057E+04;  0.0000000E+00; -2.0476555E-06;  1.0000000E+04;  0.0000000E+00;  9.9596904E+03;  9.6237294E-02;  0.0000000E+00;  4.4517741E-01;  1.8100576E+04;
  9.8066968E-01;  9.9999998E-03;  6.0121104E-02;2566;  2.6215088E-01;  0.0000000E+00;  2.6783641E-02;  1.0119973E+03;  4.0559503E-01;  9.8880029E+03;3;  7.0529373E+01;  0.0000000E+00; -5.4627180E+00;0;  5.4141724E-01;  1.0000646E+04;  0.0000000E+00; -2.9432897E-06;  1.0000000E+04;  0.0000000E+00;  9.9601787E+03;  1.0818174E-01;  0.0000000E+00;  4.3323547E-01;  1.7883078E+04;
  9.8068142E-01;  9.9999998E-03;  8.0158338E-02;2567;  2.6456958E-01;  0.0000000E+00;  3.4413449E-02;  1.0119933E+03;  4.0559512E-01;  9.8847520E+03;3;  7.0177322E+01;  0.0000000E+00; -6.3738074E+00;0;  5.4760969E-01;  1.0000050E+04;  0.0000000E+00; -4.8740123E-08;  1.0000000E+04;  0.0000000E+00;  9.9607002E+03;  1.2440981E-01;  0.0000000E+00;  4.2319986E-01;  1.7646963E+04;
  9.8069674E-01;  9.9999998E-03;  1.0019623E-01;2568;  2.6776636E-01;  0.0000000E+00;  4.1943476E-02;  1.0119800E+03;  4.0559500E-01;  9.8738350E+03;3;  6.9737595E+01;  0.0000000E+00; -6.8823905E+00;0;  5.6155664E-01;  9.9992285E+03;  0.0000000E+00;  1.0082498E-05;  1.0000000E+04;  0.0000000E+00;  9.9612598E+03;  1.4481689E-01;  0.0000000E+00;  4.1673973E-01;  1.7386031E+04;
  9.8071581E-01;  9.9999998E-03;  1.2023603E-01;2569;  2.7185354E-01;  0.0000000E+00;  4.9953360E-02;  1.0119580E+03;  4.0559494E-01;  9.8556436E+03;3;  6.9418434E+01;  0.0000000E+00; -6.9251957E+00;0;  5.8162504E-01;  9.9981016E+03;  0.0000000E+00;  3.0536645E-05;  1.0000000E+04;  0.0000000E+00;  9.9619551E+03;  1.6997027E-01;  0.0000000E+00;  4.1165477E-01;  1.7062344E+04;
  9.8073888E-01;  9.9999998E-03;  1.4027676E-01;2570;  2.7702788E-01;  0.0000000E+00;  5.8719262E-02;  1.0119226E+03;  4.0559492E-01;  9.8264453E+03;3;  6.9281013E+01;  0.0000000E+00; -6.3422351E+00;0;  6.0423136E-01;  9.9965117E+03;  0.0000000E+00;  5.7021207E-05;  1.0000000E+04;  0.0000000E+00;  9.9628408E+03;  2.0162791E-01;  0.0000000E+00;  4.0260342E-01;  1.6649666E+04;
  1.0006416E+00;  9.9999998E-03;  9.7416528E-12;2594;  2.5609696E-01;  0.0000000E+00;  4.0897628E-09;  1.0108669E+03;  4.0491152E-01;  8.9404287E+03;3;  7.1467773E+01;  0.0000000E+00; -2.4834153E-06;0;  3.6053893E-01;  1.0009650E+04;  0.0000000E+00;  5.1118959E-15;  1.0000000E+04;  0.0000000E+00;  9.9625537E+03; -7.2496109E-02;  0.0000000E+00;  4.3303505E-01;  1.6443082E+04;
  1.0006434E+00;  9.9999998E-03;  2.0038240E-02;2595;  2.5647503E-01;  0.0000000E+00;  9.0207001E-03;  1.0108694E+03;  4.0491161E-01;  8.9424873E+03;3;  7.1400322E+01;  0.0000000E+00; -1.5882720E+00;0;  3.5951224E-01;  1.0009590E+04;  0.0000000E+00; -8.3474288E-07;  1.0000000E+04;  0.0000000E+00;  9.9626592E+03; -7.0317805E-02;  0.0000000E+00;  4.2983004E-01;  1.6397557E+04;
  1.0006485E+00;  9.9999998E-03;  4.0075261E-02;2596;  2.5761697E-01;  0.0000000E+00;  1.7605782E-02;  1.0108745E+03;  4.0491146E-01;  8.9466006E+03;3;  7.1224686E+01;  0.0000000E+00; -3.0010629E+00;0;  3.5765073E-01;  1.0009401E+04;  0.0000000E+00; -2.4341234E-06;  1.0000000E+04;  0.0000000E+00;  9.9629395E+03; -6.3879855E-02;  0.0000000E+00;  4.2153057E-01;  1.6277742E+04;
  1.0006572E+00;  9.9999998E-03;  6.0110707E-02;2597;  2.5953129E-01;  0.0000000E+00;  2.5556019E-02;  1.0108773E+03;  4.0491143E-01;  8.9488486E+03;3;  7.0969078E+01;  0.0000000E+00; -4.1161776E+00;0;  3.5790297E-01;  1.0009080E+04;  0.0000000E+00; -2.3329706E-06;  1.0000000E+04;  0.0000000E+00;  9.9633096E+03; -5.3436052E-02;  0.0000000E+00;  4.1133901E-01;  1.6117677E+04;
  1.0006692E+00;  9.9999998E-03;  8.0145359E-02;2598;  2.6220170E-01;  0.0000000E+00;  3.2950379E-02;  1.0108740E+03;  4.0491137E-01;  8.9461895E+03;3;  7.0685127E+01;  0.0000000E+00; -4.8650556E+00;0;  3.6324099E-01;  1.0008608E+04;  0.0000000E+00;  1.5447913E-06;  1.0000000E+04;  0.0000000E+00;  9.9637236E+03; -3.9286111E-02;  0.0000000E+00;  4.0252709E-01;  1.5936637E+04;
  1.0006846E+00;  9.9999998E-03;  1.0018057E-01;2599;  2.6568469E-01;  0.0000000E+00;  4.0238518E-02;  1.0108644E+03;  4.0491140E-01;  8.9383291E+03;3;  7.0397423E+01;  0.0000000E+00; -5.1768351E+00;0;  3.7477252E-01;  1.0007941E+04;  0.0000000E+00;  8.0169430E-06;  1.0000000E+04;  0.0000000E+00;  9.9642021E+03; -2.1541743E-02;  0.0000000E+00;  3.9631426E-01;  1.5720282E+04;
  1.0007039E+00;  9.9999998E-03;  1.2021748E-01;2600;  2.7009675E-01;  0.0000000E+00;  4.7990967E-02;  1.0108487E+03;  4.0491116E-01;  8.9252676E+03;3;  7.0200211E+01;  0.0000000E+00; -5.0862355E+00;0;  3.9086613E-01;  1.0006996E+04;  0.0000000E+00;  1.5861831E-05;  1.0000000E+04;  0.0000000E+00;  9.9648398E+03;  3.2102969E-04;  0.0000000E+00;  3.9054510E-01;  1.5429663E+04;
  1.0007277E+00;  9.9999998E-03;  1.4025494E-01;2601;  2.7557093E-01;  0.0000000E+00;  5.6266464E-02;  1.0108227E+03;  4.0491119E-01;  8.9038652E+03;3;  7.0102478E+01;  0.0000000E+00; -4.4871435E+00;0;  4.0853918E-01;  1.0005615E+04;  0.0000000E+00;  2.7269649E-05;  1.0000000E+04;  0.0000000E+00;  9.9657002E+03;  2.8102033E-02;  0.0000000E+00;  3.8043714E-01;  1.5040909E+04;
  1.0206261E+00;  9.9999998E-03;  2.5876877E-11;2625;  2.5226250E-01;  0.0000000E+00;  4.4638346E-09;  1.0097028E+03;  4.0427628E-01;  7.9634355E+03;3;  7.1601685E+01;  0.0000000E+00; -6.5111053E-06;0;  2.3586565E-01;  1.0014806E+04;  0.0000000E+00;  1.8088793E-14;  1.0000000E+04;  0.0000000E+00;  9.9657275E+03; -1.7244500E-01;  0.0000000E+00;  4.0831065E-01;  1.4613377E+04;
  1.0206279E+00;  9.9999998E-03;  2.0034719E-02;2626;  2.5270408E-01;  0.0000000E+00;  8.5112778E-03;  1.0097042E+03;  4.0427637E-01;  7.9645103E+03;3;  7.1554321E+01;  0.0000000E+00; -1.1949821E+00;0;  2.3517947E-01;  1.0014752E+04;  0.0000000E+00; -1.0238601E-06;  1.0000000E+04;  0.0000000E+00;  9.9658018E+03; -1.7048763E-01;  0.0000000E+00;  4.0566710E-01;  1.4581826E+04;
  1.0206332E+00;  9.9999998E-03;  4.0068492E-02;2627;  2.5400686E-01;  0.0000000E+00;  1.6641809E-02;  1.0097065E+03;  4.0427634E-01;  7.9664609E+03;3;  7.1403427E+01;  0.0000000E+00; -2.2570300E+00;0;  2.3406154E-01;  1.0014592E+04;  0.0000000E+00; -2.1611861E-06;  1.0000000E+04;  0.0000000E+00;  9.9660098E+03; -1.6468436E-01;  0.0000000E+00;  3.9874589E-01;  1.4497553E+04;
  1.0206422E+00;  9.9999998E-03;  6.0101006E-02;2628;  2.5612625E-01;  0.0000000E+00;  2.4185065E-02;  1.0097068E+03;  4.0427634E-01;  7.9667446E+03;3;  7.1158371E+01;  0.0000000E+00; -3.0951777E+00;0;  2.3477614E-01;  1.0014313E+04;  0.0000000E+00;  3.1360106E-08;  1.0000000E+04;  0.0000000E+00;  9.9662910E+03; -1.5520856E-01;  0.0000000E+00;  3.8998470E-01;  1.4379762E+04;
  1.0206543E+00;  9.9999998E-03;  8.0132969E-02;2629;  2.5902447E-01;  0.0000000E+00;  3.1287827E-02;  1.0097023E+03;  4.0427634E-01;  7.9630132E+03;3;  7.0866249E+01;  0.0000000E+00; -3.6561756E+00;0;  2.3957521E-01;  1.0013884E+04;  0.0000000E+00;  4.2088668E-06;  1.0000000E+04;  0.0000000E+00;  9.9666348E+03; -1.4224535E-01;  0.0000000E+00;  3.8182056E-01;  1.4234086E+04;
  1.0206701E+00;  9.9999998E-03;  1.0016572E-01;2630;  2.6268905E-01;  0.0000000E+00;  3.8323600E-02;  1.0096931E+03;  4.0427619E-01;  7.9554624E+03;3;  7.0557640E+01;  0.0000000E+00; -3.9388187E+00;0;  2.4917698E-01;  1.0013257E+04;  0.0000000E+00; -5.6190805E-07;  1.0000000E+04;  0.0000000E+00;  9.9670771E+03; -1.2584460E-01;  0.0000000E+00;  3.7502158E-01;  1.4041522E+04;
  1.0206897E+00;  9.9999998E-03;  1.2019999E-01;2631;  2.6730099E-01;  0.0000000E+00;  4.5775000E-02;  1.0096788E+03;  4.0427607E-01;  7.9436997E+03;3;  7.0434303E+01;  0.0000000E+00; -3.6973817E+00;0;  2.6198947E-01;  1.0012350E+04;  0.0000000E+00; -2.7042497E-05;  1.0000000E+04;  0.0000000E+00;  9.9676992E+03; -1.0560523E-01;  0.0000000E+00;  3.6759472E-01;  1.3767252E+04;
  1.0207140E+00;  9.9999998E-03;  1.4023434E-01;2632;  2.7304938E-01;  0.0000000E+00;  5.3662218E-02;  1.0096546E+03;  4.0427592E-01;  7.9238120E+03;3;  7.0362778E+01;  0.0000000E+00; -2.9288948E+00;0;  2.7545571E-01;  1.0011019E+04;  0.0000000E+00; -6.9408947E-05;  1.0000000E+04;  0.0000000E+00;  9.9685557E+03; -8.0028549E-02;  0.0000000E+00;  3.5548425E-01;  1.3393983E+04;
  1.0406075E+00;  9.9999998E-03;  1.8573074E-11;2656;  2.4740554E-01;  0.0000000E+00;  3.2775689E-09;  1.0085759E+03;  4.0370223E-01;  7.0159341E+03;3;  7.1536057E+01;  0.0000000E+00; -4.6647074E-06;0;  1.4994219E-01;  1.0017931E+04;  0.0000000E+00; -8.7834106E-15;  1.0000000E+04;  0.0000000E+00;  9.9686768E+03; -2.3454836E-01;  0.0000000E+00;  3.8449055E-01;  1.2856159E+04;
  1.0406094E+00;  9.9999998E-03;  2.0031380E-02;2657;  2.4789992E-01;  0.0000000E+00;  7.9099219E-03;  1.0085762E+03;  4.0370223E-01;  7.0161265E+03;3;  7.1468742E+01;  0.0000000E+00; -9.2980319E-01;0;  1.4964058E-01;  1.0017880E+04;  0.0000000E+00; -7.2316951E-08;  1.0000000E+04;  0.0000000E+00;  9.9687334E+03; -2.3268519E-01;  0.0000000E+00;  3.8232577E-01;  1.2834335E+04;
  1.0406150E+00;  9.9999998E-03;  4.0062103E-02;2658;  2.4935001E-01;  0.0000000E+00;  1.5520823E-02;  1.0085762E+03;  4.0370223E-01;  7.0162168E+03;3;  7.1323387E+01;  0.0000000E+00; -1.7272210E+00;0;  1.4940113E-01;  1.0017718E+04;  0.0000000E+00;  2.2566146E-06;  1.0000000E+04;  0.0000000E+00;  9.9688906E+03; -2.2711664E-01;  0.0000000E+00;  3.7651777E-01;  1.2773456E+04;
  1.0406240E+00;  9.9999998E-03;  6.0092065E-02;2659;  2.5167236E-01;  0.0000000E+00;  2.2721952E-02;  1.0085732E+03;  4.0370229E-01;  7.0137671E+03;3;  7.1105904E+01;  0.0000000E+00; -2.3152287E+00;0;  1.5083177E-01;  1.0017431E+04;  0.0000000E+00;  9.5656096E-06;  1.0000000E+04;  0.0000000E+00;  9.9691201E+03; -2.1788098E-01;  0.0000000E+00;  3.6871275E-01;  1.2679978E+04;
  1.0406364E+00;  9.9999998E-03;  8.0121771E-02;2660;  2.5477356E-01;  0.0000000E+00;  2.9669432E-02;  1.0085663E+03;  4.0370214E-01;  7.0080942E+03;3;  7.0829643E+01;  0.0000000E+00; -2.5344021E+00;0;  1.5552035E-01;  1.0016974E+04;  0.0000000E+00;  1.3516668E-05;  1.0000000E+04;  0.0000000E+00;  9.9694375E+03; -2.0498741E-01;  0.0000000E+00;  3.6050776E-01;  1.2549457E+04;
  1.0406524E+00;  9.9999998E-03;  1.0015232E-01;2661;  2.5869116E-01;  0.0000000E+00;  3.6700103E-02;  1.0085545E+03;  4.0370208E-01;  6.9983208E+03;3;  7.0612160E+01;  0.0000000E+00; -2.5166240E+00;0;  1.6388080E-01;  1.0016292E+04;  0.0000000E+00; -1.0703221E-05;  1.0000000E+04;  0.0000000E+00;  9.9698848E+03; -1.8838060E-01;  0.0000000E+00;  3.5226139E-01;  1.2362804E+04;
  1.0406727E+00;  9.9999998E-03;  1.2018391E-01;2662;  2.6356056E-01;  0.0000000E+00;  4.3926720E-02;  1.0085365E+03;  4.0370196E-01;  6.9835688E+03;3;  7.0508156E+01;  0.0000000E+00; -2.2345979E+00;0;  1.7446919E-01;  1.0015292E+04;  0.0000000E+00; -9.0261688E-05;  1.0000000E+04;  0.0000000E+00;  9.9705234E+03; -1.6782562E-01;  0.0000000E+00;  3.4229481E-01;  1.2094878E+04;
  1.0406978E+00;  9.9999998E-03;  1.4021537E-01;2663;  2.6968393E-01;  0.0000000E+00;  5.1438648E-02;  1.0085074E+03;  4.0370193E-01;  6.9597397E+03;3;  7.0548409E+01;  0.0000000E+00; -1.4419941E+00;0;  1.8509300E-01;  1.0013861E+04;  0.0000000E+00; -2.1484768E-04;  1.0000000E+04;  0.0000000E+00;  9.9713779E+03; -1.4239378E-01;  0.0000000E+00;  3.2748678E-01;  1.1738893E+04;
  1.0605865E+00;  9.9999998E-03;  4.4887837E-11;2687;  2.4163176E-01;  0.0000000E+00;  9.7369348E-09;  1.0075449E+03;  4.0319681E-01;  6.1459917E+03;3;  7.1186035E+01;  0.0000000E+00; -3.1968775E-06;0;  8.6696565E-02;  1.0019772E+04;  0.0000000E+00;  5.1006245E-15;  1.0000000E+04;  0.0000000E+00;  9.9714141E+03; -2.7445212E-01;  0.0000000E+00;  3.6114869E-01;  1.1177078E+04;
  1.0605884E+00;  9.9999998E-03;  2.0028219E-02;2688;  2.4217264E-01;  0.0000000E+00;  7.2629494E-03;  1.0075443E+03;  4.0319684E-01;  6.1455034E+03;3;  7.1161484E+01;  0.0000000E+00; -6.7502791E-01;0;  8.6762488E-02;  1.0019716E+04;  0.0000000E+00;  2.3960440E-06;  1.0000000E+04;  0.0000000E+00;  9.9714590E+03; -2.7255607E-01;  0.0000000E+00;  3.5931855E-01;  1.1160050E+04;
  1.0605941E+00;  9.9999998E-03;  4.0056158E-02;2689;  2.4370582E-01;  0.0000000E+00;  1.4414239E-02;  1.0075421E+03;  4.0319684E-01;  6.1437466E+03;3;  7.0953751E+01;  0.0000000E+00; -1.0792234E+00;0;  8.7385386E-02;  1.0019539E+04;  0.0000000E+00;  1.1073501E-05;  1.0000000E+04;  0.0000000E+00;  9.9715947E+03; -2.6682636E-01;  0.0000000E+00;  3.5421175E-01;  1.1109314E+04;
  1.0606033E+00;  9.9999998E-03;  6.0083821E-02;2690;  2.4617498E-01;  0.0000000E+00;  2.1418782E-02;  1.0075365E+03;  4.0319681E-01;  6.1391689E+03;3;  7.0820213E+01;  0.0000000E+00; -1.3323367E+00;0;  8.9599192E-02;  1.0019202E+04;  0.0000000E+00;  2.3616218E-05;  1.0000000E+04;  0.0000000E+00;  9.9718203E+03; -2.5714314E-01;  0.0000000E+00;  3.4674233E-01;  1.1022709E+04;
  1.0606159E+00;  9.9999998E-03;  8.0111705E-02;2691;  2.4952309E-01;  0.0000000E+00;  2.8316576E-02;  1.0075263E+03;  4.0319684E-01;  6.1307983E+03;3;  7.0665077E+01;  0.0000000E+00; -1.4847707E+00;0;  9.4438255E-02;  1.0018657E+04;  0.0000000E+00;  2.0036954E-05;  1.0000000E+04;  0.0000000E+00;  9.9721592E+03; -2.4333432E-01;  0.0000000E+00;  3.3777258E-01;  1.0891292E+04;
  1.0606323E+00;  9.9999998E-03;  1.0014015E-01;2692;  2.5377023E-01;  0.0000000E+00;  3.5190884E-02;  1.0075093E+03;  4.0319663E-01;  6.1168872E+03;3;  7.0561478E+01;  0.0000000E+00; -1.4335349E+00;0;  1.0211365E-01;  1.0017835E+04;  0.0000000E+00; -3.9005434E-05;  1.0000000E+04;  0.0000000E+00;  9.9726416E+03; -2.2525765E-01;  0.0000000E+00;  3.2737130E-01;  1.0701016E+04;
  1.0606532E+00;  9.9999998E-03;  1.2016909E-01;2693;  2.5905165E-01;  0.0000000E+00;  4.2082429E-02;  1.0074826E+03;  4.0319669E-01;  6.0952012E+03;3;  7.0462410E+01;  0.0000000E+00; -1.1020050E+00;0;  1.1146931E-01;  1.0016650E+04;  0.0000000E+00; -1.8670499E-04;  1.0000000E+04;  0.0000000E+00;  9.9732949E+03; -2.0286240E-01;  0.0000000E+00;  3.1433171E-01;  1.0440313E+04;
  1.0606796E+00;  9.9999998E-03;  1.4019684E-01;2694;  2.6558033E-01;  0.0000000E+00;  4.8803028E-02;  1.0074409E+03;  4.0319660E-01;  6.0610776E+03;3;  7.0485329E+01;  0.0000000E+00; -3.8195565E-01;0;  1.2075195E-01;  1.0015000E+04;  0.0000000E+00; -5.9006282E-04;  1.0000000E+04;  0.0000000E+00;  9.9741133E+03; -1.7592961E-01;  0.0000000E+00;  2.9668155E-01;  1.0115680E+04;
  1.0805639E+00;  9.9999998E-03;  1.5767552E-11;2718;  2.3504061E-01;  0.0000000E+00;  6.7363857E-09;  1.0066361E+03;  4.0276295E-01;  5.3749937E+03;3;  7.0521629E+01;  0.0000000E+00;  2.3432322E-06;0;  3.7750155E-02;  1.0020680E+04;  0.0000000E+00; -4.8515104E-15;  1.0000000E+04;  0.0000000E+00;  9.9739863E+03; -2.9984659E-01;  0.0000000E+00;  3.3759674E-01;  9.5755303E+03;
  1.0805658E+00;  9.9999998E-03;  2.0025533E-02;2719;  2.3557052E-01;  0.0000000E+00;  6.7770435E-03;  1.0066350E+03;  4.0276280E-01;  5.3740249E+03;3;  7.0438171E+01;  0.0000000E+00; -2.9640970E-01;0;  3.8103402E-02;  1.0020612E+04;  0.0000000E+00;  5.0273043E-06;  1.0000000E+04;  0.0000000E+00;  9.9740332E+03; -2.9781035E-01;  0.0000000E+00;  3.3591375E-01;  9.5588945E+03;
  1.0805715E+00;  9.9999998E-03;  4.0051062E-02;2720;  2.3721613E-01;  0.0000000E+00;  1.3530696E-02;  1.0066310E+03;  4.0276289E-01;  5.3708276E+03;3;  7.0389084E+01;  0.0000000E+00; -6.1001927E-01;0;  3.9406300E-02;  1.0020387E+04;  0.0000000E+00;  1.7955817E-05;  1.0000000E+04;  0.0000000E+00;  9.9741787E+03; -2.9159781E-01;  0.0000000E+00;  3.3100411E-01;  9.5073174E+03;
  1.0805808E+00;  9.9999998E-03;  6.0076747E-02;2721;  2.3988213E-01;  0.0000000E+00;  2.0228716E-02;  1.0066224E+03;  4.0276271E-01;  5.3638594E+03;3;  7.0304764E+01;  0.0000000E+00; -8.1001365E-01;0;  4.2286754E-02;  1.0019967E+04;  0.0000000E+00;  2.5650379E-05;  1.0000000E+04;  0.0000000E+00;  9.9744307E+03; -2.8093767E-01;  0.0000000E+00;  3.2322443E-01;  9.4156768E+03;
  1.0805938E+00;  9.9999998E-03;  8.0102727E-02;2722;  2.4351121E-01;  0.0000000E+00;  2.6902474E-02;  1.0066072E+03;  4.0276277E-01;  5.3514780E+03;3;  7.0220207E+01;  0.0000000E+00; -8.0787122E-01;0;  4.7408372E-02;  1.0019289E+04;  0.0000000E+00; -6.2084068E-06;  1.0000000E+04;  0.0000000E+00;  9.9748066E+03; -2.6551220E-01;  0.0000000E+00;  3.1292057E-01;  9.2769512E+03;
  1.0806109E+00;  9.9999998E-03;  1.0012892E-01;2723;  2.4811263E-01;  0.0000000E+00;  3.3466287E-02;  1.0065814E+03;  4.0276262E-01;  5.3305923E+03;3;  7.0153313E+01;  0.0000000E+00; -5.9248990E-01;0;  5.4887816E-02;  1.0018263E+04;  0.0000000E+00; -1.2380363E-04;  1.0000000E+04;  0.0000000E+00;  9.9753193E+03; -2.4516793E-01;  0.0000000E+00;  3.0005574E-01;  9.0863340E+03;
  1.0806328E+00;  9.9999998E-03;  1.2015477E-01;2724;  2.5385463E-01;  0.0000000E+00;  3.9855562E-02;  1.0065407E+03;  4.0276271E-01;  5.2975332E+03;3;  7.0138062E+01;  0.0000000E+00; -1.4085521E-01;0;  6.3918278E-02;  1.0016813E+04;  0.0000000E+00; -3.4518668E-04;  1.0000000E+04;  0.0000000E+00;  9.9759561E+03; -2.2010948E-01;  0.0000000E+00;  2.8402776E-01;  8.8467148E+03;
  1.0806602E+00;  9.9999998E-03;  1.4017867E-01;2725;  2.6088741E-01;  0.0000000E+00;  4.5854546E-02;  1.0064811E+03;  4.0276274E-01;  5.2492104E+03;3;  7.0274696E+01;  0.0000000E+00;  6.1976105E-01;0;  7.3101729E-02;  1.0014912E+04;  0.0000000E+00; -4.2966008E-03;  1.0000000E+04;  0.0000000E+00;  9.9766641E+03; -1.9116542E-01;  0.0000000E+00;  2.6426715E-01;  8.5799121E+03;
  1.1005408E+00;  9.9999998E-03; -5.8960345E-12;2748;  2.2793587E-01;  0.0000000E+00;  1.2801795E-09;  1.0058521E+03;  4.0239850E-01;  4.7043491E+03;3;  6.9594009E+01;  0.0000000E+00;  7.1199493E-06;0;  4.2274594E-04;  1.0020721E+04;  0.0000000E+00; -3.0991120E-16;  1.0000000E+04;  0.0000000E+00;  9.9764521E+03; -3.1252682E-01;  0.0000000E+00;  3.1294957E-01;  8.0531016E+03;
  1.1005427E+00;  9.9999998E-03;  2.0023184E-02;2749;  2.2850120E-01;  0.0000000E+00;  6.2650680E-03;  1.0058503E+03;  4.0239877E-01;  4.7029082E+03;3;  6.9540581E+01;  0.0000000E+00; -2.2565293E-01;0;  9.7984076E-04;  1.0020629E+04;  0.0000000E+00;  4.2358474E-06;  1.0000000E+04;  0.0000000E+00;  9.9765039E+03; -3.1026188E-01;  0.0000000E+00;  3.1124172E-01;  8.0346372E+03;
  1.1005484E+00;  9.9999998E-03;  4.0046599E-02;2750;  2.3022951E-01;  0.0000000E+00;  1.2600849E-02;  1.0058442E+03;  4.0239865E-01;  4.6980093E+03;3;  6.9471931E+01;  0.0000000E+00; -3.5192186E-01;0;  2.8048158E-03;  1.0020333E+04;  0.0000000E+00;  8.9455598E-06;  1.0000000E+04;  0.0000000E+00;  9.9766709E+03; -3.0330834E-01;  0.0000000E+00;  3.0611315E-01;  7.9778291E+03;
  1.1005580E+00;  9.9999998E-03;  6.0070347E-02;2751;  2.3307073E-01;  0.0000000E+00;  1.9006670E-02;  1.0058309E+03;  4.0239856E-01;  4.6872568E+03;3;  6.9437614E+01;  0.0000000E+00; -3.2651082E-01;0;  6.3188970E-03;  1.0019790E+04;  0.0000000E+00; -1.2171997E-05;  1.0000000E+04;  0.0000000E+00;  9.9769541E+03; -2.9127321E-01;  0.0000000E+00;  2.9759210E-01;  7.8798848E+03;
  1.1005714E+00;  9.9999998E-03;  8.0094248E-02;2752;  2.3697582E-01;  0.0000000E+00;  2.5383297E-02;  1.0058070E+03;  4.0239862E-01;  4.6680640E+03;3;  6.9446922E+01;  0.0000000E+00; -1.2657042E-01;0;  1.1991382E-02;  1.0018903E+04;  0.0000000E+00; -1.0164019E-04;  1.0000000E+04;  0.0000000E+00;  9.9773604E+03; -2.7377960E-01;  0.0000000E+00;  2.8577098E-01;  7.7404009E+03;
  1.1005894E+00;  9.9999998E-03;  1.0011805E-01;2753;  2.4201734E-01;  0.0000000E+00;  3.1620197E-02;  1.0057670E+03;  4.0239850E-01;  4.6358301E+03;3;  6.9476776E+01;  0.0000000E+00;  2.2252677E-01;0;  1.9919783E-02;  1.0017610E+04;  0.0000000E+00; -2.9350034E-04;  1.0000000E+04;  0.0000000E+00;  9.9778564E+03; -2.5080588E-01;  0.0000000E+00;  2.7072567E-01;  7.5653628E+03;
  1.1006122E+00;  9.9999998E-03;  1.2014013E-01;2754;  2.4825780E-01;  0.0000000E+00;  3.7347201E-02;  1.0057070E+03;  4.0239850E-01;  4.5875840E+03;3;  6.9587753E+01;  0.0000000E+00;  7.7749234E-01;0;  2.9499173E-02;  1.0015865E+04;  0.0000000E+00; -1.9022198E-03;  1.0000000E+04;  0.0000000E+00;  9.9784043E+03; -2.2310394E-01;  0.0000000E+00;  2.5260311E-01;  7.3706665E+03;
  1.1006416E+00;  9.9999998E-03;  1.4016069E-01;2755;  2.5604844E-01;  0.0000000E+00;  4.2447831E-02;  1.0056289E+03;  4.0239862E-01;  4.5247603E+03;3;  6.9876701E+01;  0.0000000E+00;  1.4098125E+00;0;  3.8977921E-02;  1.0013819E+04;  0.0000000E+00; -2.6026066E-02;  1.0000000E+04;  0.0000000E+00;  9.9788896E+03; -1.9356632E-01;  0.0000000E+00;  2.3254424E-01;  7.1948057E+03;
  1.1205181E+00;  9.9999998E-03; -1.7923706E-11;2777;  2.2068247E-01;  0.0000000E+00;  9.6442321E-10;  1.0051826E+03;  4.0210015E-01;  4.1251416E+03;3;  6.8370354E+01;  0.0000000E+00;  8.6916152E-06;0; -2.5588065E-02;  1.0019848E+04;  0.0000000E+00;  4.1716868E-16;  1.0000000E+04;  0.0000000E+00;  9.9788379E+03; -3.1197947E-01;  0.0000000E+00;  2.8639141E-01;  6.6238198E+03;
  1.1205201E+00;  9.9999998E-03;  2.0021122E-02;2778;  2.2126921E-01;  0.0000000E+00;  5.8109192E-03;  1.0051793E+03;  4.0210012E-01;  4.1224805E+03;3;  6.8407600E+01;  0.0000000E+00;  5.2640550E-02;0; -2.4817348E-02;  1.0019722E+04;  0.0000000E+00; -4.4757994E-06;  1.0000000E+04;  0.0000000E+00;  9.9788994E+03; -3.0939490E-01;  0.0000000E+00;  2.8457755E-01;  6.6044814E+03;
  1.1205260E+00;  9.9999998E-03;  4.0042546E-02;2779;  2.2303684E-01;  0.0000000E+00;  1.1707222E-02;  1.0051683E+03;  4.0210018E-01;  4.1137373E+03;3;  6.8295517E+01;  0.0000000E+00; -6.8322003E-02;0; -2.2376925E-02;  1.0019318E+04;  0.0000000E+00; -3.0001942E-05;  1.0000000E+04;  0.0000000E+00;  9.9790791E+03; -3.0145639E-01;  0.0000000E+00;  2.7907947E-01;  6.5466045E+03;
  1.1205357E+00;  9.9999998E-03;  6.0064193E-02;2780;  2.2607137E-01;  0.0000000E+00;  1.7788718E-02;  1.0051461E+03;  4.0210029E-01;  4.0959712E+03;3;  6.8357933E+01;  0.0000000E+00;  1.6624069E-01;0; -1.7942101E-02;  1.0018583E+04;  0.0000000E+00; -1.0827982E-04;  1.0000000E+04;  0.0000000E+00;  9.9793711E+03; -2.8775319E-01;  0.0000000E+00;  2.6981109E-01;  6.4522432E+03;
  1.1205498E+00;  9.9999998E-03;  8.0085941E-02;2781;  2.3032047E-01;  0.0000000E+00;  2.3804935E-02;  1.0051076E+03;  4.0210024E-01;  4.0653857E+03;3;  6.8448341E+01;  0.0000000E+00;  4.5795327E-01;0; -1.1163861E-02;  1.0017438E+04;  0.0000000E+00; -2.7217704E-04;  1.0000000E+04;  0.0000000E+00;  9.9797451E+03; -2.6801950E-01;  0.0000000E+00;  2.5685564E-01;  6.3288608E+03;
  1.1205685E+00;  9.9999998E-03;  1.0010627E-01;2782;  2.3583448E-01;  0.0000000E+00;  2.9405987E-02;  1.0050480E+03;  4.0210012E-01;  4.0178071E+03;3;  6.8653732E+01;  0.0000000E+00;  9.5642710E-01;0; -2.0718724E-03;  1.0015844E+04;  0.0000000E+00; -1.7442905E-03;  1.0000000E+04;  0.0000000E+00;  9.9801465E+03; -2.4271485E-01;  0.0000000E+00;  2.4064298E-01;  6.1923218E+03;
  1.1205931E+00;  9.9999998E-03;  1.2012497E-01;2783;  2.4276647E-01;  0.0000000E+00;  3.4202658E-02;  1.0049685E+03;  4.0210027E-01;  3.9545601E+03;3;  6.8889946E+01;  0.0000000E+00;  1.4063122E+00;0;  8.1464052E-03;  1.0013910E+04;  0.0000000E+00; -1.9141143E-02;  1.0000000E+04;  0.0000000E+00;  9.9804961E+03; -2.1421759E-01;  0.0000000E+00;  2.2236399E-01;  6.0707656E+03;
  1.1206239E+00;  9.9999998E-03;  1.4014073E-01;2784;  2.5134116E-01;  0.0000000E+00;  3.8173676E-02;  1.0048814E+03;  4.0210003E-01;  3.8851343E+03;3;  6.9578217E+01;  0.0000000E+00;  2.0165541E+00;0;  1.6874790E-02;  1.0012007E+04;  0.0000000E+00; -1.0581578E-01;  1.0000000E+04;  0.0000000E+00;  9.9806641E+03; -1.8751499E-01;  0.0000000E+00;  2.0438978E-01;  6.0133438E+03;
  1.1404970E+00;  9.9999998E-03;  9.8916682E-12;2805;  2.1355166E-01;  0.0000000E+00;  2.9996874E-10;  1.0046029E+03;  4.0186077E-01;  3.6168411E+03;3;  6.6991493E+01;  0.0000000E+00; -3.3782089E-06;0; -4.0137231E-02;  1.0017923E+04;  0.0000000E+00; -7.5607254E-15;  1.0000000E+04;  0.0000000E+00;  9.9811279E+03; -2.9769167E-01;  0.0000000E+00;  2.5755444E-01;  5.3181929E+03;
  1.1404990E+00;  9.9999998E-03;  2.0019162E-02;2806;  2.1417513E-01;  0.0000000E+00;  5.4186150E-03;  1.0045967E+03;  4.0186065E-01;  3.6119651E+03;3;  6.7031555E+01;  0.0000000E+00;  2.4490398E-01;0; -3.9049059E-02;  1.0017745E+04;  0.0000000E+00; -2.1421080E-05;  1.0000000E+04;  0.0000000E+00;  9.9811865E+03; -2.9472369E-01;  0.0000000E+00;  2.5567463E-01;  5.3010957E+03;
  1.1405050E+00;  9.9999998E-03;  4.0038440E-02;2807;  2.1602552E-01;  0.0000000E+00;  1.0862381E-02;  1.0045775E+03;  4.0186074E-01;  3.5968682E+03;3;  6.7072510E+01;  0.0000000E+00;  3.5376623E-01;0; -3.5687655E-02;  1.0017203E+04;  0.0000000E+00; -9.5477786E-05;  1.0000000E+04;  0.0000000E+00;  9.9813457E+03; -2.8568107E-01;  0.0000000E+00;  2.4999341E-01;  5.2515532E+03;
  1.1405151E+00;  9.9999998E-03;  6.0057931E-02;2808;  2.1925899E-01;  0.0000000E+00;  1.6456114E-02;  1.0045414E+03;  4.0186074E-01;  3.5684595E+03;3;  6.7105438E+01;  0.0000000E+00;  5.1087248E-01;0; -2.9854789E-02;  1.0016237E+04;  0.0000000E+00; -3.6934603E-04;  1.0000000E+04;  0.0000000E+00;  9.9815859E+03; -2.7034310E-01;  0.0000000E+00;  2.4048831E-01;  5.1760186E+03;
  1.1405298E+00;  9.9999998E-03;  8.0076516E-02;2809;  2.2389388E-01;  0.0000000E+00;  2.1831017E-02;  1.0044849E+03;  4.0186074E-01;  3.5240220E+03;3;  6.7398140E+01;  0.0000000E+00;  9.8471022E-01;0; -2.1574616E-02;  1.0014842E+04;  0.0000000E+00; -3.3142162E-03;  1.0000000E+04;  0.0000000E+00;  9.9818506E+03; -2.4907474E-01;  0.0000000E+00;  2.2750013E-01;  5.0889419E+03;
  1.1405499E+00;  9.9999998E-03;  1.0009372E-01;2810;  2.2999121E-01;  0.0000000E+00;  2.6473457E-02;  1.0044083E+03;  4.0186065E-01;  3.4637415E+03;3;  6.7685379E+01;  0.0000000E+00;  1.3710235E+00;0; -1.1719257E-02;  1.0013107E+04;  0.0000000E+00; -2.2871548E-02;  1.0000000E+04;  0.0000000E+00;  9.9820566E+03; -2.2381009E-01;  0.0000000E+00;  2.1209083E-01;  5.0144863E+03;
  1.1405758E+00;  9.9999998E-03;  1.2010793E-01;2811;  2.3771134E-01;  0.0000000E+00;  3.0240634E-02;  1.0043213E+03;  4.0186077E-01;  3.3953936E+03;3;  6.8413498E+01;  0.0000000E+00;  1.9199523E+00;0; -2.3878515E-03;  1.0011320E+04;  0.0000000E+00; -1.0150068E-01;  1.0000000E+04;  0.0000000E+00;  9.9821045E+03; -1.9857848E-01;  0.0000000E+00;  1.9619063E-01;  4.9894907E+03;
  1.1406091E+00;  9.9999998E-03;  1.4012049E-01;2812;  2.4706648E-01;  0.0000000E+00;  3.2913491E-02;  1.0042431E+03;  4.0186071E-01;  3.3338677E+03;3;  6.9410591E+01;  0.0000000E+00;  2.2070856E+00;0;  3.2004118E-03;  1.0009918E+04;  0.0000000E+00; -3.1667629E-01;  1.0000000E+04;  0.0000000E+00;  9.9819473E+03; -1.7885497E-01;  0.0000000E+00;  1.8205538E-01;  5.0969961E+03;
  1.1604780E+00;  9.9999998E-03;  1.3148429E-11;2832;  2.0689394E-01;  0.0000000E+00;  7.1820100E-10;  1.0040829E+03;  4.0167290E-01;  3.1555586E+03;3;  6.5589973E+01;  0.0000000E+00; -6.3042535E-06;0; -4.3815911E-02;  1.0014804E+04;  0.0000000E+00; -8.0947280E-15;  1.0000000E+04;  0.0000000E+00;  9.9832314E+03; -2.7054888E-01;  0.0000000E+00;  2.2673297E-01;  4.1738481E+03;
  1.1604800E+00;  9.9999998E-03;  2.0017033E-02;2833;  2.0754005E-01;  0.0000000E+00;  4.9542016E-03;  1.0040736E+03;  4.0167281E-01;  3.1483665E+03;3;  6.5650536E+01;  0.0000000E+00;  3.8781437E-01;0; -4.2321712E-02;  1.0014585E+04;  0.0000000E+00; -8.3609659E-05;  1.0000000E+04;  0.0000000E+00;  9.9832656E+03; -2.6726985E-01;  0.0000000E+00;  2.2494814E-01;  4.1621626E+03;
  1.1604861E+00;  9.9999998E-03;  4.0033951E-02;2834;  2.0951806E-01;  0.0000000E+00;  9.8642474E-03;  1.0040450E+03;  4.0167284E-01;  3.1262368E+03;3;  6.5754547E+01;  0.0000000E+00;  6.0052562E-01;0; -3.7918031E-02;  1.0013916E+04;  0.0000000E+00; -1.2630298E-03;  1.0000000E+04;  0.0000000E+00;  9.9833643E+03; -2.5756156E-01;  0.0000000E+00;  2.1964353E-01;  4.1300947E+03;
  1.1604967E+00;  9.9999998E-03;  6.0050569E-02;2835;  2.1296106E-01;  0.0000000E+00;  1.4729361E-02;  1.0039965E+03;  4.0167281E-01;  3.0887085E+03;3;  6.5902863E+01;  0.0000000E+00;  8.5175318E-01;0; -3.0919388E-02;  1.0012829E+04;  0.0000000E+00; -8.2011512E-03;  1.0000000E+04;  0.0000000E+00;  9.9834785E+03; -2.4198137E-01;  0.0000000E+00;  2.1106198E-01;  4.0875791E+03;
  1.1605124E+00;  9.9999998E-03;  8.0066256E-02;2836;  2.1810228E-01;  0.0000000E+00;  1.9165110E-02;  1.0039292E+03;  4.0167293E-01;  3.0367014E+03;3;  6.6309677E+01;  0.0000000E+00;  1.1853750E+00;0; -2.2238016E-02;  1.0011425E+04;  0.0000000E+00; -3.6930159E-02;  1.0000000E+04;  0.0000000E+00;  9.9835391E+03; -2.2221316E-01;  0.0000000E+00;  1.9997515E-01;  4.0538914E+03;
  1.1605337E+00;  9.9999998E-03;  1.0007924E-01;2837;  2.2485113E-01;  0.0000000E+00;  2.2739954E-02;  1.0038505E+03;  4.0167287E-01;  2.9758367E+03;3;  6.7137741E+01;  0.0000000E+00;  1.7181482E+00;0; -1.3608709E-02;  1.0009922E+04;  0.0000000E+00; -1.2398834E-01;  1.0000000E+04;  0.0000000E+00;  9.9834746E+03; -2.0132396E-01;  0.0000000E+00;  1.8771525E-01;  4.0603604E+03;
  1.1605618E+00;  9.9999998E-03;  1.2009050E-01;2838;  2.3322433E-01;  0.0000000E+00;  2.5273977E-02;  1.0037761E+03;  4.0167293E-01;  2.9181797E+03;3;  6.8088943E+01;  0.0000000E+00;  1.9636678E+00;0; -7.8648180E-03;  1.0008682E+04;  0.0000000E+00; -3.3456632E-01;  1.0000000E+04;  0.0000000E+00;  9.9832324E+03; -1.8381725E-01;  0.0000000E+00;  1.7595243E-01;  4.1787158E+03;
  1.1605983E+00;  9.9999998E-03;  1.4010212E-01;2839;  2.4373725E-01;  0.0000000E+00;  2.7546708E-02;  1.0037272E+03;  4.0167305E-01;  2.8803101E+03;3;  7.0224220E+01;  0.0000000E+00;  2.1842120E+00;0; -7.7298284E-03;  1.0008106E+04;  0.0000000E+00; -7.3837876E-01;  1.0000000E+04;  0.0000000E+00;  9.9828330E+03; -1.7388588E-01;  0.0000000E+00;  1.6615605E-01;  4.5869912E+03;
  1.1804614E+00;  9.9999998E-03;  8.0746599E-12;2858;  2.0104411E-01;  0.0000000E+00;  3.0944183E-09;  1.0036047E+03;  4.0152848E-01;  2.7280791E+03;3;  6.4391586E+01;  0.0000000E+00; -7.7746954E-06;0; -4.0041924E-02;  1.0010691E+04;  0.0000000E+00; -5.5147257E-15;  1.0000000E+04;  0.0000000E+00;  9.9849971E+03; -2.3502237E-01;  0.0000000E+00;  1.9498044E-01;  3.2217441E+03;
  1.1804634E+00;  9.9999998E-03;  2.0014478E-02;2859;  2.0175548E-01;  0.0000000E+00;  4.3316572E-03;  1.0035936E+03;  4.0152854E-01;  2.7197717E+03;3;  6.4471008E+01;  0.0000000E+00;  4.4744864E-01;0; -3.8326472E-02;  1.0010465E+04;  0.0000000E+00; -1.9130958E-03;  1.0000000E+04;  0.0000000E+00;  9.9849980E+03; -2.3195137E-01;  0.0000000E+00;  1.9362490E-01;  3.2174988E+03;
  1.1804699E+00;  9.9999998E-03;  4.0028807E-02;2860;  2.0384398E-01;  0.0000000E+00;  8.5062440E-03;  1.0035609E+03;  4.0152863E-01;  2.6949412E+03;3;  6.4653748E+01;  0.0000000E+00;  7.8827137E-01;0; -3.3567101E-02;  1.0009824E+04;  0.0000000E+00; -1.3993578E-02;  1.0000000E+04;  0.0000000E+00;  9.9849893E+03; -2.2327082E-01;  0.0000000E+00;  1.8970372E-01;  3.2083921E+03;
  1.1804811E+00;  9.9999998E-03;  6.0042452E-02;2861;  2.0764509E-01;  0.0000000E+00;  1.2454337E-02;  1.0035107E+03;  4.0152851E-01;  2.6569238E+03;3;  6.4953125E+01;  0.0000000E+00;  9.1381484E-01;0; -2.6815608E-02;  1.0008882E+04;  0.0000000E+00; -5.5517159E-02;  1.0000000E+04;  0.0000000E+00;  9.9849287E+03; -2.1051930E-01;  0.0000000E+00;  1.8370369E-01;  3.2067280E+03;
  1.1804978E+00;  9.9999998E-03;  8.0054395E-02;2862;  2.1313156E-01;  0.0000000E+00;  1.5708223E-02;  1.0034498E+03;  4.0152860E-01;  2.6107715E+03;3;  6.5749947E+01;  0.0000000E+00;  1.3217658E+00;0; -1.9905165E-02;  1.0007832E+04;  0.0000000E+00; -1.6331954E-01;  1.0000000E+04;  0.0000000E+00;  9.9847637E+03; -1.9632447E-01;  0.0000000E+00;  1.7641930E-01;  3.2405383E+03;
  1.1805211E+00;  9.9999998E-03;  1.0006487E-01;2863;  2.2049242E-01;  0.0000000E+00;  1.8175459E-02;  1.0033911E+03;  4.0152860E-01;  2.5662246E+03;3;  6.6953514E+01;  0.0000000E+00;  1.5744984E+00;0; -1.5347183E-02;  1.0006972E+04;  0.0000000E+00; -3.9069843E-01;  1.0000000E+04;  0.0000000E+00;  9.9844521E+03; -1.8407540E-01;  0.0000000E+00;  1.6872822E-01;  3.3784543E+03;
  1.1805520E+00;  9.9999998E-03;  1.2007541E-01;2864;  2.2984669E-01;  0.0000000E+00;  2.0443747E-02;  1.0033520E+03;  4.0152863E-01;  2.5366326E+03;3;  6.9075592E+01;  0.0000000E+00;  1.8388501E+00;0; -1.5563130E-02;  1.0006633E+04;  0.0000000E+00; -7.9534221E-01;  1.0000000E+04;  0.0000000E+00;  9.9840127E+03; -1.7716411E-01;  0.0000000E+00;  1.6160098E-01;  3.7717231E+03;
  1.1805927E+00;  9.9999998E-03;  1.4008826E-01;2865;  2.4116556E-01;  0.0000000E+00;  2.2595102E-02;  1.0033458E+03;  4.0152863E-01;  2.5317305E+03;3;  7.2250572E+01;  0.0000000E+00;  2.0210583E+00;0; -2.1512911E-02;  1.0007019E+04;  0.0000000E+00; -1.3952329E+00;  1.0000000E+04;  0.0000000E+00;  9.9835068E+03; -1.7690830E-01;  0.0000000E+00;  1.5539539E-01;  4.5964565E+03;
  1.2004477E+00;  9.9999998E-03;  1.3532199E-11;2882;  1.9621447E-01;  0.0000000E+00;  2.4174396E-09;  1.0031751E+03;  4.0141991E-01;  2.3411284E+03;3;  6.3808685E+01;  0.0000000E+00; -1.3412588E-05;0; -3.5387680E-02;  1.0006256E+04;  0.0000000E+00; -1.6347089E-14;  1.0000000E+04;  0.0000000E+00;  9.9862695E+03; -1.9968766E-01;  0.0000000E+00;  1.6429998E-01;  2.4749270E+03;
  1.2004498E+00;  9.9999998E-03;  2.0011781E-02;2883;  1.9695458E-01;  0.0000000E+00;  3.4647388E-03;  1.0031655E+03;  4.0141991E-01;  2.3340015E+03;3;  6.3878468E+01;  0.0000000E+00;  4.1892108E-01;0; -3.3861950E-02;  1.0006102E+04;  0.0000000E+00; -1.0773318E-02;  1.0000000E+04;  0.0000000E+00;  9.9862393E+03; -1.9761235E-01;  0.0000000E+00;  1.6375040E-01;  2.4778809E+03;
  1.2004567E+00;  9.9999998E-03;  4.0023256E-02;2884;  1.9930139E-01;  0.0000000E+00;  6.7675365E-03;  1.0031387E+03;  4.0141991E-01;  2.3142017E+03;3;  6.4302551E+01;  0.0000000E+00;  7.2670162E-01;0; -2.9874265E-02;  1.0005679E+04;  0.0000000E+00; -5.7603147E-02;  1.0000000E+04;  0.0000000E+00;  9.9861221E+03; -1.9207679E-01;  0.0000000E+00;  1.6220252E-01;  2.4913477E+03;
  1.2004689E+00;  9.9999998E-03;  6.0033955E-02;2885;  2.0323518E-01;  0.0000000E+00;  9.5030544E-03;  1.0031025E+03;  4.0142003E-01;  2.2875295E+03;3;  6.4836494E+01;  0.0000000E+00;  8.8290668E-01;0; -2.5289401E-02;  1.0005170E+04;  0.0000000E+00; -1.8002449E-01;  1.0000000E+04;  0.0000000E+00;  9.9859063E+03; -1.8523762E-01;  0.0000000E+00;  1.5994821E-01;  2.5370364E+03;
  1.2004874E+00;  9.9999998E-03;  8.0043688E-02;2886;  2.0918025E-01;  0.0000000E+00;  1.1762652E-02;  1.0030688E+03;  4.0141997E-01;  2.2625947E+03;3;  6.6032166E+01;  0.0000000E+00;  1.0727175E+00;0; -2.2715151E-02;  1.0004827E+04;  0.0000000E+00; -4.2999038E-01;  1.0000000E+04;  0.0000000E+00;  9.9855771E+03; -1.7995892E-01;  0.0000000E+00;  1.5724377E-01;  2.6801301E+03;
  1.2005130E+00;  9.9999998E-03;  1.0005362E-01;2887;  2.1722217E-01;  0.0000000E+00;  1.4009040E-02;  1.0030518E+03;  4.0142000E-01;  2.2500310E+03;3;  6.8476334E+01;  0.0000000E+00;  1.3678367E+00;0; -2.4311066E-02;  1.0004926E+04;  0.0000000E+00; -8.5142976E-01;  1.0000000E+04;  0.0000000E+00;  9.9851426E+03; -1.7864794E-01;  0.0000000E+00;  1.5433687E-01;  3.0520864E+03;
  1.2005484E+00;  9.9999998E-03;  1.2006638E-01;2888;  2.2728400E-01;  0.0000000E+00;  1.6283143E-02;  1.0030588E+03;  4.0141994E-01;  2.2550132E+03;3;  7.1578957E+01;  0.0000000E+00;  1.3872569E+00;0; -3.0613109E-02;  1.0005592E+04;  0.0000000E+00; -1.4537152E+00;  1.0000000E+04;  0.0000000E+00;  9.9846211E+03; -1.8191886E-01;  0.0000000E+00;  1.5130575E-01;  3.7830129E+03;
  1.2005972E+00;  9.9999998E-03;  1.4008412E-01;2889;  2.3973621E-01;  0.0000000E+00;  1.8971762E-02;  1.0030664E+03;  4.0141988E-01;  2.2604785E+03;3;  7.6350021E+01;  0.0000000E+00;  1.5214814E+00;0; -3.6448464E-02;  1.0006411E+04;  0.0000000E+00; -2.1870716E+00;  1.0000000E+04;  0.0000000E+00;  9.9839629E+03; -1.8504056E-01;  0.0000000E+00;  1.4859210E-01;  4.8540806E+03;
  1.2204373E+00;  9.9999998E-03;  1.2352572E-11;2905;  1.9222973E-01;  0.0000000E+00;  1.7455219E-10;  1.0028183E+03;  4.0133986E-01;  2.0131982E+03;3;  6.4341072E+01;  0.0000000E+00; -1.1971562E-05;0; -3.6543459E-02;  1.0002404E+04;  0.0000000E+00; -3.3193483E-15;  1.0000000E+04;  0.0000000E+00;  9.9869932E+03; -1.7342183E-01;  0.0000000E+00;  1.3687837E-01;  1.9223486E+03;
  1.2204399E+00;  9.9999998E-03;  2.0009682E-02;2906;  1.9303142E-01;  0.0000000E+00;  2.4533246E-03;  1.0028138E+03;  4.0133995E-01;  2.0099535E+03;3;  6.4495667E+01;  0.0000000E+00;  3.2715851E-01;0; -3.5589203E-02;  1.0002372E+04;  0.0000000E+00; -2.9306866E-02;  1.0000000E+04;  0.0000000E+00;  9.9869355E+03; -1.7286952E-01;  0.0000000E+00;  1.3728032E-01;  1.9306687E+03;
  1.2204477E+00;  9.9999998E-03;  4.0018957E-02;2907;  1.9553603E-01;  0.0000000E+00;  4.6041277E-03;  1.0028035E+03;  4.0133995E-01;  2.0025181E+03;3;  6.4995522E+01;  0.0000000E+00;  4.2500606E-01;0; -3.3660591E-02;  1.0002346E+04;  0.0000000E+00; -1.3825887E-01;  1.0000000E+04;  0.0000000E+00;  9.9867607E+03; -1.7204010E-01;  0.0000000E+00;  1.3837951E-01;  1.9653225E+03;
  1.2204615E+00;  9.9999998E-03;  6.0027752E-02;2908;  1.9994545E-01;  0.0000000E+00;  6.4598615E-03;  1.0027975E+03;  4.0133989E-01;  1.9982126E+03;3;  6.6133751E+01;  0.0000000E+00;  5.0903177E-01;0; -3.2985568E-02;  1.0002504E+04;  0.0000000E+00; -3.7715334E-01;  1.0000000E+04;  0.0000000E+00;  9.9864785E+03; -1.7287342E-01;  0.0000000E+00;  1.3988785E-01;  2.0729087E+03;
  1.2204827E+00;  9.9999998E-03;  8.0037802E-02;2909;  2.0630735E-01;  0.0000000E+00;  8.5090566E-03;  1.0028060E+03;  4.0133992E-01;  2.0042700E+03;3;  6.8378853E+01;  0.0000000E+00;  6.7695320E-01;0; -3.5922259E-02;  1.0003057E+04;  0.0000000E+00; -7.9436785E-01;  1.0000000E+04;  0.0000000E+00;  9.9860996E+03; -1.7744470E-01;  0.0000000E+00;  1.4152244E-01;  2.3660815E+03;
  1.2205141E+00;  9.9999998E-03;  1.0005143E-01;2910;  2.1493174E-01;  0.0000000E+00;  1.1014889E-02;  1.0028264E+03;  4.0133998E-01;  2.0186354E+03;3;  7.1560722E+01;  0.0000000E+00;  7.1710533E-01;0; -4.1718885E-02;  1.0003981E+04;  0.0000000E+00; -1.3993576E+00;  1.0000000E+04;  0.0000000E+00;  9.9855869E+03; -1.8485221E-01;  0.0000000E+00;  1.4313333E-01;  2.9643130E+03;
  1.2205595E+00;  9.9999998E-03;  1.2007020E-01;2911;  2.2639060E-01;  0.0000000E+00;  1.4056577E-02;  1.0028195E+03;  4.0133989E-01;  2.0136239E+03;3;  7.6193130E+01;  0.0000000E+00;  4.9046713E-01;0; -4.3158263E-02;  1.0004618E+04;  0.0000000E+00; -2.1462135E+00;  1.0000000E+04;  0.0000000E+00;  9.9848223E+03; -1.8836117E-01;  0.0000000E+00;  1.4520290E-01;  3.8602612E+03;
  1.2206173E+00;  9.9999998E-03;  1.4009175E-01;2912;  2.4024220E-01;  0.0000000E+00;  1.7463615E-02;  1.0027333E+03;  4.0133977E-01;  1.9517903E+03;3;  8.2856445E+01;  0.0000000E+00;  5.3985631E-01;0; -2.7192503E-02;  1.0003963E+04;  0.0000000E+00; -2.8841777E+00;  1.0000000E+04;  0.0000000E+00;  9.9837676E+03; -1.7516579E-01;  0.0000000E+00;  1.4797328E-01;  4.8315532E+03;
  1.2404337E+00;  9.9999998E-03;  1.7465397E-11;2926;  1.8907370E-01;  0.0000000E+00;  5.2008748E-09;  1.0025678E+03;  4.0128225E-01;  1.7667303E+03;3;  6.6644257E+01;  0.0000000E+00; -9.3187555E-06;0; -4.7444694E-02;  1.0000065E+04;  0.0000000E+00;  4.0163721E-14;  1.0000000E+04;  0.0000000E+00;  9.9872119E+03; -1.6138831E-01;  0.0000000E+00;  1.1394361E-01;  1.5403888E+03;
  1.2404368E+00;  9.9999998E-03;  2.0009348E-02;2927;  1.9002594E-01;  0.0000000E+00;  1.4629415E-03;  1.0025697E+03;  4.0128222E-01;  1.7680316E+03;3;  6.7031128E+01;  0.0000000E+00; -1.4019583E-01;0; -4.7221467E-02;  1.0000170E+04;  0.0000000E+00; -5.1065121E-02;  1.0000000E+04;  0.0000000E+00;  9.9871455E+03; -1.6238542E-01;  0.0000000E+00;  1.1516395E-01;  1.5520498E+03;
  1.2404467E+00;  9.9999998E-03;  4.0018559E-02;2928;  1.9282733E-01;  0.0000000E+00;  2.8816282E-03;  1.0025772E+03;  4.0128207E-01;  1.7731638E+03;3;  6.7928238E+01;  0.0000000E+00; -7.7511951E-02;0; -4.7303498E-02;  1.0000516E+04;  0.0000000E+00; -2.2600053E-01;  1.0000000E+04;  0.0000000E+00;  9.9869551E+03; -1.6577066E-01;  0.0000000E+00;  1.1846717E-01;  1.6034310E+03;
  1.2404648E+00;  9.9999998E-03;  6.0029712E-02;2929;  1.9763938E-01;  0.0000000E+00;  4.6646660E-03;  1.0025915E+03;  4.0128210E-01;  1.7829409E+03;3;  6.9927795E+01;  0.0000000E+00; -6.4163387E-02;0; -4.9393483E-02;  1.0001113E+04;  0.0000000E+00; -5.7351911E-01;  1.0000000E+04;  0.0000000E+00;  9.9866455E+03; -1.7272165E-01;  0.0000000E+00;  1.2332817E-01;  1.7634161E+03;
  1.2404941E+00;  9.9999998E-03;  8.0044970E-02;2930;  2.0479761E-01;  0.0000000E+00;  7.2077415E-03;  1.0025939E+03;  4.0128213E-01;  1.7844758E+03;3;  7.2612968E+01;  0.0000000E+00; -3.9278877E-01;0; -5.0872266E-02;  1.0001681E+04;  0.0000000E+00; -1.1317644E+00;  1.0000000E+04;  0.0000000E+00;  9.9861289E+03; -1.8058547E-01;  0.0000000E+00;  1.2971321E-01;  2.1532749E+03;
  1.2405355E+00;  9.9999998E-03;  1.0006336E-01;2931;  2.1483226E-01;  0.0000000E+00;  1.0436162E-02;  1.0025491E+03;  4.0128219E-01;  1.7534935E+03;3;  7.7168495E+01;  0.0000000E+00; -6.0258293E-01;0; -4.3188602E-02;  1.0001603E+04;  0.0000000E+00; -1.8623476E+00;  1.0000000E+04;  0.0000000E+00;  9.9853242E+03; -1.8081054E-01;  0.0000000E+00;  1.3762194E-01;  2.8100056E+03;
  1.2405849E+00;  9.9999998E-03;  1.2008196E-01;2932;  2.2673406E-01;  0.0000000E+00;  1.3350572E-02;  1.0024431E+03;  4.0128219E-01;  1.6804246E+03;3;  8.3460350E+01;  0.0000000E+00; -6.2259960E-01;0; -2.2963151E-02;  1.0000491E+04;  0.0000000E+00; -2.5527446E+00;  1.0000000E+04;  0.0000000E+00;  9.9843242E+03; -1.6687240E-01;  0.0000000E+00;  1.4390925E-01;  3.5112339E+03;
  1.2406350E+00;  9.9999998E-03;  1.4009884E-01;2933;  2.3909569E-01;  0.0000000E+00;  1.5877908E-02;  1.0023018E+03;  4.0128225E-01;  1.5830990E+03;3;  9.2424728E+01;  0.0000000E+00;  9.0582579E-02;0;  1.0427862E-02;  9.9985908E+03;  0.0000000E+00; -2.7671845E+00;  1.0000000E+04;  0.0000000E+00;  9.9834111E+03; -1.3473010E-01;  0.0000000E+00;  1.4515796E-01;  3.7575505E+03;
  1.2604553E+00;  9.9999998E-03;  1.2915274E-11;2944;  1.8649994E-01;  0.0000000E+00;  5.9075705E-10;  1.0023032E+03;  4.0124130E-01;  1.5180594E+03;3;  7.1972427E+01;  0.0000000E+00; -9.8467572E-06;0; -6.4566843E-02;  9.9969600E+03;  0.0000000E+00;  5.2129851E-15;  1.0000000E+04;  0.0000000E+00;  9.9870830E+03; -1.5998881E-01;  0.0000000E+00;  9.5421962E-02;  1.2221122E+03;
  1.2604595E+00;  9.9999998E-03;  2.0012589E-02;2945;  1.8766063E-01;  0.0000000E+00;  1.1576825E-03;  1.0022993E+03;  4.0124136E-01;  1.5155303E+03;3;  7.2041542E+01;  0.0000000E+00; -8.6705118E-01;0; -6.2978856E-02;  9.9969727E+03;  0.0000000E+00; -6.4549774E-02;  1.0000000E+04;  0.0000000E+00;  9.9869980E+03; -1.6030942E-01;  0.0000000E+00;  9.7330563E-02;  1.2320082E+03;
  1.2604723E+00;  9.9999998E-03;  4.0026110E-02;2946;  1.9098300E-01;  0.0000000E+00;  2.8162925E-03;  1.0022885E+03;  4.0124145E-01;  1.5083364E+03;3;  7.3046082E+01;  0.0000000E+00; -1.4094570E+00;0; -5.9335604E-02;  9.9970146E+03;  0.0000000E+00; -2.7924243E-01;  1.0000000E+04;  0.0000000E+00;  9.9867344E+03; -1.6233912E-01;  0.0000000E+00;  1.0300352E-01;  1.2826686E+03;
  1.2604939E+00;  9.9999998E-03;  6.0041651E-02;2947;  1.9651963E-01;  0.0000000E+00;  4.9396399E-03;  1.0022620E+03;  4.0124139E-01;  1.4908208E+03;3;  7.5304741E+01;  0.0000000E+00; -1.8228639E+00;0; -5.2893154E-02;  9.9969756E+03;  0.0000000E+00; -6.8108678E-01;  1.0000000E+04;  0.0000000E+00;  9.9862549E+03; -1.6481774E-01;  0.0000000E+00;  1.1192458E-01;  1.4440657E+03;
  1.2605227E+00;  9.9999998E-03;  8.0057591E-02;2948;  2.0384161E-01;  0.0000000E+00;  6.9984207E-03;  1.0022197E+03;  4.0124124E-01;  1.4628337E+03;3;  7.9349083E+01;  0.0000000E+00; -1.9602375E+00;0; -4.3936305E-02;  9.9968320E+03;  0.0000000E+00; -1.2322730E+00;  1.0000000E+04;  0.0000000E+00;  9.9855605E+03; -1.6578184E-01;  0.0000000E+00;  1.2184554E-01;  1.7723044E+03;
  1.2605569E+00;  9.9999998E-03;  1.0007282E-01;2949;  2.1330532E-01;  0.0000000E+00;  9.3096485E-03;  1.0021592E+03;  4.0124139E-01;  1.4228920E+03;3;  8.5655624E+01;  0.0000000E+00; -1.4419854E+00;0; -2.2163972E-02;  9.9964082E+03;  0.0000000E+00; -1.7237788E+00;  1.0000000E+04;  0.0000000E+00;  9.9847783E+03; -1.5280259E-01;  0.0000000E+00;  1.3063861E-01;  2.1324556E+03;
  1.2605933E+00;  9.9999998E-03;  1.2008535E-01;2950;  2.2307459E-01;  0.0000000E+00;  1.0942163E-02;  1.0021116E+03;  4.0124136E-01;  1.3914333E+03;3;  9.3946121E+01;  0.0000000E+00; -8.0425096E-01;0; -3.5756528E-03;  9.9959648E+03;  0.0000000E+00; -1.7541916E+00;  1.0000000E+04;  0.0000000E+00;  9.9842715E+03; -1.3481705E-01;  0.0000000E+00;  1.3124140E-01;  2.1812771E+03;
  1.2606301E+00;  9.9999998E-03;  1.4009804E-01;2951;  2.3328476E-01;  0.0000000E+00;  1.3503562E-02;  1.0020635E+03;  4.0124130E-01;  1.3595856E+03;3;  1.0459091E+02;  0.0000000E+00;  5.7552505E-01;0;  2.7429603E-02;  9.9953369E+03;  0.0000000E+00; -9.6971780E-01;  1.0000000E+04;  0.0000000E+00;  9.9839443E+03; -1.0338833E-01;  0.0000000E+00;  1.3081793E-01;  1.7396193E+03;
  1.2804781E+00;  9.9999998E-03;  1.8235524E-11;2959;  1.8276636E-01;  0.0000000E+00; -3.9205023E-10;  1.0019717E+03;  4.0121305E-01;  1.2395552E+03;3;  8.0326881E+01;  0.0000000E+00; -7.2928960E-06;0; -8.8654287E-02;  9.9920723E+03;  0.0000000E+00; -1.5222614E-14;  1.0000000E+04;  0.0000000E+00;  9.9867842E+03; -1.6910467E-01;  0.0000000E+00;  8.0450378E-02;  9.0074371E+02;
  1.2804811E+00;  9.9999998E-03;  2.0013742E-02;2960;  1.8383697E-01;  0.0000000E+00;  6.0192309E-04;  1.0019785E+03;  4.0121299E-01;  1.2438179E+03;3;  8.0417450E+01;  0.0000000E+00; -1.5870878E+00;0; -8.6128496E-02;  9.9922891E+03;  0.0000000E+00; -4.4974439E-02;  1.0000000E+04;  0.0000000E+00;  9.9866973E+03; -1.6873179E-01;  0.0000000E+00;  8.2603298E-02;  9.1455652E+02;
  1.2804900E+00;  9.9999998E-03;  4.0028803E-02;2961;  1.8726476E-01;  0.0000000E+00;  1.9006977E-03;  1.0019963E+03;  4.0121305E-01;  1.2549568E+03;3;  8.1855957E+01;  0.0000000E+00; -2.3226910E+00;0; -7.7070259E-02;  9.9929326E+03;  0.0000000E+00; -1.8446094E-01;  1.0000000E+04;  0.0000000E+00;  9.9864170E+03; -1.6605981E-01;  0.0000000E+00;  8.8989548E-02;  9.6434180E+02;
  1.2805049E+00;  9.9999998E-03;  6.0044538E-02;2962;  1.9251546E-01;  0.0000000E+00;  3.2088244E-03;  1.0020183E+03;  4.0121302E-01;  1.2687747E+03;3;  8.4830101E+01;  0.0000000E+00; -2.5951939E+00;0; -6.5026067E-02;  9.9938564E+03;  0.0000000E+00; -3.9592716E-01;  1.0000000E+04;  0.0000000E+00;  9.9859326E+03; -1.6270480E-01;  0.0000000E+00;  9.7678728E-02;  1.0611654E+03;
  1.2805250E+00;  9.9999998E-03;  8.0059111E-02;2963;  1.9909635E-01;  0.0000000E+00;  4.4894926E-03;  1.0020466E+03;  4.0121290E-01;  1.2864714E+03;3;  8.9730209E+01;  0.0000000E+00; -2.4798651E+00;0; -5.4900371E-02;  9.9949873E+03;  0.0000000E+00; -5.4929537E-01;  1.0000000E+04;  0.0000000E+00;  9.9853613E+03; -1.6001686E-01;  0.0000000E+00;  1.0511649E-01;  1.1716061E+03;
  1.2805511E+00;  9.9999998E-03;  1.0007250E-01;2964;  2.0731916E-01;  0.0000000E+00;  6.5609212E-03;  1.0020491E+03;  4.0121296E-01;  1.2879630E+03;3;  9.7040649E+01;  0.0000000E+00; -1.6088020E+00;0; -3.2707244E-02;  9.9955410E+03;  0.0000000E+00; -3.8774380E-01;  1.0000000E+04;  0.0000000E+00;  9.9848623E+03; -1.4418325E-01;  0.0000000E+00;  1.1147600E-01;  1.1955765E+03;
  1.2805771E+00;  9.9999998E-03;  1.2008207E-01;2965;  2.1530615E-01;  0.0000000E+00;  8.2754381E-03;  1.0021272E+03;  4.0121296E-01;  1.3369569E+03;3;  1.0581967E+02;  0.0000000E+00; -5.8040148E-01;0; -2.8585598E-02;  9.9969844E+03;  0.0000000E+00;  3.3242297E-01;  1.0000000E+04;  0.0000000E+00;  9.9849805E+03; -1.3817745E-01;  0.0000000E+00;  1.0959186E-01;  1.2188397E+03;
  1.3004663E+00;  9.9999998E-03;  1.4532263E-11;2970;  1.7767601E-01;  0.0000000E+00; -2.0981301E-09;  1.0021422E+03;  4.0119371E-01;  1.2810487E+03;3;  9.1465004E+01;  0.0000000E+00; -1.3371828E-05;0; -1.2659004E-01;  9.9967529E+03;  0.0000000E+00; -1.0423913E-14;  1.0000000E+04;  0.0000000E+00;  9.9864600E+03; -1.9489685E-01;  0.0000000E+00;  6.8306811E-02;  8.8922644E+02;
  1.3004688E+00;  9.9999998E-03;  2.0012466E-02;2971;  1.7851172E-01;  0.0000000E+00; -4.8328986E-04;  1.0021533E+03;  4.0119365E-01;  1.2876704E+03;3;  9.1834229E+01;  0.0000000E+00; -9.9759847E-01;0; -1.2573969E-01;  9.9970244E+03;  0.0000000E+00;  8.2770232E-03;  1.0000000E+04;  0.0000000E+00;  9.9864092E+03; -1.9544381E-01;  0.0000000E+00;  6.9704108E-02;  9.0077209E+02;
  1.3004764E+00;  9.9999998E-03;  4.0026587E-02;2972;  1.8107863E-01;  0.0000000E+00; -6.3948828E-04;  1.0021794E+03;  4.0119377E-01;  1.3032572E+03;3;  9.2808960E+01;  0.0000000E+00; -2.7460477E+00;0; -1.2167342E-01;  9.9977354E+03;  0.0000000E+00;  5.4589655E-02;  1.0000000E+04;  0.0000000E+00;  9.9862236E+03; -1.9500118E-01;  0.0000000E+00;  7.3327765E-02;  9.3496777E+02;
  1.3004893E+00;  9.9999998E-03;  6.0042065E-02;2973;  1.8552388E-01;  0.0000000E+00;  2.4302234E-04;  1.0022081E+03;  4.0119359E-01;  1.3203943E+03;3;  9.5426773E+01;  0.0000000E+00; -3.3814232E+00;0; -1.1313230E-01;  9.9986787E+03;  0.0000000E+00;  2.1108116E-01;  1.0000000E+04;  0.0000000E+00;  9.9858525E+03; -1.9161706E-01;  0.0000000E+00;  7.8484759E-02;  9.9611243E+02;
  1.3005062E+00;  9.9999998E-03;  8.0057010E-02;2974;  1.9114223E-01;  0.0000000E+00;  2.0136698E-03;  1.0022416E+03;  4.0119350E-01;  1.3403674E+03;3;  1.0022282E+02;  0.0000000E+00; -2.8124838E+00;0; -1.0591285E-01;  9.9998467E+03;  0.0000000E+00;  5.9558618E-01;  1.0000000E+04;  0.0000000E+00;  9.9853506E+03; -1.9057876E-01;  0.0000000E+00;  8.4665909E-02;  1.1108180E+03;
 -5.8478149E-06;  9.9999998E-03;  1.6000050E-01;1053; -3.7124979E-03;  0.0000000E+00;  3.3769096E-04;  1.0001223E+03;  4.0000001E-01;  1.0133045E+02;3; -2.4070091E+00;  0.0000000E+00;  2.4190861E-01;0; -7.0969991E-02;  1.0002543E+04;  0.0000000E+00; -1.2611247E-08;  1.0000000E+04;  0.0000000E+00;  9.9999072E+03; -7.3645353E-02;  0.0000000E+00;  2.6753650E-03;  5.2814808E+01;
 -5.6893750E-06;  9.9999998E-03;  1.8000065E-01;1054; -3.6078054E-03;  0.0000000E+00;  4.2641303E-04;  1.0001183E+03;  4.0000001E-01;  9.8071289E+01;3; -2.3349991E+00;  0.0000000E+00;  2.9679710E-01;0; -6.8682171E-02;  1.0002464E+04;  0.0000000E+00; -1.2097649E-08;  1.0000000E+04;  0.0000000E+00;  9.9999023E+03; -7.1386628E-02;  0.0000000E+00;  2.7044588E-03;  5.3660683E+01;
 -5.4465472E-06;  9.9999998E-03;  2.0000079E-01;1055; -3.4489899E-03;  0.0000000E+00;  5.2041118E-04;  1.0001132E+03;  4.0000001E-01;  9.3725731E+01;3; -2.2333937E+00;  0.0000000E+00;  3.5459101E-01;0; -6.5556549E-02;  1.0002351E+04;  0.0000000E+00;  1.4966993E-08;  1.0000000E+04;  0.0000000E+00;  9.9999150E+03; -6.7949779E-02;  0.0000000E+00;  2.3932308E-03;  4.8832634E+01;
 -5.0951885E-06;  9.9999998E-03;  2.2000097E-01;1056; -3.2208718E-03;  0.0000000E+00;  6.1888940E-04;  1.0001062E+03;  4.0000001E-01;  8.7997498E+01;3; -2.0989561E+00;  0.0000000E+00;  4.1734064E-01;0; -6.1414372E-02;  1.0002184E+04;  0.0000000E+00;  3.6636102E-08;  1.0000000E+04;  0.0000000E+00;  9.9999404E+03; -6.3008420E-02;  0.0000000E+00;  1.5940490E-03;  3.5840065E+01;
 -4.6192645E-06;  9.9999998E-03;  2.4000111E-01;1057; -2.9123479E-03;  0.0000000E+00;  7.1031554E-04;  1.0000970E+03;  4.0000001E-01;  8.0392776E+01;3; -1.9289932E+00;  0.0000000E+00;  4.8246706E-01;0; -5.6053031E-02;  1.0001955E+04;  0.0000000E+00; -4.4370228E-08;  1.0000000E+04;  0.0000000E+00;  9.9999873E+03; -5.6317285E-02;  0.0000000E+00;  2.6425463E-04;  1.3903392E+01;
 -4.0104360E-06;  9.9999998E-03;  2.6000121E-01;1058; -2.5211794E-03;  0.0000000E+00;  7.7954982E-04;  1.0000854E+03;  4.0000001E-01;  7.0714035E+01;3; -1.7220774E+00;  0.0000000E+00;  5.4231787E-01;0; -4.9318913E-02;  1.0001667E+04;  0.0000000E+00; -3.5376274E-07;  1.0000000E+04;  0.0000000E+00;  1.0000046E+04; -4.7870945E-02;  0.0000000E+00; -1.4479674E-03;  1.4611712E+01;
 -3.2911705E-06;  9.9999998E-03;  2.8000128E-01;1059; -2.0615663E-03;  0.0000000E+00;  8.0606737E-04;  1.0000716E+03;  4.0000001E-01;  5.9356339E+01;3; -1.4732637E+00;  0.0000000E+00;  5.8551598E-01;0; -4.1214835E-02;  1.0001326E+04;  0.0000000E+00; -9.0615896E-07;  1.0000000E+04;  0.0000000E+00;  1.0000106E+04; -3.8078208E-02;  0.0000000E+00; -3.1366269E-03;  4.3134258E+01;
  1.9991683E-02;  9.9999998E-03;  1.6000068E-01;1083; -5.2364813E-03;  0.0000000E+00;  4.5368355E-04;  1.0001447E+03;  4.0000001E-01;  1.1979906E+02;3; -3.0059319E+00;  0.0000000E+00;  2.9471630E-01;0; -8.2764454E-02;  1.0003019E+04;  0.0000000E+00;  5.9498880E-08;  1.0000000E+04;  0.0000000E+00;  9.9998760E+03; -8.6238272E-02;  0.0000000E+00;  3.4738183E-03;  6.8562531E+01;
  1.9991888E-02;  9.9999998E-03;  1.8000087E-01;1084; -5.1016156E-03;  0.0000000E+00;  5.6684599E-04;  1.0001404E+03;  4.0000001E-01;  1.1634237E+02;3; -2.9217176E+00;  0.0000000E+00;  3.5559738E-01;0; -8.0323547E-02;  1.0002938E+04;  0.0000000E+00;  1.2792995E-07;  1.0000000E+04;  0.0000000E+00;  9.9998740E+03; -8.3833210E-02;  0.0000000E+00;  3.5096661E-03;  6.9861610E+01;
  1.9992217E-02;  9.9999998E-03;  2.0000106E-01;1085; -4.8864479E-03;  0.0000000E+00;  6.8965420E-04;  1.0001348E+03;  4.0000001E-01;  1.1160177E+02;3; -2.8005066E+00;  0.0000000E+00;  4.2168707E-01;0; -7.6960534E-02;  1.0002813E+04;  0.0000000E+00;  2.5759195E-07;  1.0000000E+04;  0.0000000E+00;  9.9998848E+03; -8.0079287E-02;  0.0000000E+00;  3.1187504E-03;  6.3907349E+01;
  1.9992709E-02;  9.9999998E-03;  2.2000127E-01;1086; -4.5690616E-03;  0.0000000E+00;  8.0893410E-04;  1.0001271E+03;  4.0000001E-01;  1.0528096E+02;3; -2.6415634E+00;  0.0000000E+00;  4.8836911E-01;0; -7.2454274E-02;  1.0002623E+04;  0.0000000E+00;  4.1985066E-07;  1.0000000E+04;  0.0000000E+00;  9.9999180E+03; -7.4568063E-02;  0.0000000E+00;  2.1137930E-03;  4.7449154E+01;
  1.9993396E-02;  9.9999998E-03;  2.4000144E-01;1087; -4.1272142E-03;  0.0000000E+00;  9.0870820E-04;  1.0001168E+03;  4.0000001E-01;  9.6688606E+01;3; -2.4409399E+00;  0.0000000E+00;  5.5349660E-01;0; -6.6541865E-02;  1.0002359E+04;  0.0000000E+00;  4.7812415E-07;  1.0000000E+04;  0.0000000E+00;  9.9999795E+03; -6.6975884E-02;  0.0000000E+00;  4.3402077E-04;  1.9350233E+01;
  1.9994307E-02;  9.9999998E-03;  2.6000154E-01;1088; -3.5467981E-03;  0.0000000E+00;  9.6946408E-04;  1.0001038E+03;  4.0000001E-01;  8.5923485E+01;3; -2.1882048E+00;  0.0000000E+00;  6.0922837E-01;0; -5.9011687E-02;  1.0002021E+04;  0.0000000E+00;  2.1724175E-07;  1.0000000E+04;  0.0000000E+00;  1.0000056E+04; -5.7260666E-02;  0.0000000E+00; -1.7510201E-03;  1.7625278E+01;
  1.9995432E-02;  9.9999998E-03;  2.8000155E-01;1089; -2.8324062E-03;  0.0000000E+00;  9.7275892E-04;  1.0000879E+03;  4.0000001E-01;  7.2788055E+01;3; -1.8579955E+00;  0.0000000E+00;  6.4739633E-01;0; -4.9835235E-02;  1.0001622E+04;  0.0000000E+00; -3.8949693E-07;  1.0000000E+04;  0.0000000E+00;  1.0000133E+04; -4.5876723E-02;  0.0000000E+00; -3.9585130E-03;  5.5466167E+01;
  1.9996747E-02;  9.9999998E-03;  3.0000168E-01;1090; -2.0023461E-03;  0.0000000E+00;  1.0482728E-03;  1.0000693E+03;  4.0000001E-01;  5.7381084E+01;3; -1.4119778E+00;  0.0000000E+00;  7.5519943E-01;0; -3.9294124E-02;  1.0001197E+04;  0.0000000E+00; -1.0912538E-06;  1.0000000E+04;  0.0000000E+00;  1.0000190E+04; -3.3873767E-02;  0.0000000E+00; -5.4203584E-03;  8.1625885E+01;
  3.9988525E-02;  9.9999998E-03;  1.6000080E-01;1114; -7.1675265E-03;  0.0000000E+00;  5.2665221E-04;  1.0001641E+03;  4.0000001E-01;  1.3589737E+02;3; -3.7072029E+00;  0.0000000E+00;  3.1501535E-01;0; -9.2249319E-02;  1.0003434E+04;  0.0000000E+00;  1.1760702E-07;  1.0000000E+04;  0.0000000E+00;  9.9998506E+03; -9.6339405E-02;  0.0000000E+00;  4.0900828E-03;  8.2027840E+01;
  3.9988779E-02;  9.9999998E-03;  1.8000101E-01;1115; -6.9990726E-03;  0.0000000E+00;  6.4981420E-04;  1.0001600E+03;  4.0000001E-01;  1.3253944E+02;3; -3.6087790E+00;  0.0000000E+00;  3.7290785E-01;0; -8.9852035E-02;  1.0003356E+04;  0.0000000E+00;  2.2317131E-07;  1.0000000E+04;  0.0000000E+00;  9.9998477E+03; -9.3984082E-02;  0.0000000E+00;  4.1320468E-03;  8.3885239E+01;
  3.9989207E-02;  9.9999998E-03;  2.0000122E-01;1116; -6.7211557E-03;  0.0000000E+00;  7.7931676E-04;  1.0001542E+03;  4.0000001E-01;  1.2779884E+02;3; -3.4675760E+00;  0.0000000E+00;  4.3239179E-01;0; -8.6470269E-02;  1.0003225E+04;  0.0000000E+00;  3.8363646E-07;  1.0000000E+04;  0.0000000E+00;  9.9998604E+03; -9.0162933E-02;  0.0000000E+00;  3.6926635E-03;  7.7312637E+01;
  3.9989866E-02;  9.9999998E-03;  2.2000144E-01;1117; -6.2969509E-03;  0.0000000E+00;  9.0509228E-04;  1.0001461E+03;  4.0000001E-01;  1.2098421E+02;3; -3.2825918E+00;  0.0000000E+00;  4.9382371E-01;0; -8.1827946E-02;  1.0003025E+04;  0.0000000E+00;  5.5807703E-07;  1.0000000E+04;  0.0000000E+00;  9.9998994E+03; -8.4377624E-02;  0.0000000E+00;  2.5496809E-03;  5.8313370E+01;
  3.9990809E-02;  9.9999998E-03;  2.4000162E-01;1118; -5.6968303E-03;  0.0000000E+00;  9.9970750E-04;  1.0001352E+03;  4.0000001E-01;  1.1199682E+02;3; -3.0542784E+00;  0.0000000E+00;  5.4936945E-01;0; -7.5582802E-02;  1.0002736E+04;  0.0000000E+00;  5.9118423E-07;  1.0000000E+04;  0.0000000E+00;  9.9999697E+03; -7.6201871E-02;  0.0000000E+00;  6.1906665E-04;  2.5280458E+01;
  3.9992075E-02;  9.9999998E-03;  2.6000175E-01;1119; -4.8944480E-03;  0.0000000E+00;  1.0622385E-03;  1.0001208E+03;  4.0000001E-01;  1.0014530E+02;3; -2.7648206E+00;  0.0000000E+00;  6.0591602E-01;0; -6.7441106E-02;  1.0002356E+04;  0.0000000E+00;  2.7839073E-07;  1.0000000E+04;  0.0000000E+00;  1.0000061E+04; -6.5515339E-02;  0.0000000E+00; -1.9257679E-03;  1.8873587E+01;
  3.9993636E-02;  9.9999998E-03;  2.8000179E-01;1120; -3.9108912E-03;  0.0000000E+00;  1.0796705E-03;  1.0001028E+03;  4.0000001E-01;  8.5232147E+01;3; -2.3835473E+00;  0.0000000E+00;  6.6122818E-01;0; -5.7327088E-02;  1.0001899E+04;  0.0000000E+00; -3.8373136E-07;  1.0000000E+04;  0.0000000E+00;  1.0000158E+04; -5.2765779E-02;  0.0000000E+00; -4.5613097E-03;  6.5149139E+01;
  3.9995454E-02;  9.9999998E-03;  3.0000186E-01;1121; -2.7717522E-03;  0.0000000E+00;  1.1323449E-03;  1.0000820E+03;  4.0000001E-01;  6.7948685E+01;3; -1.8473368E+00;  0.0000000E+00;  7.6568794E-01;0; -4.5589764E-02;  1.0001411E+04;  0.0000000E+00; -9.7469115E-07;  1.0000000E+04;  0.0000000E+00;  1.0000230E+04; -3.9138120E-02;  0.0000000E+00; -6.4516435E-03;  9.9417900E+01;
  5.9984904E-02;  9.9999998E-03;  1.6000086E-01;1145; -9.3353316E-03;  0.0000000E+00;  5.5957754E-04;  1.0001837E+03;  4.0000001E-01;  1.5219321E+02;3; -4.4694471E+00;  0.0000000E+00;  3.1741312E-01;0; -1.0104233E-01;  1.0003847E+04;  0.0000000E+00;  1.2971718E-07;  1.0000000E+04;  0.0000000E+00;  9.9998320E+03; -1.0549816E-01;  0.0000000E+00;  4.4558309E-03;  9.2430420E+01;
  5.9985202E-02;  9.9999998E-03;  1.8000108E-01;1146; -9.1362996E-03;  0.0000000E+00;  6.8396993E-04;  1.0001799E+03;  4.0000001E-01;  1.4903281E+02;3; -4.3567591E+00;  0.0000000E+00;  3.6880633E-01;0; -9.8827526E-02;  1.0003772E+04;  0.0000000E+00;  2.0289910E-07;  1.0000000E+04;  0.0000000E+00;  9.9998271E+03; -1.0333183E-01;  0.0000000E+00;  4.5043044E-03;  9.4957001E+01;
  5.9985723E-02;  9.9999998E-03;  2.0000131E-01;1147; -8.7966919E-03;  0.0000000E+00;  8.1621204E-04;  1.0001741E+03;  4.0000001E-01;  1.4429219E+02;3; -4.1947966E+00;  0.0000000E+00;  4.2175353E-01;0; -9.5556699E-02;  1.0003646E+04;  0.0000000E+00;  2.4029580E-07;  1.0000000E+04;  0.0000000E+00;  9.9998389E+03; -9.9615119E-02;  0.0000000E+00;  4.0584235E-03;  8.8425079E+01;
  5.9986554E-02;  9.9999998E-03;  2.2000155E-01;1148; -8.2671642E-03;  0.0000000E+00;  9.4163208E-04;  1.0001660E+03;  4.0000001E-01;  1.3747757E+02;3; -3.9860063E+00;  0.0000000E+00;  4.7447759E-01;0; -9.0884805E-02;  1.0003438E+04;  0.0000000E+00;  1.5846672E-07;  1.0000000E+04;  0.0000000E+00;  9.9998818E+03; -9.3749382E-02;  0.0000000E+00;  2.8645755E-03;  6.8086136E+01;
  5.9987761E-02;  9.9999998E-03;  2.4000172E-01;1149; -7.5039449E-03;  0.0000000E+00;  1.0341948E-03;  1.0001542E+03;  4.0000001E-01;  1.2779884E+02;3; -3.7342916E+00;  0.0000000E+00;  5.2144229E-01;0; -8.4373675E-02;  1.0003128E+04;  0.0000000E+00; -1.7585916E-07;  1.0000000E+04;  0.0000000E+00;  9.9999600E+03; -8.5179880E-02;  0.0000000E+00;  8.0620777E-04;  3.1682224E+01;
  5.9989400E-02;  9.9999998E-03;  2.6000184E-01;1150; -6.4787492E-03;  0.0000000E+00;  1.0906578E-03;  1.0001385E+03;  4.0000001E-01;  1.1476217E+02;3; -3.4229398E+00;  0.0000000E+00;  5.7145143E-01;0; -7.5634129E-02;  1.0002708E+04;  0.0000000E+00; -8.5009975E-07;  1.0000000E+04;  0.0000000E+00;  1.0000063E+04; -7.3672310E-02;  0.0000000E+00; -1.9618191E-03;  1.8053976E+01;
  5.9991438E-02;  9.9999998E-03;  2.8000188E-01;1151; -5.2106022E-03;  0.0000000E+00;  1.1031691E-03;  1.0001187E+03;  4.0000001E-01;  9.8268814E+01;3; -3.0047569E+00;  0.0000000E+00;  6.2532854E-01;0; -6.4553976E-02;  1.0002195E+04;  0.0000000E+00; -5.1842999E-06;  1.0000000E+04;  0.0000000E+00;  1.0000173E+04; -5.9648570E-02;  0.0000000E+00; -4.9054027E-03;  7.1493950E+01;
  5.9993852E-02;  9.9999998E-03;  3.0000198E-01;1152; -3.7150672E-03;  0.0000000E+00;  1.1727076E-03;  1.0000948E+03;  4.0000001E-01;  7.8615051E+01;3; -2.3748255E+00;  0.0000000E+00;  7.4771309E-01;0; -5.1561952E-02;  1.0001636E+04;  0.0000000E+00; -1.5776544E-05;  1.0000000E+04;  0.0000000E+00;  1.0000261E+04; -4.4435911E-02;  0.0000000E+00; -7.1260422E-03;  1.1282317E+02;
  7.9980902E-02;  9.9999998E-03;  1.6000088E-01;1176; -1.1666442E-02;  0.0000000E+00;  5.5923470E-04;  1.0002058E+03;  4.0000001E-01;  1.7046429E+02;3; -5.3109646E+00;  0.0000000E+00;  3.0859387E-01;0; -1.1059010E-01;  1.0004297E+04;  0.0000000E+00;  9.7708543E-08;  1.0000000E+04;  0.0000000E+00;  9.9998203E+03; -1.1517086E-01;  0.0000000E+00;  4.5807622E-03;  1.0013994E+02;
  7.9981230E-02;  9.9999998E-03;  1.8000109E-01;1177; -1.1443642E-02;  0.0000000E+00;  6.8184041E-04;  1.0002025E+03;  4.0000001E-01;  1.6769893E+02;3; -5.1842871E+00;  0.0000000E+00;  3.5442096E-01;0; -1.0865081E-01;  1.0004238E+04;  0.0000000E+00;  5.3837201E-08;  1.0000000E+04;  0.0000000E+00;  9.9998105E+03; -1.1328245E-01;  0.0000000E+00;  4.6316353E-03;  1.0337464E+02;
  7.9981834E-02;  9.9999998E-03;  2.0000134E-01;1178; -1.1052370E-02;  0.0000000E+00;  8.0966047E-04;  1.0001969E+03;  4.0000001E-01;  1.6315585E+02;3; -5.0030227E+00;  0.0000000E+00;  3.9893192E-01;0; -1.0556069E-01;  1.0004114E+04;  0.0000000E+00; -2.3404904E-07;  1.0000000E+04;  0.0000000E+00;  9.9998262E+03; -1.0977571E-01;  0.0000000E+00;  4.2150272E-03;  9.7448837E+01;
  7.9982817E-02;  9.9999998E-03;  2.2000158E-01;1179; -1.0427277E-02;  0.0000000E+00;  9.3123864E-04;  1.0001888E+03;  4.0000001E-01;  1.5644000E+02;3; -4.7718916E+00;  0.0000000E+00;  4.4232237E-01;0; -1.0089074E-01;  1.0003906E+04;  0.0000000E+00; -9.5461871E-07;  1.0000000E+04;  0.0000000E+00;  9.9998672E+03; -1.0394081E-01;  0.0000000E+00;  3.0500679E-03;  7.6862740E+01;
  7.9984285E-02;  9.9999998E-03;  2.4000177E-01;1180; -9.5135327E-03;  0.0000000E+00;  1.0157347E-03;  1.0001763E+03;  4.0000001E-01;  1.4606992E+02;3; -4.5025930E+00;  0.0000000E+00;  4.7805858E-01;0; -9.4096363E-02;  1.0003579E+04;  0.0000000E+00; -3.3196637E-05;  1.0000000E+04;  0.0000000E+00;  9.9999492E+03; -9.5077008E-02;  0.0000000E+00;  9.8064356E-04;  3.8555622E+01;
  7.9986297E-02;  9.9999998E-03;  2.6000190E-01;1181; -8.2660057E-03;  0.0000000E+00;  1.0686963E-03;  1.0001591E+03;  4.0000001E-01;  1.3174934E+02;3; -4.1721950E+00;  0.0000000E+00;  5.2070904E-01;0; -8.4724568E-02;  1.0003122E+04;  0.0000000E+00; -2.9334793E-04;  1.0000000E+04;  0.0000000E+00;  1.0000059E+04; -8.2847513E-02;  0.0000000E+00; -1.8770557E-03;  1.5295685E+01;
  7.9988852E-02;  9.9999998E-03;  2.8000194E-01;1182; -6.6992305E-03;  0.0000000E+00;  1.0848072E-03;  1.0001369E+03;  4.0000001E-01;  1.1337949E+02;3; -3.7185798E+00;  0.0000000E+00;  5.7388973E-01;0; -7.2637498E-02;  1.0002555E+04;  0.0000000E+00; -8.4350043E-04;  1.0000000E+04;  0.0000000E+00;  1.0000184E+04; -6.7630641E-02;  0.0000000E+00; -5.0068577E-03;  7.4680077E+01;
  7.9991944E-02;  9.9999998E-03;  3.0000213E-01;1183; -4.8126462E-03;  0.0000000E+00;  1.2036158E-03;  1.0001102E+03;  4.0000001E-01;  9.1256668E+01;3; -2.9888391E+00;  0.0000000E+00;  7.2897577E-01;0; -5.8290139E-02;  1.0001918E+04;  0.0000000E+00; -1.5049410E-03;  1.0000000E+04;  0.0000000E+00;  1.0000283E+04; -5.0826471E-02;  0.0000000E+00; -7.4636675E-03;  1.2226990E+02;
  9.9976480E-02;  9.9999998E-03;  1.6000086E-01;1207; -1.4164612E-02;  0.0000000E+00;  5.4070092E-04;  1.0002325E+03;  4.0000001E-01;  1.9258711E+02;3; -6.2498326E+00;  0.0000000E+00;  2.9610625E-01;0; -1.2184998E-01;  1.0004840E+04;  0.0000000E+00;  2.7435341E-08;  1.0000000E+04;  0.0000000E+00;  9.9998125E+03; -1.2638867E-01;  0.0000000E+00;  4.5386911E-03;  1.0647518E+02;
  9.9976815E-02;  9.9999998E-03;  1.8000109E-01;1208; -1.3927510E-02;  0.0000000E+00;  6.5697776E-04;  1.0002297E+03;  4.0000001E-01;  1.9031558E+02;3; -6.1108441E+00;  0.0000000E+00;  3.3509544E-01;0; -1.2026564E-01;  1.0004795E+04;  0.0000000E+00; -2.1157504E-07;  1.0000000E+04;  0.0000000E+00;  9.9998037E+03; -1.2483975E-01;  0.0000000E+00;  4.5741131E-03;  1.1026416E+02;
  9.9977478E-02;  9.9999998E-03;  2.0000133E-01;1209; -1.3496730E-02;  0.0000000E+00;  7.7365787E-04;  1.0002247E+03;  4.0000001E-01;  1.8616754E+02;3; -5.9122410E+00;  0.0000000E+00;  3.6971214E-01;0; -1.1741805E-01;  1.0004683E+04;  0.0000000E+00; -1.0407631E-06;  1.0000000E+04;  0.0000000E+00;  9.9998145E+03; -1.2161718E-01;  0.0000000E+00;  4.1991286E-03;  1.0518229E+02;
  9.9978603E-02;  9.9999998E-03;  2.2000156E-01;1210; -1.2790532E-02;  0.0000000E+00;  8.8440982E-04;  1.0002164E+03;  4.0000001E-01;  1.7935292E+02;3; -5.6629667E+00;  0.0000000E+00;  4.0051794E-01;0; -1.1280219E-01;  1.0004470E+04;  0.0000000E+00; -1.2054518E-04;  1.0000000E+04;  0.0000000E+00;  9.9998564E+03; -1.1591868E-01;  0.0000000E+00;  3.1164966E-03;  8.5091057E+01;
  9.9980310E-02;  9.9999998E-03;  2.4000175E-01;1211; -1.1738076E-02;  0.0000000E+00;  9.5659256E-04;  1.0002035E+03;  4.0000001E-01;  1.6858780E+02;3; -5.3778291E+00;  0.0000000E+00;  4.2341757E-01;0; -1.0587213E-01;  1.0004137E+04;  0.0000000E+00; -1.0739041E-03;  1.0000000E+04;  0.0000000E+00;  9.9999375E+03; -1.0699982E-01;  0.0000000E+00;  1.1276929E-03;  4.6379650E+01;
  9.9982716E-02;  9.9999998E-03;  2.6000190E-01;1212; -1.0274932E-02;  0.0000000E+00;  1.0078514E-03;  1.0001854E+03;  4.0000001E-01;  1.5357588E+02;3; -5.0328755E+00;  0.0000000E+00;  4.5809174E-01;0; -9.6153677E-02;  1.0003655E+04;  0.0000000E+00; -3.9045385E-03;  1.0000000E+04;  0.0000000E+00;  1.0000054E+04; -9.4438389E-02;  0.0000000E+00; -1.7152878E-03;  2.3030149E+01;
  9.9985816E-02;  9.9999998E-03;  2.8000200E-01;1213; -8.4016416E-03;  0.0000000E+00;  1.0425950E-03;  1.0001613E+03;  4.0000001E-01;  1.3362582E+02;3; -4.5459304E+00;  0.0000000E+00;  5.1584911E-01;0; -8.3379164E-02;  1.0003033E+04;  0.0000000E+00; -8.4786341E-03;  1.0000000E+04;  0.0000000E+00;  1.0000189E+04; -7.8432418E-02;  0.0000000E+00; -4.9467478E-03;  8.7254181E+01;
  9.9989668E-02;  9.9999998E-03;  3.0000231E-01;1214; -6.0883914E-03;  0.0000000E+00;  1.2471364E-03;  1.0001312E+03;  4.0000001E-01;  1.0863889E+02;3; -3.7063475E+00;  0.0000000E+00;  7.2302437E-01;0; -6.7788251E-02;  1.0002327E+04;  0.0000000E+00; -1.3400971E-02;  1.0000000E+04;  0.0000000E+00;  1.0000299E+04; -6.0215052E-02;  0.0000000E+00; -7.5731967E-03;  1.4620662E+02;
  1.1997151E-01;  9.9999998E-03;  1.6000086E-01;1238; -1.6885437E-02;  0.0000000E+00;  5.2474911E-04;  1.0002646E+03;  4.0000001E-01;  2.1925302E+02;3; -7.2909036E+00;  0.0000000E+00;  2.8667799E-01;0; -1.3518725E-01;  1.0005490E+04;  0.0000000E+00; -6.3214166E-08;  1.0000000E+04;  0.0000000E+00;  9.9998018E+03; -1.3963655E-01;  0.0000000E+00;  4.4492995E-03;  1.1348533E+02;
  1.1997185E-01;  9.9999998E-03;  1.8000108E-01;1239; -1.6644603E-02;  0.0000000E+00;  6.2960561E-04;  1.0002627E+03;  4.0000001E-01;  2.1767282E+02;3; -7.1417418E+00;  0.0000000E+00;  3.1692433E-01;0; -1.3404764E-01;  1.0005460E+04;  0.0000000E+00; -5.8653927E-07;  1.0000000E+04;  0.0000000E+00;  9.9997949E+03; -1.3848448E-01;  0.0000000E+00;  4.4368394E-03;  1.1751957E+02;
  1.1997255E-01;  9.9999998E-03;  2.0000131E-01;1240; -1.6185815E-02;  0.0000000E+00;  7.2807324E-04;  1.0002584E+03;  4.0000001E-01;  2.1401860E+02;3; -6.9291964E+00;  0.0000000E+00;  3.3884871E-01;0; -1.3156141E-01;  1.0005361E+04;  0.0000000E+00; -9.5012161E-05;  1.0000000E+04;  0.0000000E+00;  9.9998027E+03; -1.3565648E-01;  0.0000000E+00;  4.0950561E-03;  1.1331614E+02;
  1.1997379E-01;  9.9999998E-03;  2.2000155E-01;1241; -1.5410469E-02;  0.0000000E+00;  8.2046085E-04;  1.0002502E+03;  4.0000001E-01;  2.0730275E+02;3; -6.6650772E+00;  0.0000000E+00;  3.5426962E-01;0; -1.2729427E-01;  1.0005166E+04;  0.0000000E+00; -1.3472037E-03;  1.0000000E+04;  0.0000000E+00;  9.9998418E+03; -1.3041939E-01;  0.0000000E+00;  3.1251139E-03;  9.4549988E+01;
  1.1997573E-01;  9.9999998E-03;  2.4000172E-01;1242; -1.4227702E-02;  0.0000000E+00;  8.7930879E-04;  1.0002382E+03;  4.0000001E-01;  1.9732773E+02;3; -6.3678226E+00;  0.0000000E+00;  3.6509800E-01;0; -1.2085135E-01;  1.0004841E+04;  0.0000000E+00; -6.7646671E-03;  1.0000000E+04;  0.0000000E+00;  9.9999238E+03; -1.2211749E-01;  0.0000000E+00;  1.2661465E-03;  6.5596939E+01;
  1.1997852E-01;  9.9999998E-03;  2.6000187E-01;1243; -1.2555970E-02;  0.0000000E+00;  9.3239127E-04;  1.0002211E+03;  4.0000001E-01;  1.8310591E+02;3; -6.0178471E+00;  0.0000000E+00;  3.9293575E-01;0; -1.1174771E-01;  1.0004370E+04;  0.0000000E+00; -1.9506732E-02;  1.0000000E+04;  0.0000000E+00;  1.0000045E+04; -1.1021994E-01;  0.0000000E+00; -1.5277676E-03;  1.0233421E+02;
  1.1998221E-01;  9.9999998E-03;  2.8000206E-01;1244; -1.0370233E-02;  0.0000000E+00;  1.0075374E-03;  1.0001967E+03;  4.0000001E-01;  1.6295833E+02;3; -5.5054336E+00;  0.0000000E+00;  4.6760845E-01;0; -9.9378951E-02;  1.0003744E+04;  0.0000000E+00; -3.8837180E-02;  1.0000000E+04;  0.0000000E+00;  1.0000190E+04; -9.4523601E-02;  0.0000000E+00; -4.8553473E-03;  2.1672594E+02;
  1.1998691E-01;  9.9999998E-03;  3.0000257E-01;1245; -7.5895386E-03;  0.0000000E+00;  1.3421336E-03;  1.0001647E+03;  4.0000001E-01;  1.3648994E+02;3; -4.5471525E+00;  0.0000000E+00;  7.5635529E-01;0; -8.3053797E-02;  1.0002981E+04;  0.0000000E+00; -5.6763925E-02;  1.0000000E+04;  0.0000000E+00;  1.0000313E+04; -7.5443052E-02;  0.0000000E+00; -7.6107471E-03;  3.2603476E+02;
  1.3996588E-01;  9.9999998E-03;  1.6000091E-01;1269; -1.9898957E-02;  0.0000000E+00;  5.3627661E-04;  1.0003022E+03;  4.0000001E-01;  2.5036325E+02;3; -8.4301424E+00;  0.0000000E+00;  2.9043365E-01;0; -1.5048048E-01;  1.0006259E+04;  0.0000000E+00; -1.4079590E-07;  1.0000000E+04;  0.0000000E+00;  9.9997861E+03; -1.5495470E-01;  0.0000000E+00;  4.4742292E-03;  1.2400719E+02;
  1.3996617E-01;  9.9999998E-03;  1.8000112E-01;1270; -1.9665159E-02;  0.0000000E+00;  6.2625285E-04;  1.0003015E+03;  4.0000001E-01;  2.4977068E+02;3; -8.2727709E+00;  0.0000000E+00;  3.1008077E-01;0; -1.4987880E-01;  1.0006251E+04;  0.0000000E+00; -1.6596694E-05;  1.0000000E+04;  0.0000000E+00;  9.9997793E+03; -1.5426816E-01;  0.0000000E+00;  4.3893680E-03;  1.2827715E+02;
  1.3996689E-01;  9.9999998E-03;  2.0000133E-01;1271; -1.9188998E-02;  0.0000000E+00;  7.0369581E-04;  1.0002979E+03;  4.0000001E-01;  2.4680780E+02;3; -8.0489874E+00;  0.0000000E+00;  3.1786281E-01;0; -1.4800853E-01;  1.0006176E+04;  0.0000000E+00; -7.2185398E-04;  1.0000000E+04;  0.0000000E+00;  9.9997861E+03; -1.5208994E-01;  0.0000000E+00;  4.0814057E-03;  1.2548400E+02;
  1.3996823E-01;  9.9999998E-03;  2.2000155E-01;1272; -1.8353049E-02;  0.0000000E+00;  7.7643874E-04;  1.0002919E+03;  4.0000001E-01;  2.4186966E+02;3; -7.7743893E+00;  0.0000000E+00;  3.1817687E-01;0; -1.4471859E-01;  1.0006016E+04;  0.0000000E+00; -5.7305163E-03;  1.0000000E+04;  0.0000000E+00;  9.9998213E+03; -1.4795145E-01;  0.0000000E+00;  3.2328591E-03;  1.1217310E+02;
  1.3997039E-01;  9.9999998E-03;  2.4000171E-01;1273; -1.7052149E-02;  0.0000000E+00;  8.1503397E-04;  1.0002828E+03;  4.0000001E-01;  2.3426494E+02;3; -7.4754753E+00;  0.0000000E+00;  3.1732702E-01;0; -1.3996300E-01;  1.0005753E+04;  0.0000000E+00; -2.3132605E-02;  1.0000000E+04;  0.0000000E+00;  9.9999033E+03; -1.4144033E-01;  0.0000000E+00;  1.4773256E-03;  1.3949858E+02;
  1.3997360E-01;  9.9999998E-03;  2.6000193E-01;1274; -1.5164144E-02;  0.0000000E+00;  8.8977139E-04;  1.0002696E+03;  4.0000001E-01;  2.2340106E+02;3; -7.1276264E+00;  0.0000000E+00;  3.4832478E-01;0; -1.3333127E-01;  1.0005360E+04;  0.0000000E+00; -6.1083123E-02;  1.0000000E+04;  0.0000000E+00;  1.0000035E+04; -1.3197771E-01;  0.0000000E+00; -1.3535640E-03;  3.2065601E+02;
  1.3997789E-01;  9.9999998E-03;  2.8000221E-01;1275; -1.2665207E-02;  0.0000000E+00;  1.0244563E-03;  1.0002500E+03;  4.0000001E-01;  2.0710522E+02;3; -6.6082735E+00;  0.0000000E+00;  4.5366573E-01;0; -1.2357805E-01;  1.0004802E+04;  0.0000000E+00; -1.1700771E-01;  1.0000000E+04;  0.0000000E+00;  1.0000200E+04; -1.1868232E-01;  0.0000000E+00; -4.8957211E-03;  6.1854724E+02;
  1.3998353E-01;  9.9999998E-03;  3.0000299E-01;1276; -9.3829334E-03;  0.0000000E+00;  1.5328468E-03;  1.0002183E+03;  4.0000001E-01;  1.8083437E+02;3; -5.5369978E+00;  0.0000000E+00;  8.5631657E-01;0; -1.0786855E-01;  1.0004034E+04;  0.0000000E+00; -1.6653526E-01;  1.0000000E+04;  0.0000000E+00;  1.0000335E+04; -1.0013755E-01;  0.0000000E+00; -7.7310009E-03;  8.8499182E+02;
  1.5995941E-01;  9.9999998E-03;  1.6000105E-01;1300; -2.3258248E-02;  0.0000000E+00;  6.0782302E-04;  1.0003452E+03;  4.0000001E-01;  2.8601657E+02;3; -9.6627913E+00;  0.0000000E+00;  3.2134524E-01;0; -1.6739164E-01;  1.0007145E+04;  0.0000000E+00; -2.0022878E-07;  1.0000000E+04;  0.0000000E+00;  9.9997568E+03; -1.7222914E-01;  0.0000000E+00;  4.8374929E-03;  1.4213658E+02;
  1.5995966E-01;  9.9999998E-03;  1.8000126E-01;1301; -2.3042079E-02;  0.0000000E+00;  6.8486010E-04;  1.0003453E+03;  4.0000001E-01;  2.8611533E+02;3; -9.4987993E+00;  0.0000000E+00;  3.3107275E-01;0; -1.6742145E-01;  1.0007162E+04;  0.0000000E+00; -1.3864090E-04;  1.0000000E+04;  0.0000000E+00;  9.9997480E+03; -1.7211914E-01;  0.0000000E+00;  4.6976972E-03;  1.4765819E+02;
  1.5996037E-01;  9.9999998E-03;  2.0000146E-01;1302; -2.2559594E-02;  0.0000000E+00;  7.4605265E-04;  1.0003441E+03;  4.0000001E-01;  2.8502893E+02;3; -9.2668457E+00;  0.0000000E+00;  3.2600662E-01;0; -1.6648757E-01;  1.0007132E+04;  0.0000000E+00; -2.4331266E-03;  1.0000000E+04;  0.0000000E+00;  9.9997451E+03; -1.7094406E-01;  0.0000000E+00;  4.4564903E-03;  1.4820580E+02;
  1.5996179E-01;  9.9999998E-03;  2.2000167E-01;1303; -2.1674694E-02;  0.0000000E+00;  7.9975417E-04;  1.0003411E+03;  4.0000001E-01;  2.8265863E+02;3; -8.9864140E+00;  0.0000000E+00;  3.1585133E-01;0; -1.6496204E-01;  1.0007046E+04;  0.0000000E+00; -1.5057325E-02;  1.0000000E+04;  0.0000000E+00;  9.9997764E+03; -1.6868010E-01;  0.0000000E+00;  3.7180693E-03;  1.5454570E+02;
  1.5996417E-01;  9.9999998E-03;  2.4000184E-01;1304; -2.0252457E-02;  0.0000000E+00;  8.2538975E-04;  1.0003381E+03;  4.0000001E-01;  2.8009079E+02;3; -8.6916008E+00;  0.0000000E+00;  3.0317020E-01;0; -1.6342111E-01;  1.0006895E+04;  0.0000000E+00; -5.4928556E-02;  1.0000000E+04;  0.0000000E+00;  9.9998643E+03; -1.6536498E-01;  0.0000000E+00;  1.9438697E-03;  3.0287817E+02;
  1.5996777E-01;  9.9999998E-03;  2.6000211E-01;1305; -1.8145027E-02;  0.0000000E+00;  9.2678948E-04;  1.0003342E+03;  4.0000001E-01;  2.7683163E+02;3; -8.3551559E+00;  0.0000000E+00;  3.4832764E-01;0; -1.6177031E-01;  1.0006672E+04;  0.0000000E+00; -1.4016148E-01;  1.0000000E+04;  0.0000000E+00;  1.0000015E+04; -1.6060092E-01;  0.0000000E+00; -1.1694029E-03;  7.3701996E+02;
  1.5997267E-01;  9.9999998E-03;  2.8000247E-01;1306; -1.5348161E-02;  0.0000000E+00;  1.1086101E-03;  1.0003258E+03;  4.0000001E-01;  2.6991824E+02;3; -7.8657026E+00;  0.0000000E+00;  4.7877979E-01;0; -1.5803888E-01;  1.0006302E+04;  0.0000000E+00; -2.6672417E-01;  1.0000000E+04;  0.0000000E+00;  1.0000210E+04; -1.5280721E-01;  0.0000000E+00; -5.2316757E-03;  1.4041315E+03;
  1.5997925E-01;  9.9999998E-03;  3.0000350E-01;1307; -1.1597214E-02;  0.0000000E+00;  1.7586442E-03;  1.0003001E+03;  4.0000001E-01;  2.4868428E+02;3; -6.7425575E+00;  0.0000000E+00;  9.7418213E-01;0; -1.4587642E-01;  1.0005640E+04;  0.0000000E+00; -3.8259807E-01;  1.0000000E+04;  0.0000000E+00;  1.0000364E+04; -1.3772145E-01;  0.0000000E+00; -8.1549780E-03;  2.0164877E+03;
  1.7995203E-01;  9.9999998E-03;  1.6000135E-01;1331; -2.6993614E-02;  0.0000000E+00;  7.7927025E-04;  1.0003933E+03;  4.0000001E-01;  3.2581790E+02;3; -1.0985146E+01;  0.0000000E+00;  3.9653257E-01;0; -1.8566874E-01;  1.0008164E+04;  0.0000000E+00; -1.5216451E-06;  1.0000000E+04;  0.0000000E+00;  9.9996992E+03; -1.9150515E-01;  0.0000000E+00;  5.8364114E-03;  1.7354613E+02;
  1.7995219E-01;  9.9999998E-03;  1.8000157E-01;1332; -2.6804484E-02;  0.0000000E+00;  8.5564522E-04;  1.0003950E+03;  4.0000001E-01;  3.2729935E+02;3; -1.0814599E+01;  0.0000000E+00;  4.0236682E-01;0; -1.8636255E-01;  1.0008219E+04;  0.0000000E+00; -4.1303539E-04;  1.0000000E+04;  0.0000000E+00;  9.9996816E+03; -1.9208778E-01;  0.0000000E+00;  5.7252343E-03;  1.8292383E+02;
  1.7995286E-01;  9.9999998E-03;  2.0000179E-01;1333; -2.6329543E-02;  0.0000000E+00;  9.0694003E-04;  1.0003956E+03;  4.0000001E-01;  3.2779315E+02;3; -1.0578058E+01;  0.0000000E+00;  3.8706744E-01;0; -1.8657325E-01;  1.0008242E+04;  0.0000000E+00; -5.1865540E-03;  1.0000000E+04;  0.0000000E+00;  9.9996699E+03; -1.9220145E-01;  0.0000000E+00;  5.6282040E-03;  1.9056064E+02;
  1.7995432E-01;  9.9999998E-03;  2.2000200E-01;1334; -2.5408702E-02;  0.0000000E+00;  9.4096246E-04;  1.0003972E+03;  4.0000001E-01;  3.2907706E+02;3; -1.0298074E+01;  0.0000000E+00;  3.6401236E-01;0; -1.8735623E-01;  1.0008254E+04;  0.0000000E+00; -2.8425185E-02;  1.0000000E+04;  0.0000000E+00;  9.9996943E+03; -1.9235134E-01;  0.0000000E+00;  4.9951151E-03;  2.3225026E+02;
  1.7995693E-01;  9.9999998E-03;  2.4000217E-01;1335; -2.3867067E-02;  0.0000000E+00;  9.5033005E-04;  1.0004025E+03;  4.0000001E-01;  3.3342261E+02;3; -1.0015863E+01;  0.0000000E+00;  3.3856630E-01;0; -1.9018967E-01;  1.0008264E+04;  0.0000000E+00; -9.8945960E-02;  1.0000000E+04;  0.0000000E+00;  9.9997861E+03; -1.9320308E-01;  0.0000000E+00;  3.0133952E-03;  5.3742310E+02;
  1.7996091E-01;  9.9999998E-03;  2.6000240E-01;1336; -2.1567244E-02;  0.0000000E+00;  1.0319577E-03;  1.0004128E+03;  4.0000001E-01;  3.4201495E+02;3; -9.7166185E+00;  0.0000000E+00;  3.8344955E-01;0; -1.9573121E-01;  1.0008282E+04;  0.0000000E+00; -2.5045976E-01;  1.0000000E+04;  0.0000000E+00;  9.9999775E+03; -1.9488838E-01;  0.0000000E+00; -8.4282923E-04;  1.3193776E+03;
  1.7996638E-01;  9.9999998E-03;  2.8000280E-01;1337; -1.8505597E-02;  0.0000000E+00;  1.2053108E-03;  1.0004230E+03;  4.0000001E-01;  3.5040979E+02;3; -9.3083506E+00;  0.0000000E+00;  5.0518322E-01;0; -2.0173430E-01;  1.0008230E+04;  0.0000000E+00; -4.8238418E-01;  1.0000000E+04;  0.0000000E+00;  1.0000233E+04; -1.9561860E-01;  0.0000000E+00; -6.1157099E-03;  2.5415085E+03;
  1.7997365E-01;  9.9999998E-03;  3.0000377E-01;1338; -1.4483289E-02;  0.0000000E+00;  1.7599359E-03;  1.0004141E+03;  4.0000001E-01;  3.4300259E+02;3; -8.3180809E+00;  0.0000000E+00;  9.2143059E-01;0; -1.9841617E-01;  1.0007839E+04;  0.0000000E+00; -7.0644099E-01;  1.0000000E+04;  0.0000000E+00;  1.0000443E+04; -1.8847349E-01;  0.0000000E+00; -9.9426769E-03;  3.7242847E+03;
  1.9994359E-01;  9.9999998E-03;  1.6000187E-01;1362; -3.1132609E-02;  0.0000000E+00;  1.0888883E-03;  1.0004467E+03;  4.0000001E-01;  3.7006354E+02;3; -1.2393782E+01;  0.0000000E+00;  5.3216976E-01;0; -2.0509759E-01;  1.0009335E+04;  0.0000000E+00; -5.9750182E-06;  1.0000000E+04;  0.0000000E+00;  9.9996006E+03; -2.1290214E-01;  0.0000000E+00;  7.8045530E-03;  2.2491417E+02;
  1.9994365E-01;  9.9999998E-03;  1.8000215E-01;1363; -3.0978907E-02;  0.0000000E+00;  1.1806287E-03;  1.0004496E+03;  4.0000001E-01;  3.7253262E+02;3; -1.2217252E+01;  0.0000000E+00;  5.3896844E-01;0; -2.0635320E-01;  1.0009430E+04;  0.0000000E+00; -7.2087441E-04;  1.0000000E+04;  0.0000000E+00;  9.9995654E+03; -2.1422897E-01;  0.0000000E+00;  7.8757768E-03;  2.4245082E+02;
  1.9994424E-01;  9.9999998E-03;  2.0000240E-01;1364; -3.0523604E-02;  0.0000000E+00;  1.2328316E-03;  1.0004523E+03;  4.0000001E-01;  3.7470538E+02;3; -1.1975992E+01;  0.0000000E+00;  5.1932442E-01;0; -2.0761244E-01;  1.0009516E+04;  0.0000000E+00; -7.8849280E-03;  1.0000000E+04;  0.0000000E+00;  9.9995313E+03; -2.1567954E-01;  0.0000000E+00;  8.0671003E-03;  2.6168692E+02;
  1.9994572E-01;  9.9999998E-03;  2.2000261E-01;1365; -2.9585460E-02;  0.0000000E+00;  1.2430898E-03;  1.0004579E+03;  4.0000001E-01;  3.7944601E+02;3; -1.1708472E+01;  0.0000000E+00;  4.7681034E-01;0; -2.1060343E-01;  1.0009623E+04;  0.0000000E+00; -4.0869068E-02;  1.0000000E+04;  0.0000000E+00;  9.9995391E+03; -2.1820295E-01;  0.0000000E+00;  7.5995247E-03;  3.3368808E+02;
  1.9994847E-01;  9.9999998E-03;  2.4000272E-01;1366; -2.7959689E-02;  0.0000000E+00;  1.2002628E-03;  1.0004719E+03;  4.0000001E-01;  3.9100122E+02;3; -1.1458046E+01;  0.0000000E+00;  4.3559742E-01;0; -2.1782048E-01;  1.0009797E+04;  0.0000000E+00; -1.3971214E-01;  1.0000000E+04;  0.0000000E+00;  9.9996504E+03; -2.2304171E-01;  0.0000000E+00;  5.2212309E-03;  7.6440509E+02;
  1.9995278E-01;  9.9999998E-03;  2.6000285E-01;1367; -2.5515825E-02;  0.0000000E+00;  1.1891618E-03;  1.0004977E+03;  4.0000001E-01;  4.1233395E+02;3; -1.1247741E+01;  0.0000000E+00;  4.3181515E-01;0; -2.3114932E-01;  1.0010063E+04;  0.0000000E+00; -3.5510427E-01;  1.0000000E+04;  0.0000000E+00;  9.9998975E+03; -2.3100954E-01;  0.0000000E+00; -1.3977685E-04;  1.8747998E+03;
  1.9995867E-01;  9.9999998E-03;  2.8000313E-01;1368; -2.2288451E-02;  0.0000000E+00;  1.2770819E-03;  1.0005313E+03;  4.0000001E-01;  4.4008624E+02;3; -1.1006843E+01;  0.0000000E+00;  5.0721169E-01;0; -2.4882239E-01;  1.0010354E+04;  0.0000000E+00; -6.9467497E-01;  1.0000000E+04;  0.0000000E+00;  1.0000276E+04; -2.4077006E-01;  0.0000000E+00; -8.0523351E-03;  3.6664717E+03;
  1.9996630E-01;  9.9999998E-03;  3.0000371E-01;1369; -1.8257719E-02;  0.0000000E+00;  1.5053485E-03;  1.0005490E+03;  4.0000001E-01;  4.5480188E+02;3; -1.0387777E+01;  0.0000000E+00;  6.8089867E-01;0; -2.5990874E-01;  1.0010351E+04;  0.0000000E+00; -1.0300103E+00;  1.0000000E+04;  0.0000000E+00;  1.0000626E+04; -2.4460959E-01;  0.0000000E+00; -1.5299136E-02;  5.4427642E+03;
  2.1993397E-01;  9.9999998E-03;  1.6000265E-01;1393; -3.5711151E-02;  0.0000000E+00;  1.5602144E-03;  1.0005053E+03;  4.0000001E-01;  4.1865475E+02;3; -1.3887811E+01;  0.0000000E+00;  7.3907387E-01;0; -2.2546490E-01;  1.0010665E+04;  0.0000000E+00; -6.7671658E-06;  1.0000000E+04;  0.0000000E+00;  9.9994434E+03; -2.3648714E-01;  0.0000000E+00;  1.1022236E-02;  3.0237671E+02;
  2.1993390E-01;  9.9999998E-03;  1.8000305E-01;1394; -3.5597593E-02;  0.0000000E+00;  1.6907116E-03;  1.0005091E+03;  4.0000001E-01;  4.2181516E+02;3; -1.3703849E+01;  0.0000000E+00;  7.4927884E-01;0; -2.2703256E-01;  1.0010801E+04;  0.0000000E+00; -8.2227949E-04;  1.0000000E+04;  0.0000000E+00;  9.9993857E+03; -2.3850830E-01;  0.0000000E+00;  1.1475745E-02;  3.3357050E+02;
  2.1993437E-01;  9.9999998E-03;  2.0000336E-01;1395; -3.5173021E-02;  0.0000000E+00;  1.7602361E-03;  1.0005130E+03;  4.0000001E-01;  4.2497559E+02;3; -1.3457785E+01;  0.0000000E+00;  7.2989333E-01;0; -2.2889350E-01;  1.0010946E+04;  0.0000000E+00; -8.8732317E-03;  1.0000000E+04;  0.0000000E+00;  9.9993164E+03; -2.4106124E-01;  0.0000000E+00;  1.2167734E-02;  3.6892642E+02;
  2.1993580E-01;  9.9999998E-03;  2.2000359E-01;1396; -3.4252442E-02;  0.0000000E+00;  1.7396047E-03;  1.0005214E+03;  4.0000001E-01;  4.3198773E+02;3; -1.3218534E+01;  0.0000000E+00;  6.7090142E-01;0; -2.3324494E-01;  1.0011136E+04;  0.0000000E+00; -4.5587808E-02;  1.0000000E+04;  0.0000000E+00;  9.9992969E+03; -2.4528839E-01;  0.0000000E+00;  1.2043440E-02;  4.4649289E+02;
  2.1993864E-01;  9.9999998E-03;  2.4000368E-01;1397; -3.2573827E-02;  0.0000000E+00;  1.6779390E-03;  1.0005411E+03;  4.0000001E-01;  4.4828354E+02;3; -1.3017323E+01;  0.0000000E+00;  6.3491249E-01;0; -2.4336953E-01;  1.0011419E+04;  0.0000000E+00; -1.5610416E-01;  1.0000000E+04;  0.0000000E+00;  9.9994082E+03; -2.5266367E-01;  0.0000000E+00;  9.2941374E-03;  8.8574445E+02;
  2.1994321E-01;  9.9999998E-03;  2.6000383E-01;1398; -3.0032489E-02;  0.0000000E+00;  1.6265861E-03;  1.0005783E+03;  4.0000001E-01;  4.7909750E+02;3; -1.2946523E+01;  0.0000000E+00;  6.0880947E-01;0; -2.6237461E-01;  1.0011831E+04;  0.0000000E+00; -4.0100372E-01;  1.0000000E+04;  0.0000000E+00;  9.9997354E+03; -2.6431981E-01;  0.0000000E+00;  1.9452018E-03;  2.1256941E+03;
  2.1994941E-01;  9.9999998E-03;  2.8000429E-01;1399; -2.6726460E-02;  0.0000000E+00;  1.7584608E-03;  1.0006291E+03;  4.0000001E-01;  5.2117035E+02;3; -1.2952107E+01;  0.0000000E+00;  7.1938515E-01;0; -2.8866938E-01;  1.0012328E+04;  0.0000000E+00; -7.9465711E-01;  1.0000000E+04;  0.0000000E+00;  1.0000254E+04; -2.7928489E-01;  0.0000000E+00; -9.3844915E-03;  4.2026367E+03;
  2.1995784E-01;  9.9999998E-03;  3.0000561E-01;1400; -2.2451013E-02;  0.0000000E+00;  2.2481338E-03;  1.0006584E+03;  4.0000001E-01;  5.4546594E+02;3; -1.2615604E+01;  0.0000000E+00;  1.0158367E+00;0; -3.0686662E-01;  1.0012509E+04;  0.0000000E+00; -1.1958859E+00;  1.0000000E+04;  0.0000000E+00;  1.0000659E+04; -2.8875011E-01;  0.0000000E+00; -1.8116502E-02;  6.3348335E+03;
  2.3992303E-01;  9.9999998E-03;  1.6000375E-01;1424; -4.0771823E-02;  0.0000000E+00;  2.2090853E-03;  1.0005696E+03;  4.0000001E-01;  4.7188782E+02;3; -1.5470584E+01;  0.0000000E+00;  1.0116923E+00;0; -2.4667673E-01;  1.0012168E+04;  0.0000000E+00; -1.8916988E-06;  1.0000000E+04;  0.0000000E+00;  9.9992295E+03; -2.6228952E-01;  0.0000000E+00;  1.5612796E-02;  4.0968713E+02;
  2.3992278E-01;  9.9999998E-03;  1.8000428E-01;1425; -4.0703423E-02;  0.0000000E+00;  2.4019671E-03;  1.0005736E+03;  4.0000001E-01;  4.7524576E+02;3; -1.5273416E+01;  0.0000000E+00;  1.0446440E+00;0; -2.4823433E-01;  1.0012349E+04;  0.0000000E+00; -6.0693501E-04;  1.0000000E+04;  0.0000000E+00;  9.9991221E+03; -2.6486427E-01;  0.0000000E+00;  1.6629936E-02;  4.5998792E+02;
  2.3992310E-01;  9.9999998E-03;  2.0000479E-01;1426; -4.0317394E-02;  0.0000000E+00;  2.5589550E-03;  1.0005775E+03;  4.0000001E-01;  4.7840616E+02;3; -1.5025107E+01;  0.0000000E+00;  1.0680658E+00;0; -2.5006530E-01;  1.0012546E+04;  0.0000000E+00; -7.3488234E-03;  1.0000000E+04;  0.0000000E+00;  9.9990107E+03; -2.6811254E-01;  0.0000000E+00;  1.8047232E-02;  5.1680676E+02;
  2.3992442E-01;  9.9999998E-03;  2.2000520E-01;1427; -3.9445169E-02;  0.0000000E+00;  2.6017174E-03;  1.0005861E+03;  4.0000001E-01;  4.8551706E+02;3; -1.4821503E+01;  0.0000000E+00;  1.0231556E+00;0; -2.5444129E-01;  1.0012781E+04;  0.0000000E+00; -3.9306019E-02;  1.0000000E+04;  0.0000000E+00;  9.9989463E+03; -2.7307281E-01;  0.0000000E+00;  1.8631531E-02;  5.8664221E+02;
  2.3992717E-01;  9.9999998E-03;  2.4000563E-01;1428; -3.7804641E-02;  0.0000000E+00;  2.6852731E-03;  1.0006062E+03;  4.0000001E-01;  5.0220795E+02;3; -1.4722855E+01;  0.0000000E+00;  1.0523422E+00;0; -2.6477402E-01;  1.0013103E+04;  0.0000000E+00; -1.3762414E-01;  1.0000000E+04;  0.0000000E+00;  9.9990254E+03; -2.8105393E-01;  0.0000000E+00;  1.6279913E-02;  8.9022784E+02;
  2.3993185E-01;  9.9999998E-03;  2.6000664E-01;1429; -3.5236720E-02;  0.0000000E+00;  3.0442271E-03;  1.0006428E+03;  4.0000001E-01;  5.3252808E+02;3; -1.4834849E+01;  0.0000000E+00;  1.2277889E+00;0; -2.8352255E-01;  1.0013541E+04;  0.0000000E+00; -3.6079371E-01;  1.0000000E+04;  0.0000000E+00;  9.9993232E+03; -2.9299346E-01;  0.0000000E+00;  9.4709229E-03;  1.9461133E+03;
  2.3993830E-01;  9.9999998E-03;  2.8000891E-01;1430; -3.1834241E-02;  0.0000000E+00;  4.1114511E-03;  1.0006848E+03;  4.0000001E-01;  5.6729254E+02;3; -1.5079025E+01;  0.0000000E+00;  1.8961897E+00;0; -3.0445677E-01;  1.0014032E+04;  0.0000000E+00; -7.3094797E-01;  1.0000000E+04;  0.0000000E+00;  9.9996650E+03; -3.0775213E-01;  0.0000000E+00;  3.2953490E-03;  3.8792043E+03;
  2.3994730E-01;  9.9999998E-03;  3.0001307E-01;1431; -2.7327038E-02;  0.0000000E+00;  5.9141340E-03;  1.0006824E+03;  4.0000001E-01;  5.6531726E+02;3; -1.5019096E+01;  0.0000000E+00;  2.9872379E+00;0; -3.0781958E-01;  1.0014192E+04;  0.0000000E+00; -1.1349164E+00;  1.0000000E+04;  0.0000000E+00;  9.9994619E+03; -3.1687540E-01;  0.0000000E+00;  9.0558138E-03;  6.0282539E+03;
  2.5991055E-01;  9.9999998E-03;  1.6000515E-01;1455; -4.6367150E-02;  0.0000000E+00;  3.0408860E-03;  1.0006401E+03;  4.0000001E-01;  5.3035522E+02;3; -1.7144583E+01;  0.0000000E+00;  1.3647481E+00;0; -2.6883128E-01;  1.0013858E+04;  0.0000000E+00;  2.0222735E-07;  1.0000000E+04;  0.0000000E+00;  9.9989502E+03; -2.9030859E-01;  0.0000000E+00;  2.1477301E-02;  5.4699445E+02;
  2.5991008E-01;  9.9999998E-03;  1.8000597E-01;1456; -4.6346493E-02;  0.0000000E+00;  3.3666864E-03;  1.0006440E+03;  4.0000001E-01;  5.3351563E+02;3; -1.6929810E+01;  0.0000000E+00;  1.4464126E+00;0; -2.7010259E-01;  1.0014081E+04;  0.0000000E+00; -2.5371736E-04;  1.0000000E+04;  0.0000000E+00;  9.9987998E+03; -2.9323697E-01;  0.0000000E+00;  2.3134394E-02;  6.2012799E+02;
  2.5991023E-01;  9.9999998E-03;  2.0000683E-01;1457; -4.6021666E-02;  0.0000000E+00;  3.6698116E-03;  1.0006470E+03;  4.0000001E-01;  5.3598474E+02;3; -1.6686138E+01;  0.0000000E+00;  1.5031213E+00;0; -2.7137825E-01;  1.0014317E+04;  0.0000000E+00; -4.2665424E-03;  1.0000000E+04;  0.0000000E+00;  9.9986260E+03; -2.9676005E-01;  0.0000000E+00;  2.5381804E-02;  7.0315155E+02;
  2.5991130E-01;  9.9999998E-03;  2.2000772E-01;1458; -4.5225799E-02;  0.0000000E+00;  3.9517633E-03;  1.0006530E+03;  4.0000001E-01;  5.4102161E+02;3; -1.6522301E+01;  0.0000000E+00;  1.5704613E+00;0; -2.7452531E-01;  1.0014578E+04;  0.0000000E+00; -2.5527149E-02;  1.0000000E+04;  0.0000000E+00;  9.9984922E+03; -3.0161422E-01;  0.0000000E+00;  2.7088922E-02;  7.8053979E+02;
  2.5991377E-01;  9.9999998E-03;  2.4000885E-01;1459; -4.3722592E-02;  0.0000000E+00;  4.3689269E-03;  1.0006680E+03;  4.0000001E-01;  5.5346570E+02;3; -1.6569172E+01;  0.0000000E+00;  1.7496550E+00;0; -2.8225213E-01;  1.0014887E+04;  0.0000000E+00; -9.4139330E-02;  1.0000000E+04;  0.0000000E+00;  9.9984805E+03; -3.0873123E-01;  0.0000000E+00;  2.6479099E-02;  9.2146790E+02;
  2.5991818E-01;  9.9999998E-03;  2.6001111E-01;1460; -4.1288737E-02;  0.0000000E+00;  5.3451802E-03;  1.0006932E+03;  4.0000001E-01;  5.7430463E+02;3; -1.6924377E+01;  0.0000000E+00;  2.2566905E+00;0; -2.9469851E-01;  1.0015264E+04;  0.0000000E+00; -2.5487575E-01;  1.0000000E+04;  0.0000000E+00;  9.9986055E+03; -3.1872275E-01;  0.0000000E+00;  2.4024254E-02;  1.5301735E+03;
  2.5992453E-01;  9.9999998E-03;  2.8001514E-01;1461; -3.7972268E-02;  0.0000000E+00;  7.1325032E-03;  1.0007089E+03;  4.0000001E-01;  5.8734131E+02;3; -1.7563993E+01;  0.0000000E+00;  3.2740507E+00;0; -3.0299437E-01;  1.0015652E+04;  0.0000000E+00; -5.2781028E-01;  1.0000000E+04;  0.0000000E+00;  9.9985303E+03; -3.3065754E-01;  0.0000000E+00;  2.7663166E-02;  2.9024919E+03;
  2.5993326E-01;  9.9999998E-03;  3.0002037E-01;1462; -3.3639610E-02;  0.0000000E+00;  9.1387499E-03;  1.0006825E+03;  4.0000001E-01;  5.6541595E+02;3; -1.8046209E+01;  0.0000000E+00;  4.5824099E+00;0; -2.9745170E-01;  1.0015784E+04;  0.0000000E+00; -8.2914060E-01;  1.0000000E+04;  0.0000000E+00;  9.9978730E+03; -3.3883029E-01;  0.0000000E+00;  4.1378587E-02;  4.5353599E+03;
  2.7989632E-01;  9.9999998E-03;  1.6000688E-01;1486; -5.2550141E-02;  0.0000000E+00;  4.0594642E-03;  1.0007184E+03;  4.0000001E-01;  5.9524231E+02;3; -1.8915546E+01;  0.0000000E+00;  1.7784326E+00;0; -2.9221785E-01;  1.0015755E+04;  0.0000000E+00;  1.5000819E-07;  1.0000000E+04;  0.0000000E+00;  9.9986172E+03; -3.2052889E-01;  0.0000000E+00;  2.8311037E-02;  7.1098962E+02;
  2.7989563E-01;  9.9999998E-03;  1.8000807E-01;1487; -5.2583490E-02;  0.0000000E+00;  4.5579351E-03;  1.0007213E+03;  4.0000001E-01;  5.9761261E+02;3; -1.8678556E+01;  0.0000000E+00;  1.9281474E+00;0; -2.9304767E-01;  1.0016019E+04;  0.0000000E+00; -3.2599346E-05;  1.0000000E+04;  0.0000000E+00;  9.9984170E+03; -3.2356930E-01;  0.0000000E+00;  3.0521635E-02;  8.0777930E+02;
  2.7989548E-01;  9.9999998E-03;  2.0000939E-01;1488; -5.2330110E-02;  0.0000000E+00;  5.0736088E-03;  1.0007232E+03;  4.0000001E-01;  5.9919281E+02;3; -1.8430851E+01;  0.0000000E+00;  2.0678658E+00;0; -2.9354042E-01;  1.0016279E+04;  0.0000000E+00; -1.5200264E-03;  1.0000000E+04;  0.0000000E+00;  9.9981885E+03; -3.2701686E-01;  0.0000000E+00;  3.3476453E-02;  9.1747565E+02;
  2.7989626E-01;  9.9999998E-03;  2.2001095E-01;1489; -5.1636077E-02;  0.0000000E+00;  5.6729033E-03;  1.0007262E+03;  4.0000001E-01;  6.0166187E+02;3; -1.8314241E+01;  0.0000000E+00;  2.2488756E+00;0; -2.9489264E-01;  1.0016548E+04;  0.0000000E+00; -1.1715316E-02;  1.0000000E+04;  0.0000000E+00;  9.9979785E+03; -3.3125460E-01;  0.0000000E+00;  3.6361970E-02;  1.0202799E+03;
  2.7989835E-01;  9.9999998E-03;  2.4001294E-01;1490; -5.0302915E-02;  0.0000000E+00;  6.4581819E-03;  1.0007335E+03;  4.0000001E-01;  6.0768640E+02;3; -1.8520002E+01;  0.0000000E+00;  2.5891852E+00;0; -2.9870173E-01;  1.0016827E+04;  0.0000000E+00; -4.8133198E-02;  1.0000000E+04;  0.0000000E+00;  9.9978525E+03; -3.3681321E-01;  0.0000000E+00;  3.8111471E-02;  1.1093376E+03;
  2.7990225E-01;  9.9999998E-03;  2.6001608E-01;1491; -4.8139755E-02;  0.0000000E+00;  7.7535557E-03;  1.0007444E+03;  4.0000001E-01;  6.1667377E+02;3; -1.9219208E+01;  0.0000000E+00;  3.2364938E+00;0; -3.0393249E-01;  1.0017120E+04;  0.0000000E+00; -1.3761987E-01;  1.0000000E+04;  0.0000000E+00;  9.9977734E+03; -3.4406874E-01;  0.0000000E+00;  4.0136237E-02;  1.3349003E+03;
  2.7990809E-01;  9.9999998E-03;  2.8002077E-01;1492; -4.5116693E-02;  0.0000000E+00;  9.5797768E-03;  1.0007402E+03;  4.0000001E-01;  6.1321710E+02;3; -2.0379660E+01;  0.0000000E+00;  4.2802310E+00;0; -3.0406165E-01;  1.0017399E+04;  0.0000000E+00; -2.9232830E-01;  1.0000000E+04;  0.0000000E+00;  9.9974160E+03; -3.5255456E-01;  0.0000000E+00;  4.8492905E-02;  2.0170391E+03;
  2.7991617E-01;  9.9999998E-03;  3.0002588E-01;1493; -4.1136928E-02;  0.0000000E+00;  1.1339361E-02;  1.0007106E+03;  4.0000001E-01;  5.8872394E+02;3; -2.1547707E+01;  0.0000000E+00;  5.6053920E+00;0; -2.9826429E-01;  1.0017507E+04;  0.0000000E+00; -4.6304324E-01;  1.0000000E+04;  0.0000000E+00;  9.9967148E+03; -3.5934991E-01;  0.0000000E+00;  6.1085623E-02;  2.9507300E+03;
  2.9988015E-01;  9.9999998E-03;  1.6000891E-01;1517; -5.9372764E-02;  0.0000000E+00;  5.2303537E-03;  1.0008049E+03;  4.0000001E-01;  6.6684509E+02;3; -2.0783943E+01;  0.0000000E+00;  2.2445390E+00;0; -3.1725356E-01;  1.0017872E+04;  0.0000000E+00;  8.4883268E-08;  1.0000000E+04;  0.0000000E+00;  9.9982412E+03; -3.5295689E-01;  0.0000000E+00;  3.5703324E-02;  8.9644000E+02;
  2.9987916E-01;  9.9999998E-03;  1.8001054E-01;1518; -5.9465159E-02;  0.0000000E+00;  5.9284791E-03;  1.0008076E+03;  4.0000001E-01;  6.6911664E+02;3; -2.0514734E+01;  0.0000000E+00;  2.4633148E+00;0; -3.1758922E-01;  1.0018167E+04;  0.0000000E+00;  2.7076178E-06;  1.0000000E+04;  0.0000000E+00;  9.9979922E+03; -3.5583344E-01;  0.0000000E+00;  3.8244214E-02;  1.0151736E+03;
  2.9987872E-01;  9.9999998E-03;  2.0001239E-01;1519; -5.9280585E-02;  0.0000000E+00;  6.6674026E-03;  1.0008082E+03;  4.0000001E-01;  6.6951166E+02;3; -2.0260387E+01;  0.0000000E+00;  2.6713543E+00;0; -3.1734589E-01;  1.0018452E+04;  0.0000000E+00; -2.1909014E-04;  1.0000000E+04;  0.0000000E+00;  9.9977207E+03; -3.5891727E-01;  0.0000000E+00;  4.1571379E-02;  1.1474014E+03;
  2.9987916E-01;  9.9999998E-03;  2.2001459E-01;1520; -5.8671523E-02;  0.0000000E+00;  7.5207851E-03;  1.0008083E+03;  4.0000001E-01;  6.6970923E+02;3; -2.0180225E+01;  0.0000000E+00;  2.9467056E+00;0; -3.1713733E-01;  1.0018723E+04;  0.0000000E+00; -3.2410880E-03;  1.0000000E+04;  0.0000000E+00;  9.9974570E+03; -3.6229730E-01;  0.0000000E+00;  4.5159962E-02;  1.2760204E+03;
  2.9988089E-01;  9.9999998E-03;  2.4001729E-01;1521; -5.7469860E-02;  0.0000000E+00;  8.5740667E-03;  1.0008097E+03;  4.0000001E-01;  6.7079559E+02;3; -2.0528992E+01;  0.0000000E+00;  3.3725455E+00;0; -3.1763181E-01;  1.0018972E+04;  0.0000000E+00; -1.6869385E-02;  1.0000000E+04;  0.0000000E+00;  9.9972344E+03; -3.6618721E-01;  0.0000000E+00;  4.8555415E-02;  1.3836023E+03;
  2.9988432E-01;  9.9999998E-03;  2.6002097E-01;1522; -5.5516686E-02;  0.0000000E+00;  9.9691441E-03;  1.0008102E+03;  4.0000001E-01;  6.7128943E+02;3; -2.1543871E+01;  0.0000000E+00;  4.0675573E+00;0; -3.1768006E-01;  1.0019198E+04;  0.0000000E+00; -5.3836182E-02;  1.0000000E+04;  0.0000000E+00;  9.9970205E+03; -3.7077254E-01;  0.0000000E+00;  5.3092480E-02;  1.5084570E+03;
  2.9988962E-01;  9.9999998E-03;  2.8002578E-01;1523; -5.2760098E-02;  0.0000000E+00;  1.1630449E-02;  1.0007979E+03;  4.0000001E-01;  6.6101807E+02;3; -2.3232410E+01;  0.0000000E+00;  5.0908847E+00;0; -3.1418404E-01;  1.0019379E+04;  0.0000000E+00; -1.2110901E-01;  1.0000000E+04;  0.0000000E+00;  9.9965850E+03; -3.7593269E-01;  0.0000000E+00;  6.1748650E-02;  1.8042163E+03;
  2.9989704E-01;  9.9999998E-03;  3.0003071E-01;1524; -4.9178936E-02;  0.0000000E+00;  1.3149150E-02;  1.0007719E+03;  4.0000001E-01;  6.3948785E+02;3; -2.5197121E+01;  0.0000000E+00;  6.4051690E+00;0; -3.1023827E-01;  1.0019459E+04;  0.0000000E+00; -1.9657232E-01;  1.0000000E+04;  0.0000000E+00;  9.9959912E+03; -3.8057387E-01;  0.0000000E+00;  7.0335597E-02;  2.2310315E+03;
  3.1986180E-01;  9.9999998E-03;  1.6001116E-01;1548; -6.6881187E-02;  0.0000000E+00;  6.5062996E-03;  1.0009022E+03;  4.0000001E-01;  7.4743536E+02;3; -2.2746351E+01;  0.0000000E+00;  2.7339606E+00;0; -3.4436956E-01;  1.0020228E+04;  0.0000000E+00; -3.4539327E-09;  1.0000000E+04;  0.0000000E+00;  9.9978301E+03; -3.8764316E-01;  0.0000000E+00;  4.3273594E-02;  1.0983562E+03;
  3.1986046E-01;  9.9999998E-03;  1.8001327E-01;1549; -6.7032866E-02;  0.0000000E+00;  7.3980903E-03;  1.0009041E+03;  4.0000001E-01;  7.4901556E+02;3; -2.2442589E+01;  0.0000000E+00;  3.0107353E+00;0; -3.4421709E-01;  1.0020549E+04;  0.0000000E+00;  2.2235174E-06;  1.0000000E+04;  0.0000000E+00;  9.9975508E+03; -3.9008573E-01;  0.0000000E+00;  4.5868635E-02;  1.2362861E+03;
  3.1985968E-01;  9.9999998E-03;  2.0001565E-01;1550; -6.6902988E-02;  0.0000000E+00;  8.3271973E-03;  1.0009041E+03;  4.0000001E-01;  7.4901556E+02;3; -2.2159920E+01;  0.0000000E+00;  3.2565312E+00;0; -3.4336388E-01;  1.0020856E+04;  0.0000000E+00;  1.4789690E-05;  1.0000000E+04;  0.0000000E+00;  9.9972402E+03; -3.9254218E-01;  0.0000000E+00;  4.9178317E-02;  1.3855631E+03;
  3.1985980E-01;  9.9999998E-03;  2.2001839E-01;1551; -6.6352516E-02;  0.0000000E+00;  9.3621025E-03;  1.0009026E+03;  4.0000001E-01;  7.4783044E+02;3; -2.2099144E+01;  0.0000000E+00;  3.5907431E+00;0; -3.4209386E-01;  1.0021130E+04;  0.0000000E+00; -2.9128141E-04;  1.0000000E+04;  0.0000000E+00;  9.9969375E+03; -3.9494172E-01;  0.0000000E+00;  5.2847851E-02;  1.5307642E+03;
  3.1986129E-01;  9.9999998E-03;  2.4002165E-01;1552; -6.5194681E-02;  0.0000000E+00;  1.0565239E-02;  1.0009006E+03;  4.0000001E-01;  7.4615143E+02;3; -2.2563993E+01;  0.0000000E+00;  4.0532918E+00;0; -3.4061408E-01;  1.0021355E+04;  0.0000000E+00; -3.1210040E-03;  1.0000000E+04;  0.0000000E+00;  9.9966719E+03; -3.9730418E-01;  0.0000000E+00;  5.6690082E-02;  1.6570442E+03;
  3.1986448E-01;  9.9999998E-03;  2.6002565E-01;1553; -6.3319057E-02;  0.0000000E+00;  1.1962404E-02;  1.0008969E+03;  4.0000001E-01;  7.4299103E+02;3; -2.3858765E+01;  0.0000000E+00;  4.7787633E+00;0; -3.3812714E-01;  1.0021533E+04;  0.0000000E+00; -1.3091614E-02;  1.0000000E+04;  0.0000000E+00;  9.9964180E+03; -3.9970371E-01;  0.0000000E+00;  6.1576586E-02;  1.7783198E+03;
  3.1986955E-01;  9.9999998E-03;  2.8003052E-01;1554; -6.0690533E-02;  0.0000000E+00;  1.3472903E-02;  1.0008832E+03;  4.0000001E-01;  7.3173212E+02;3; -2.6036730E+01;  0.0000000E+00;  5.7963901E+00;0; -3.3357829E-01;  1.0021654E+04;  0.0000000E+00; -3.3588979E-02;  1.0000000E+04;  0.0000000E+00;  9.9960166E+03; -4.0214798E-01;  0.0000000E+00;  6.8569705E-02;  1.9742230E+03;
  3.1987667E-01;  9.9999998E-03;  3.0003551E-01;1555; -5.7336818E-02;  0.0000000E+00;  1.4873960E-02;  1.0008615E+03;  4.0000001E-01;  7.1365857E+02;3; -2.8723961E+01;  0.0000000E+00;  7.1555161E+00;0; -3.3044261E-01;  1.0021709E+04;  0.0000000E+00; -5.8965731E-02;  1.0000000E+04;  0.0000000E+00;  9.9955361E+03; -4.0438333E-01;  0.0000000E+00;  7.3940739E-02;  2.2199766E+03;
  3.3984101E-01;  9.9999998E-03;  1.6001357E-01;1579; -7.5119652E-02;  0.0000000E+00;  7.8295292E-03;  1.0010114E+03;  4.0000001E-01;  8.3790186E+02;3; -2.4798542E+01;  0.0000000E+00;  3.2072275E+00;0; -3.7390345E-01;  1.0022844E+04;  0.0000000E+00; -7.3157892E-08;  1.0000000E+04;  0.0000000E+00;  9.9973984E+03; -4.2467627E-01;  0.0000000E+00;  5.0772820E-02;  1.3135505E+03;
  3.3983925E-01;  9.9999998E-03;  1.8001617E-01;1580; -7.5323991E-02;  0.0000000E+00;  8.8919988E-03;  1.0010132E+03;  4.0000001E-01;  8.3938330E+02;3; -2.4444010E+01;  0.0000000E+00;  3.5098748E+00;0; -3.7332478E-01;  1.0023195E+04;  0.0000000E+00;  1.7362742E-06;  1.0000000E+04;  0.0000000E+00;  9.9970801E+03; -4.2649454E-01;  0.0000000E+00;  5.3169768E-02;  1.4682670E+03;
  3.3983812E-01;  9.9999998E-03;  2.0001908E-01;1581; -7.5236209E-02;  0.0000000E+00;  9.9905664E-03;  1.0010126E+03;  4.0000001E-01;  8.3898822E+02;3; -2.4125301E+01;  0.0000000E+00;  3.7912450E+00;0; -3.7193659E-01;  1.0023517E+04;  0.0000000E+00;  1.3420489E-05;  1.0000000E+04;  0.0000000E+00;  9.9967432E+03; -4.2810705E-01;  0.0000000E+00;  5.6170464E-02;  1.6308938E+03;
  3.3983797E-01;  9.9999998E-03;  2.2002229E-01;1582; -7.4706100E-02;  0.0000000E+00;  1.1148789E-02;  1.0010101E+03;  4.0000001E-01;  8.3691425E+02;3; -2.4070839E+01;  0.0000000E+00;  4.1525927E+00;0; -3.6995289E-01;  1.0023791E+04;  0.0000000E+00;  5.0151459E-05;  1.0000000E+04;  0.0000000E+00;  9.9964297E+03; -4.2942023E-01;  0.0000000E+00;  5.9467349E-02;  1.7854995E+03;
  3.3983931E-01;  9.9999998E-03;  2.4002600E-01;1583; -7.3526822E-02;  0.0000000E+00;  1.2425302E-02;  1.0010070E+03;  4.0000001E-01;  8.3424762E+02;3; -2.4631536E+01;  0.0000000E+00;  4.6388545E+00;0; -3.6750522E-01;  1.0024000E+04;  0.0000000E+00;  7.7934701E-06;  1.0000000E+04;  0.0000000E+00;  9.9961582E+03; -4.3039855E-01;  0.0000000E+00;  6.2893324E-02;  1.9167964E+03;
  3.3984247E-01;  9.9999998E-03;  2.6003027E-01;1584; -7.1603239E-02;  0.0000000E+00;  1.3807428E-02;  1.0010025E+03;  4.0000001E-01;  8.3059344E+02;3; -2.6174023E+01;  0.0000000E+00;  5.3878951E+00;0; -3.6419344E-01;  1.0024147E+04;  0.0000000E+00; -1.0182135E-03;  1.0000000E+04;  0.0000000E+00;  9.9959219E+03; -4.3108726E-01;  0.0000000E+00;  6.6893816E-02;  2.0276987E+03;
  3.3984774E-01;  9.9999998E-03;  2.8003535E-01;1585; -6.8910800E-02;  0.0000000E+00;  1.5255488E-02;  1.0009902E+03;  4.0000001E-01;  8.2032208E+02;3; -2.8788311E+01;  0.0000000E+00;  6.4376655E+00;0; -3.5963649E-01;  1.0024231E+04;  0.0000000E+00; -4.1506435E-03;  1.0000000E+04;  0.0000000E+00;  9.9955879E+03; -4.3156648E-01;  0.0000000E+00;  7.1929991E-02;  2.1865667E+03;
  3.3985510E-01;  9.9999998E-03;  3.0004063E-01;1586; -6.5494701E-02;  0.0000000E+00;  1.6628668E-02;  1.0009717E+03;  4.0000001E-01;  8.0501392E+02;3; -3.2072407E+01;  0.0000000E+00;  7.8705678E+00;0; -3.5657790E-01;  1.0024269E+04;  0.0000000E+00; -8.8843899E-03;  1.0000000E+04;  0.0000000E+00;  9.9951826E+03; -4.3189356E-01;  0.0000000E+00;  7.5315647E-02;  2.3802014E+03;
  3.5981750E-01;  9.9999998E-03;  1.6001612E-01;1610; -8.4132940E-02;  0.0000000E+00;  9.1700498E-03;  1.0011337E+03;  4.0000001E-01;  9.3923218E+02;3; -2.6931309E+01;  0.0000000E+00;  3.6384630E+00;0; -4.0603852E-01;  1.0025750E+04;  0.0000000E+00; -1.9419488E-07;  1.0000000E+04;  0.0000000E+00;  9.9969434E+03; -4.6415004E-01;  0.0000000E+00;  5.8111522E-02;  1.5409445E+03;
  3.5981533E-01;  9.9999998E-03;  1.8001920E-01;1611; -8.4379330E-02;  0.0000000E+00;  1.0382180E-02;  1.0011357E+03;  4.0000001E-01;  9.4091119E+02;3; -2.6515074E+01;  0.0000000E+00;  3.9635527E+00;0; -4.0511349E-01;  1.0026139E+04;  0.0000000E+00;  1.2745144E-06;  1.0000000E+04;  0.0000000E+00;  9.9965957E+03; -4.6525487E-01;  0.0000000E+00;  6.0141396E-02;  1.7114625E+03;
  3.5981378E-01;  9.9999998E-03;  2.0002261E-01;1612; -8.4318593E-02;  0.0000000E+00;  1.1620264E-02;  1.0011350E+03;  4.0000001E-01;  9.4031860E+02;3; -2.6146053E+01;  0.0000000E+00;  4.2668219E+00;0; -4.0327317E-01;  1.0026480E+04;  0.0000000E+00;  1.2680731E-05;  1.0000000E+04;  0.0000000E+00;  9.9962402E+03; -4.6593899E-01;  0.0000000E+00;  6.2665828E-02;  1.8862838E+03;
  3.5981336E-01;  9.9999998E-03;  2.2002633E-01;1613; -8.3788373E-02;  0.0000000E+00;  1.2878440E-02;  1.0011324E+03;  4.0000001E-01;  9.3814581E+02;3; -2.6094919E+01;  0.0000000E+00;  4.6342373E+00;0; -4.0070218E-01;  1.0026758E+04;  0.0000000E+00;  5.1280971E-05;  1.0000000E+04;  0.0000000E+00;  9.9959082E+03; -4.6611384E-01;  0.0000000E+00;  6.5411650E-02;  2.0486064E+03;
  3.5981458E-01;  9.9999998E-03;  2.4003045E-01;1614; -8.2551770E-02;  0.0000000E+00;  1.4202608E-02;  1.0011288E+03;  4.0000001E-01;  9.3518292E+02;3; -2.6745300E+01;  0.0000000E+00;  5.1358309E+00;0; -3.9767411E-01;  1.0026959E+04;  0.0000000E+00;  1.3247877E-04;  1.0000000E+04;  0.0000000E+00;  9.9956357E+03; -4.6578988E-01;  0.0000000E+00;  6.8115778E-02;  2.1797761E+03;
  3.5981789E-01;  9.9999998E-03;  2.6003504E-01;1615; -8.0504715E-02;  0.0000000E+00;  1.5585798E-02;  1.0011249E+03;  4.0000001E-01;  9.3202252E+02;3; -2.8529150E+01;  0.0000000E+00;  5.9208655E+00;0; -3.9414191E-01;  1.0027078E+04;  0.0000000E+00;  2.4552649E-04;  1.0000000E+04;  0.0000000E+00;  9.9954395E+03; -4.6505868E-01;  0.0000000E+00;  7.0916787E-02;  2.2729731E+03;
  3.5982358E-01;  9.9999998E-03;  2.8004053E-01;1616; -7.7601619E-02;  0.0000000E+00;  1.7061604E-02;  1.0011138E+03;  4.0000001E-01;  9.2273883E+02;3; -3.1549862E+01;  0.0000000E+00;  7.0335917E+00;0; -3.8942799E-01;  1.0027137E+04;  0.0000000E+00;  2.8977144E-04;  1.0000000E+04;  0.0000000E+00;  9.9951650E+03; -4.6407080E-01;  0.0000000E+00;  7.4642815E-02;  2.4032424E+03;
  3.5983172E-01;  9.9999998E-03;  3.0004624E-01;1617; -7.3895380E-02;  0.0000000E+00;  1.8458841E-02;  1.0010964E+03;  4.0000001E-01;  9.0841827E+02;3; -3.5349373E+01;  0.0000000E+00;  8.5766973E+00;0; -3.8599098E-01;  1.0027146E+04;  0.0000000E+00;  7.4695708E-05;  1.0000000E+04;  0.0000000E+00;  9.9948057E+03; -4.6302423E-01;  0.0000000E+00;  7.7033252E-02;  2.5764358E+03;
  3.7979096E-01;  9.9999998E-03;  1.6001877E-01;1641; -9.3966633E-02;  0.0000000E+00;  1.0506494E-02;  1.0012705E+03;  4.0000001E-01;  1.0526115E+03;3; -2.9133926E+01;  0.0000000E+00;  4.0186257E+00;0; -4.4080254E-01;  1.0028965E+04;  0.0000000E+00; -3.1853858E-07;  1.0000000E+04;  0.0000000E+00;  9.9964688E+03; -5.0612634E-01;  0.0000000E+00;  6.5323792E-02;  1.7808875E+03;
  3.7978831E-01;  9.9999998E-03;  1.8002236E-01;1642; -9.4240293E-02;  0.0000000E+00;  1.1852072E-02;  1.0012734E+03;  4.0000001E-01;  1.0549817E+03;3; -2.8645729E+01;  0.0000000E+00;  4.3570967E+00;0; -4.3960229E-01;  1.0029399E+04;  0.0000000E+00;  7.2248855E-07;  1.0000000E+04;  0.0000000E+00;  9.9960898E+03; -5.0651634E-01;  0.0000000E+00;  6.6914044E-02;  1.9677845E+03;
  3.7978637E-01;  9.9999998E-03;  2.0002630E-01;1643; -9.4192937E-02;  0.0000000E+00;  1.3212177E-02;  1.0012731E+03;  4.0000001E-01;  1.0547842E+03;3; -2.8214918E+01;  0.0000000E+00;  4.6760330E+00;0; -4.3739873E-01;  1.0029780E+04;  0.0000000E+00;  1.2333206E-05;  1.0000000E+04;  0.0000000E+00;  9.9957051E+03; -5.0631344E-01;  0.0000000E+00;  6.8914704E-02;  2.1562280E+03;
  3.7978563E-01;  9.9999998E-03;  2.2003055E-01;1644; -9.3645103E-02;  0.0000000E+00;  1.4568293E-02;  1.0012707E+03;  4.0000001E-01;  1.0527102E+03;3; -2.8164700E+01;  0.0000000E+00;  5.0357857E+00;0; -4.3433964E-01;  1.0030081E+04;  0.0000000E+00;  5.5149081E-05;  1.0000000E+04;  0.0000000E+00;  9.9953564E+03; -5.0543779E-01;  0.0000000E+00;  7.1098134E-02;  2.3283450E+03;
  3.7978673E-01;  9.9999998E-03;  2.4003513E-01;1645; -9.2336595E-02;  0.0000000E+00;  1.5939834E-02;  1.0012672E+03;  4.0000001E-01;  1.0498461E+03;3; -2.8905025E+01;  0.0000000E+00;  5.5569634E+00;0; -4.3084735E-01;  1.0030288E+04;  0.0000000E+00;  1.4940588E-04;  1.0000000E+04;  0.0000000E+00;  9.9950801E+03; -5.0395095E-01;  0.0000000E+00;  7.3103599E-02;  2.4618755E+03;
  3.7979022E-01;  9.9999998E-03;  2.6004013E-01;1646; -9.0133019E-02;  0.0000000E+00;  1.7349275E-02;  1.0012645E+03;  4.0000001E-01;  1.0475745E+03;3; -3.0947912E+01;  0.0000000E+00;  6.3847270E+00;0; -4.2711872E-01;  1.0030403E+04;  0.0000000E+00;  2.8599141E-04;  1.0000000E+04;  0.0000000E+00;  9.9949141E+03; -5.0201505E-01;  0.0000000E+00;  7.4896351E-02;  2.5416770E+03;
  3.7979648E-01;  9.9999998E-03;  2.8004614E-01;1647; -8.6963296E-02;  0.0000000E+00;  1.8893983E-02;  1.0012546E+03;  4.0000001E-01;  1.0393772E+03;3; -3.4387383E+01;  0.0000000E+00;  7.5925193E+00;0; -4.2194515E-01;  1.0030439E+04;  0.0000000E+00;  3.7857599E-04;  1.0000000E+04;  0.0000000E+00;  9.9946797E+03; -4.9984953E-01;  0.0000000E+00;  7.7904359E-02;  2.6527458E+03;
  3.7980562E-01;  9.9999998E-03;  3.0005243E-01;1648; -8.2873225E-02;  0.0000000E+00;  2.0357380E-02;  1.0012365E+03;  4.0000001E-01;  1.0244641E+03;3; -3.8715332E+01;  0.0000000E+00;  9.2468281E+00;0; -4.1764259E-01;  1.0030425E+04;  0.0000000E+00;  2.6042634E-04;  1.0000000E+04;  0.0000000E+00;  9.9943330E+03; -4.9771461E-01;  0.0000000E+00;  8.0072023E-02;  2.8211189E+03;
  3.9976117E-01;  9.9999998E-03;  1.6002153E-01;1672; -1.0466593E-01;  0.0000000E+00;  1.1815996E-02;  1.0014227E+03;  4.0000001E-01;  1.1787310E+03;3; -3.1399502E+01;  0.0000000E+00;  4.3445077E+00;0; -4.7810543E-01;  1.0032514E+04;  0.0000000E+00; -4.4880713E-07;  1.0000000E+04;  0.0000000E+00;  9.9959678E+03; -5.5060184E-01;  0.0000000E+00;  7.2496407E-02;  2.0341802E+03;
  3.9975795E-01;  9.9999998E-03;  1.8002565E-01;1673; -1.0495121E-01;  0.0000000E+00;  1.3296337E-02;  1.0014271E+03;  4.0000001E-01;  1.1822864E+03;3; -3.0825668E+01;  0.0000000E+00;  4.6669497E+00;0; -4.7669154E-01;  1.0033013E+04;  0.0000000E+00;  1.2523010E-07;  1.0000000E+04;  0.0000000E+00;  9.9955566E+03; -5.5033767E-01;  0.0000000E+00;  7.3646113E-02;  2.2386926E+03;
  3.9975551E-01;  9.9999998E-03;  2.0003018E-01;1674; -1.0490272E-01;  0.0000000E+00;  1.4777591E-02;  1.0014281E+03;  4.0000001E-01;  1.1831753E+03;3; -3.0332102E+01;  0.0000000E+00;  4.9896803E+00;0; -4.7420913E-01;  1.0033452E+04;  0.0000000E+00;  1.2173962E-05;  1.0000000E+04;  0.0000000E+00;  9.9951426E+03; -5.4937285E-01;  0.0000000E+00;  7.5163707E-02;  2.4439563E+03;
  3.9975443E-01;  9.9999998E-03;  2.2003502E-01;1675; -1.0431969E-01;  0.0000000E+00;  1.6242748E-02;  1.0014266E+03;  4.0000001E-01;  1.1818914E+03;3; -3.0270618E+01;  0.0000000E+00;  5.3566351E+00;0; -4.7075957E-01;  1.0033802E+04;  0.0000000E+00;  6.1189770E-05;  1.0000000E+04;  0.0000000E+00;  9.9947607E+03; -5.4763836E-01;  0.0000000E+00;  7.6878771E-02;  2.6306321E+03;
  3.9975542E-01;  9.9999998E-03;  2.4004015E-01;1676; -1.0292311E-01;  0.0000000E+00;  1.7675392E-02;  1.0014239E+03;  4.0000001E-01;  1.1796198E+03;3; -3.1119514E+01;  0.0000000E+00;  5.8783531E+00;0; -4.6686733E-01;  1.0034040E+04;  0.0000000E+00;  1.7414473E-04;  1.0000000E+04;  0.0000000E+00;  9.9944697E+03; -5.4523957E-01;  0.0000000E+00;  7.8372225E-02;  2.7728267E+03;
  3.9975911E-01;  9.9999998E-03;  2.6004571E-01;1677; -1.0053833E-01;  0.0000000E+00;  1.9129766E-02;  1.0014227E+03;  4.0000001E-01;  1.1787310E+03;3; -3.3426876E+01;  0.0000000E+00;  6.7711468E+00;0; -4.6297011E-01;  1.0034176E+04;  0.0000000E+00;  3.4292365E-04;  1.0000000E+04;  0.0000000E+00;  9.9943145E+03; -5.4239321E-01;  0.0000000E+00;  7.9423107E-02;  2.8481565E+03;
  3.9976600E-01;  9.9999998E-03;  2.8005233E-01;1678; -9.7073331E-02;  0.0000000E+00;  2.0759786E-02;  1.0014143E+03;  4.0000001E-01;  1.1717188E+03;3; -3.7311962E+01;  0.0000000E+00;  8.0872231E+00;0; -4.5733559E-01;  1.0034218E+04;  0.0000000E+00;  4.6265475E-04;  1.0000000E+04;  0.0000000E+00;  9.9940967E+03; -5.3936666E-01;  0.0000000E+00;  8.2031071E-02;  2.9503662E+03;
  3.9977622E-01;  9.9999998E-03;  3.0005935E-01;1679; -9.2572749E-02;  0.0000000E+00;  2.2305578E-02;  1.0013954E+03;  4.0000001E-01;  1.1560155E+03;3; -4.2214378E+01;  0.0000000E+00;  9.8558884E+00;0; -4.5224190E-01;  1.0034206E+04;  0.0000000E+00;  3.2048387E-04;  1.0000000E+04;  0.0000000E+00;  9.9937344E+03; -5.3645343E-01;  0.0000000E+00;  8.4211528E-02;  3.1247622E+03;
  4.1972771E-01;  9.9999998E-03;  1.6002448E-01;1703; -1.1627576E-01;  0.0000000E+00;  1.3080995E-02;  1.0015909E+03;  4.0000001E-01;  1.3180845E+03;3; -3.3716564E+01;  0.0000000E+00;  4.5934772E+00;0; -5.1776731E-01;  1.0036409E+04;  0.0000000E+00; -4.0369204E-07;  1.0000000E+04;  0.0000000E+00;  9.9954443E+03; -5.9746987E-01;  0.0000000E+00;  7.9702526E-02;  2.3016626E+03;
  4.1972390E-01;  9.9999998E-03;  1.8002917E-01;1704; -1.1655737E-01;  0.0000000E+00;  1.4709956E-02;  1.0015978E+03;  4.0000001E-01;  1.3237140E+03;3; -3.3046783E+01;  0.0000000E+00;  4.9039612E+00;0; -5.1621819E-01;  1.0036994E+04;  0.0000000E+00; -2.5386578E-07;  1.0000000E+04;  0.0000000E+00;  9.9949951E+03; -5.9665281E-01;  0.0000000E+00;  8.0434598E-02;  2.5239863E+03;
  4.1972089E-01;  9.9999998E-03;  2.0003429E-01;1705; -1.1649124E-01;  0.0000000E+00;  1.6325273E-02;  1.0016010E+03;  4.0000001E-01;  1.3263805E+03;3; -3.2476051E+01;  0.0000000E+00;  5.2088985E+00;0; -5.1355940E-01;  1.0037518E+04;  0.0000000E+00;  1.2534074E-05;  1.0000000E+04;  0.0000000E+00;  9.9945430E+03; -5.9510481E-01;  0.0000000E+00;  8.1545413E-02;  2.7493652E+03;
  4.1971943E-01;  9.9999998E-03;  2.2003978E-01;1706; -1.1585647E-01;  0.0000000E+00;  1.7914917E-02;  1.0016014E+03;  4.0000001E-01;  1.3267756E+03;3; -3.2401672E+01;  0.0000000E+00;  5.5893292E+00;0; -5.0984061E-01;  1.0037943E+04;  0.0000000E+00;  6.9739384E-05;  1.0000000E+04;  0.0000000E+00;  9.9941250E+03; -5.9277368E-01;  0.0000000E+00;  8.2933038E-02;  2.9564167E+03;
  4.1972026E-01;  9.9999998E-03;  2.4004559E-01;1707; -1.1434845E-01;  0.0000000E+00;  1.9435959E-02;  1.0016006E+03;  4.0000001E-01;  1.3260842E+03;3; -3.3357231E+01;  0.0000000E+00;  6.1336522E+00;0; -5.0563705E-01;  1.0038259E+04;  0.0000000E+00;  2.0689327E-04;  1.0000000E+04;  0.0000000E+00;  9.9937998E+03; -5.8979487E-01;  0.0000000E+00;  8.4157817E-02;  3.1151572E+03;
  4.1972417E-01;  9.9999998E-03;  2.6005182E-01;1708; -1.1175996E-01;  0.0000000E+00;  2.0950800E-02;  1.0016019E+03;  4.0000001E-01;  1.3271707E+03;3; -3.5952599E+01;  0.0000000E+00;  7.0695400E+00;0; -5.0160825E-01;  1.0038448E+04;  0.0000000E+00;  4.1648129E-04;  1.0000000E+04;  0.0000000E+00;  9.9936328E+03; -5.8641011E-01;  0.0000000E+00;  8.4801853E-02;  3.1976724E+03;
  4.1973168E-01;  9.9999998E-03;  2.8005925E-01;1709; -1.0797285E-01;  0.0000000E+00;  2.2667427E-02;  1.0015956E+03;  4.0000001E-01;  1.3219363E+03;3; -4.0311436E+01;  0.0000000E+00;  8.4988260E+00;0; -4.9576303E-01;  1.0038545E+04;  0.0000000E+00;  5.6653138E-04;  1.0000000E+04;  0.0000000E+00;  9.9934102E+03; -5.8290732E-01;  0.0000000E+00;  8.7144293E-02;  3.3031272E+03;
  4.1974309E-01;  9.9999998E-03;  3.0006716E-01;1710; -1.0302768E-01;  0.0000000E+00;  2.4310108E-02;  1.0015771E+03;  4.0000001E-01;  1.3066281E+03;3; -4.5839111E+01;  0.0000000E+00;  1.0371401E+01;0; -4.9010462E-01;  1.0038564E+04;  0.0000000E+00;  3.8100814E-04;  1.0000000E+04;  0.0000000E+00;  9.9930205E+03; -5.7959008E-01;  0.0000000E+00;  8.9485466E-02;  3.4919294E+03;
  4.3969035E-01;  9.9999998E-03;  1.6002774E-01;1734; -1.2884276E-01;  0.0000000E+00;  1.4295056E-02;  1.0017748E+03;  4.0000001E-01;  1.4703757E+03;3; -3.6074951E+01;  0.0000000E+00;  4.7422419E+00;0; -5.5942327E-01;  1.0040658E+04;  0.0000000E+00;  9.6336031E-08;  1.0000000E+04;  0.0000000E+00;  9.9948867E+03; -6.4639539E-01;  0.0000000E+00;  8.6972140E-02;  2.5850430E+03;
  4.3968579E-01;  9.9999998E-03;  1.8003301E-01;1735; -1.2910780E-01;  0.0000000E+00;  1.6083099E-02;  1.0017851E+03;  4.0000001E-01;  1.4788693E+03;3; -3.5295731E+01;  0.0000000E+00;  5.0380917E+00;0; -5.5788094E-01;  1.0041341E+04;  0.0000000E+00;  2.3964242E-07;  1.0000000E+04;  0.0000000E+00;  9.9944160E+03; -6.4515668E-01;  0.0000000E+00;  8.7275736E-02;  2.8221802E+03;
  4.3968213E-01;  9.9999998E-03;  2.0003876E-01;1736; -1.2901019E-01;  0.0000000E+00;  1.7847573E-02;  1.0017921E+03;  4.0000001E-01;  1.4846963E+03;3; -3.4637180E+01;  0.0000000E+00;  5.3249278E+00;0; -5.5521697E-01;  1.0041978E+04;  0.0000000E+00;  1.4871341E-05;  1.0000000E+04;  0.0000000E+00;  9.9939189E+03; -6.4324939E-01;  0.0000000E+00;  8.8032410E-02;  3.0689011E+03;
  4.3968013E-01;  9.9999998E-03;  2.2004494E-01;1737; -1.2830622E-01;  0.0000000E+00;  1.9576158E-02;  1.0017963E+03;  4.0000001E-01;  1.4881530E+03;3; -3.4545929E+01;  0.0000000E+00;  5.7193007E+00;0; -5.5143452E-01;  1.0042524E+04;  0.0000000E+00;  8.3408821E-05;  1.0000000E+04;  0.0000000E+00;  9.9934502E+03; -6.4065212E-01;  0.0000000E+00;  8.9217618E-02;  3.3007991E+03;
  4.3968076E-01;  9.9999998E-03;  2.4005149E-01;1738; -1.2666452E-01;  0.0000000E+00;  2.1210143E-02;  1.0017992E+03;  4.0000001E-01;  1.4906221E+03;3; -3.5609642E+01;  0.0000000E+00;  6.2856874E+00;0; -5.4711145E-01;  1.0042956E+04;  0.0000000E+00;  2.5142869E-04;  1.0000000E+04;  0.0000000E+00;  9.9930811E+03; -6.3751078E-01;  0.0000000E+00;  9.0399310E-02;  3.4823833E+03;
  4.3968484E-01;  9.9999998E-03;  2.6005861E-01;1739; -1.2384515E-01;  0.0000000E+00;  2.2818781E-02;  1.0018044E+03;  4.0000001E-01;  1.4948688E+03;3; -3.8504868E+01;  0.0000000E+00;  7.2748256E+00;0; -5.4303044E-01;  1.0043262E+04;  0.0000000E+00;  5.1046954E-04;  1.0000000E+04;  0.0000000E+00;  9.9928740E+03; -6.3405788E-01;  0.0000000E+00;  9.1027446E-02;  3.5835630E+03;
  4.3969300E-01;  9.9999998E-03;  2.8006706E-01;1740; -1.1970922E-01;  0.0000000E+00;  2.4623614E-02;  1.0018007E+03;  4.0000001E-01;  1.4918071E+03;3; -4.3372677E+01;  0.0000000E+00;  8.8038740E+00;0; -5.3731388E-01;  1.0043457E+04;  0.0000000E+00;  6.8999152E-04;  1.0000000E+04;  0.0000000E+00;  9.9926104E+03; -6.3056099E-01;  0.0000000E+00;  9.3247093E-02;  3.7108999E+03;
  4.3970567E-01;  9.9999998E-03;  3.0007598E-01;1741; -1.1427630E-01;  0.0000000E+00;  2.6381345E-02;  1.0017838E+03;  4.0000001E-01;  1.4778817E+03;3; -4.9556911E+01;  0.0000000E+00;  1.0805910E+01;0; -5.3152448E-01;  1.0043559E+04;  0.0000000E+00;  4.2685107E-04;  1.0000000E+04;  0.0000000E+00;  9.9921680E+03; -6.2731010E-01;  0.0000000E+00;  9.5785625E-02;  3.9244521E+03;
  4.5964858E-01;  9.9999998E-03;  1.6003162E-01;1765; -1.4241825E-01;  0.0000000E+00;  1.5475014E-02;  1.0019736E+03;  4.0000078E-01;  1.6351106E+03;3; -3.8461674E+01;  0.0000000E+00;  4.7639346E+00;0; -6.0220510E-01;  1.0045200E+04;  0.0000000E+00;  2.0995542E-06;  1.0000000E+04;  0.0000000E+00;  9.9942910E+03; -6.9652110E-01;  0.0000000E+00;  9.4315998E-02;  2.8892397E+03;
  4.5964316E-01;  9.9999998E-03;  1.8003744E-01;1766; -1.4265804E-01;  0.0000000E+00;  1.7421123E-02;  1.0019896E+03;  4.0000081E-01;  1.6483447E+03;3; -3.7561535E+01;  0.0000000E+00;  5.0410523E+00;0; -6.0091877E-01;  1.0046004E+04;  0.0000000E+00;  3.2848088E-06;  1.0000000E+04;  0.0000000E+00;  9.9938076E+03; -6.9500786E-01;  0.0000000E+00;  9.4089106E-02;  3.1329736E+03;
  4.5963868E-01;  9.9999998E-03;  2.0004375E-01;1767; -1.4251967E-01;  0.0000000E+00;  1.9334614E-02;  1.0020018E+03;  4.0000084E-01;  1.6584185E+03;3; -3.6806194E+01;  0.0000000E+00;  5.3154716E+00;0; -5.9854037E-01;  1.0046787E+04;  0.0000000E+00;  2.2420105E-05;  1.0000000E+04;  0.0000000E+00;  9.9932793E+03; -6.9300675E-01;  0.0000000E+00;  9.4466411E-02;  3.3980403E+03;
  4.5963606E-01;  9.9999998E-03;  2.2005059E-01;1768; -1.4173289E-01;  0.0000000E+00;  2.1204172E-02;  1.0020115E+03;  4.0000081E-01;  1.6665170E+03;3; -3.6688992E+01;  0.0000000E+00;  5.7138352E+00;0; -5.9504223E-01;  1.0047501E+04;  0.0000000E+00;  1.0826196E-04;  1.0000000E+04;  0.0000000E+00;  9.9927607E+03; -6.9054514E-01;  0.0000000E+00;  9.5502928E-02;  3.6552876E+03;
  4.5963633E-01;  9.9999998E-03;  2.4005792E-01;1769; -1.3993853E-01;  0.0000000E+00;  2.2967219E-02;  1.0020212E+03;  4.0000072E-01;  1.6745167E+03;3; -3.7864830E+01;  0.0000000E+00;  6.3038187E+00;0; -5.9099716E-01;  1.0048107E+04;  0.0000000E+00;  3.1731004E-04;  1.0000000E+04;  0.0000000E+00;  9.9923457E+03; -6.8776244E-01;  0.0000000E+00;  9.6765280E-02;  3.8604177E+03;
  4.5964053E-01;  9.9999998E-03;  2.6006615E-01;1770; -1.3686195E-01;  0.0000000E+00;  2.4716832E-02;  1.0020324E+03;  4.0000084E-01;  1.6838004E+03;3; -4.1075516E+01;  0.0000000E+00;  7.3498969E+00;0; -5.8709967E-01;  1.0048591E+04;  0.0000000E+00;  6.3662085E-04;  1.0000000E+04;  0.0000000E+00;  9.9920889E+03; -6.8484080E-01;  0.0000000E+00;  9.7741105E-02;  3.9860452E+03;
  4.5964932E-01;  9.9999998E-03;  2.8007591E-01;1771; -1.3235119E-01;  0.0000000E+00;  2.6637521E-02;  1.0020321E+03;  4.0000084E-01;  1.6836029E+03;3; -4.6485382E+01;  0.0000000E+00;  8.9784098E+00;0; -5.8178240E-01;  1.0048945E+04;  0.0000000E+00;  8.3960639E-04;  1.0000000E+04;  0.0000000E+00;  9.9917266E+03; -6.8198133E-01;  0.0000000E+00;  1.0019891E-01;  4.1616743E+03;
  4.5966327E-01;  9.9999998E-03;  3.0008614E-01;1772; -1.2639053E-01;  0.0000000E+00;  2.8523736E-02;  1.0020181E+03;  4.0000072E-01;  1.6719490E+03;3; -5.3366886E+01;  0.0000000E+00;  1.1124748E+01;0; -5.7644892E-01;  1.0049200E+04;  0.0000000E+00;  4.4182368E-04;  1.0000000E+04;  0.0000000E+00;  9.9911904E+03; -6.7942154E-01;  0.0000000E+00;  1.0297260E-01;  4.4233623E+03;
  4.7960201E-01;  9.9999998E-03;  1.6003658E-01;1796; -1.5705593E-01;  0.0000000E+00;  1.6674297E-02;  1.0021796E+03;  4.0000239E-01;  1.8057706E+03;3; -4.0865032E+01;  0.0000000E+00;  4.6320009E+00;0; -6.4415741E-01;  1.0049914E+04;  0.0000000E+00;  8.1984399E-06;  1.0000000E+04;  0.0000000E+00;  9.9936357E+03; -7.4595368E-01;  0.0000000E+00;  1.0179626E-01;  3.2258621E+03;
  4.7959557E-01;  9.9999998E-03;  1.8004289E-01;1797; -1.5726726E-01;  0.0000000E+00;  1.8761801E-02;  1.0022029E+03;  4.0000230E-01;  1.8250293E+03;3; -3.9833275E+01;  0.0000000E+00;  4.8801093E+00;0; -6.4349419E-01;  1.0050853E+04;  0.0000000E+00;  1.2440679E-05;  1.0000000E+04;  0.0000000E+00;  9.9931660E+03; -7.4430579E-01;  0.0000000E+00;  1.0081162E-01;  3.4619526E+03;
  4.7959009E-01;  9.9999998E-03;  2.0004964E-01;1798; -1.5708479E-01;  0.0000000E+00;  2.0795129E-02;  1.0022232E+03;  4.0000227E-01;  1.8419176E+03;3; -3.8971977E+01;  0.0000000E+00;  5.1352372E+00;0; -6.4182365E-01;  1.0051806E+04;  0.0000000E+00;  4.1149873E-05;  1.0000000E+04;  0.0000000E+00;  9.9926182E+03; -7.4249679E-01;  0.0000000E+00;  1.0067314E-01;  3.7370168E+03;
  4.7958663E-01;  9.9999998E-03;  2.2005694E-01;1799; -1.5621056E-01;  0.0000000E+00;  2.2781989E-02;  1.0022413E+03;  4.0000230E-01;  1.8569296E+03;3; -3.8823723E+01;  0.0000000E+00;  5.5371275E+00;0; -6.3913286E-01;  1.0052729E+04;  0.0000000E+00;  1.5505370E-04;  1.0000000E+04;  0.0000000E+00;  9.9920645E+03; -7.4062377E-01;  0.0000000E+00;  1.0149094E-01;  4.0142051E+03;
  4.7958639E-01;  9.9999998E-03;  2.4006496E-01;1800; -1.5425722E-01;  0.0000000E+00;  2.4661744E-02;  1.0022614E+03;  4.0000218E-01;  1.8735216E+03;3; -4.0116791E+01;  0.0000000E+00;  6.1448140E+00;0; -6.3606834E-01;  1.0053574E+04;  0.0000000E+00;  4.2292362E-04;  1.0000000E+04;  0.0000000E+00;  9.9916230E+03; -7.3880208E-01;  0.0000000E+00;  1.0273372E-01;  4.2329229E+03;
  4.7959051E-01;  9.9999998E-03;  2.6007444E-01;1801; -1.5090610E-01;  0.0000000E+00;  2.6609618E-02;  1.0022836E+03;  4.0000236E-01;  1.8918914E+03;3; -4.3659531E+01;  0.0000000E+00;  7.2537355E+00;0; -6.3290942E-01;  1.0054304E+04;  0.0000000E+00;  8.2022260E-04;  1.0000000E+04;  0.0000000E+00;  9.9913408E+03; -7.3712730E-01;  0.0000000E+00;  1.0421789E-01;  4.3729512E+03;
  4.7959977E-01;  9.9999998E-03;  2.8008607E-01;1802; -1.4600867E-01;  0.0000000E+00;  2.8711544E-02;  1.0022877E+03;  4.0000224E-01;  1.8952493E+03;3; -4.9649902E+01;  0.0000000E+00;  8.9861670E+00;0; -6.2818682E-01;  1.0054902E+04;  0.0000000E+00;  1.0352430E-03;  1.0000000E+04;  0.0000000E+00;  9.9908232E+03; -7.3568290E-01;  0.0000000E+00;  1.0749611E-01;  4.6250220E+03;
  4.7961491E-01;  9.9999998E-03;  3.0009797E-01;1803; -1.3950039E-01;  0.0000000E+00;  3.0757245E-02;  1.0022762E+03;  4.0000227E-01;  1.8857682E+03;3; -5.7282997E+01;  0.0000000E+00;  1.1304631E+01;0; -6.2383866E-01;  1.0055383E+04;  0.0000000E+00;  4.1507842E-04;  1.0000000E+04;  0.0000000E+00;  9.9901113E+03; -7.3459560E-01;  0.0000000E+00;  1.1075692E-01;  4.9730684E+03;
  4.9955016E-01;  9.9999998E-03;  1.6004333E-01;1827; -1.7280626E-01;  0.0000000E+00;  1.7995121E-02;  1.0023788E+03;  4.0000522E-01;  1.9708008E+03;3; -4.3272072E+01;  0.0000000E+00;  4.3164444E+00;0; -6.8153095E-01;  1.0054528E+04;  0.0000000E+00;  2.3666762E-05;  1.0000000E+04;  0.0000000E+00;  9.9928662E+03; -7.9115790E-01;  0.0000000E+00;  1.0962694E-01;  3.6170774E+03;
  4.9954256E-01;  9.9999998E-03;  1.8005008E-01;1828; -1.7298704E-01;  0.0000000E+00;  2.0193344E-02;  1.0024120E+03;  4.0000540E-01;  1.9982566E+03;3; -4.2101112E+01;  0.0000000E+00;  4.5252247E+00;0; -6.8192911E-01;  1.0055599E+04;  0.0000000E+00;  3.3570199E-05;  1.0000000E+04;  0.0000000E+00;  9.9924570E+03; -7.8948265E-01;  0.0000000E+00;  1.0755357E-01;  3.8272346E+03;
  4.9953592E-01;  9.9999998E-03;  2.0005707E-01;1829; -1.7276546E-01;  0.0000000E+00;  2.2296688E-02;  1.0024417E+03;  4.0000546E-01;  2.0228484E+03;3; -4.1135590E+01;  0.0000000E+00;  4.7734814E+00;0; -6.8145597E-01;  1.0056740E+04;  0.0000000E+00;  7.9271755E-05;  1.0000000E+04;  0.0000000E+00;  9.9919141E+03; -7.8812349E-01;  0.0000000E+00;  1.0666749E-01;  4.1003027E+03;
  4.9953139E-01;  9.9999998E-03;  2.2006455E-01;1830; -1.7181027E-01;  0.0000000E+00;  2.4336426E-02;  1.0024712E+03;  4.0000534E-01;  2.0473414E+03;3; -4.0946232E+01;  0.0000000E+00;  5.1444287E+00;0; -6.8019605E-01;  1.0057906E+04;  0.0000000E+00;  2.4069693E-04;  1.0000000E+04;  0.0000000E+00;  9.9913398E+03; -7.8726470E-01;  0.0000000E+00;  1.0706869E-01;  4.3870059E+03;
  4.9953032E-01;  9.9999998E-03;  2.4007297E-01;1831; -1.6971451E-01;  0.0000000E+00;  2.6269283E-02;  1.0025065E+03;  4.0000540E-01;  2.0765752E+03;3; -4.2370621E+01;  0.0000000E+00;  5.7515421E+00;0; -6.7911506E-01;  1.0059037E+04;  0.0000000E+00;  6.0126750E-04;  1.0000000E+04;  0.0000000E+00;  9.9909238E+03; -7.8698760E-01;  0.0000000E+00;  1.0787252E-01;  4.5960801E+03;
  4.9953398E-01;  9.9999998E-03;  2.6008371E-01;1832; -1.6610189E-01;  0.0000000E+00;  2.8454073E-02;  1.0025465E+03;  4.0000537E-01;  2.1097593E+03;3; -4.6263573E+01;  0.0000000E+00;  6.9368901E+00;0; -6.7778796E-01;  1.0060073E+04;  0.0000000E+00;  1.1108234E-03;  1.0000000E+04;  0.0000000E+00;  9.9906963E+03; -7.8727758E-01;  0.0000000E+00;  1.0948961E-01;  4.7100605E+03;
  4.9954334E-01;  9.9999998E-03;  2.8009781E-01;1833; -1.6084842E-01;  0.0000000E+00;  3.0850738E-02;  1.0025573E+03;  4.0000543E-01;  2.1186477E+03;3; -5.2887665E+01;  0.0000000E+00;  8.7892942E+00;0; -6.7382157E-01;  1.0060986E+04;  0.0000000E+00;  1.3225435E-03;  1.0000000E+04;  0.0000000E+00;  9.9899932E+03; -7.8805339E-01;  0.0000000E+00;  1.1423180E-01;  5.0512192E+03;
  4.9955916E-01;  9.9999998E-03;  3.0011192E-01;1834; -1.5384182E-01;  0.0000000E+00;  3.3112295E-02;  1.0025471E+03;  4.0000534E-01;  2.1102529E+03;3; -6.1356991E+01;  0.0000000E+00;  1.1324204E+01;0; -6.7081237E-01;  1.0061769E+04;  0.0000000E+00;  3.5172628E-04;  1.0000000E+04;  0.0000000E+00;  9.9890078E+03; -7.8925037E-01;  0.0000000E+00;  1.1843799E-01;  5.5360396E+03;
  5.1949275E-01;  9.9999998E-03;  1.6005275E-01;1858; -1.8968783E-01;  0.0000000E+00;  1.9577088E-02;  1.0025579E+03;  4.0001482E-01;  2.1191387E+03;3; -4.5670403E+01;  0.0000000E+00;  3.7972579E+00;0; -7.0827723E-01;  1.0058592E+04;  0.0000000E+00;  5.3594886E-05;  1.0000000E+04;  0.0000000E+00;  9.9919053E+03; -8.2656544E-01;  0.0000000E+00;  1.1828819E-01;  4.0996816E+03;
  5.1948386E-01;  9.9999998E-03;  1.8005995E-01;1859; -1.8983111E-01;  0.0000000E+00;  2.1861592E-02;  1.0026011E+03;  4.0001476E-01;  2.1549895E+03;3; -4.4355339E+01;  0.0000000E+00;  3.9527075E+00;0; -7.1008217E-01;  1.0059783E+04;  0.0000000E+00;  7.0173977E-05;  1.0000000E+04;  0.0000000E+00;  9.9915830E+03; -8.2489628E-01;  0.0000000E+00;  1.1481411E-01;  4.2682051E+03;
  5.1947588E-01;  9.9999998E-03;  2.0006707E-01;1860; -1.8957530E-01;  0.0000000E+00;  2.3979869E-02;  1.0026412E+03;  4.0001470E-01;  2.1881736E+03;3; -4.3274551E+01;  0.0000000E+00;  4.1595788E+00;0; -7.1115595E-01;  1.0061105E+04;  0.0000000E+00;  1.4447686E-04;  1.0000000E+04;  0.0000000E+00;  9.9910654E+03; -8.2411700E-01;  0.0000000E+00;  1.1296104E-01;  4.5297500E+03;
  5.1947004E-01;  9.9999998E-03;  2.2007440E-01;1861; -1.8856734E-01;  0.0000000E+00;  2.5961472E-02;  1.0026828E+03;  4.0001467E-01;  2.2226414E+03;3; -4.3049366E+01;  0.0000000E+00;  4.4939332E+00;0; -7.1184397E-01;  1.0062513E+04;  0.0000000E+00;  3.9146579E-04;  1.0000000E+04;  0.0000000E+00;  9.9905059E+03; -8.2450897E-01;  0.0000000E+00;  1.1266499E-01;  4.8156514E+03;
  5.1946771E-01;  9.9999998E-03;  2.4008273E-01;1862; -1.8636630E-01;  0.0000000E+00;  2.7838724E-02;  1.0027374E+03;  4.0001473E-01;  2.2678745E+03;3; -4.4615536E+01;  0.0000000E+00;  5.0805130E+00;0; -7.1386790E-01;  1.0063940E+04;  0.0000000E+00;  9.1400748E-04;  1.0000000E+04;  0.0000000E+00;  9.9901768E+03; -8.2613134E-01;  0.0000000E+00;  1.1226343E-01;  4.9815088E+03;
  5.1947033E-01;  9.9999998E-03;  2.6009437E-01;1863; -1.8256582E-01;  0.0000000E+00;  3.0242302E-02;  1.0028055E+03;  4.0001458E-01;  2.3243665E+03;3; -4.8903347E+01;  0.0000000E+00;  6.3424549E+00;0; -7.1605068E-01;  1.0065311E+04;  0.0000000E+00;  1.6040863E-03;  1.0000000E+04;  0.0000000E+00;  9.9901631E+03; -8.2886255E-01;  0.0000000E+00;  1.1281189E-01;  4.9900264E+03;
  5.1947886E-01;  9.9999998E-03;  2.8011158E-01;1864; -1.7707093E-01;  0.0000000E+00;  3.3080086E-02;  1.0028278E+03;  4.0001476E-01;  2.3427361E+03;3; -5.6237549E+01;  0.0000000E+00;  8.3505220E+00;0; -7.1314174E-01;  1.0066584E+04;  0.0000000E+00;  1.7889887E-03;  1.0000000E+04;  0.0000000E+00;  9.9893340E+03; -8.3242923E-01;  0.0000000E+00;  1.1928749E-01;  5.3926899E+03;
  5.1949424E-01;  9.9999998E-03;  3.0012861E-01;1865; -1.6976318E-01;  0.0000000E+00;  3.5642426E-02;  1.0028165E+03;  4.0001476E-01;  2.3333538E+03;3; -6.5686790E+01;  0.0000000E+00;  1.1173020E+01;0; -7.1158230E-01;  1.0067712E+04;  0.0000000E+00;  2.8519536E-04;  1.0000000E+04;  0.0000000E+00;  9.9879883E+03; -8.3648670E-01;  0.0000000E+00;  1.2490438E-01;  6.0566343E+03;
  5.3942984E-01;  9.9999998E-03;  1.6006570E-01;1889; -2.0761566E-01;  0.0000000E+00;  2.1572700E-02;  1.0027010E+03;  4.0003976E-01;  2.2377478E+03;3; -4.8038094E+01;  0.0000000E+00;  3.0695410E+00;0; -7.1597642E-01;  1.0061463E+04;  0.0000000E+00;  9.1681490E-05;  1.0000000E+04;  0.0000000E+00;  9.9906309E+03; -8.4464484E-01;  0.0000000E+00;  1.2866841E-01;  4.7300166E+03;
  5.3941971E-01;  9.9999998E-03;  1.8007365E-01;1890; -2.0769599E-01;  0.0000000E+00;  2.3965087E-02;  1.0027526E+03;  4.0003952E-01;  2.2805117E+03;3; -4.6573944E+01;  0.0000000E+00;  3.1527328E+00;0; -7.1914101E-01;  1.0062734E+04;  0.0000000E+00;  1.1245900E-04;  1.0000000E+04;  0.0000000E+00;  9.9904033E+03; -8.4286195E-01;  0.0000000E+00;  1.2372093E-01;  4.8545239E+03;
  5.3941035E-01;  9.9999998E-03;  2.0008102E-01;1891; -2.0739681E-01;  0.0000000E+00;  2.6064830E-02;  1.0028006E+03;  4.0003970E-01;  2.3202141E+03;3; -4.5378994E+01;  0.0000000E+00;  3.2836432E+00;0; -7.2166467E-01;  1.0064188E+04;  0.0000000E+00;  2.4057252E-04;  1.0000000E+04;  0.0000000E+00;  9.9899121E+03; -8.4251666E-01;  0.0000000E+00;  1.2085202E-01;  5.1062251E+03;
  5.3940290E-01;  9.9999998E-03;  2.2008801E-01;1892; -2.0636585E-01;  0.0000000E+00;  2.7877139E-02;  1.0028526E+03;  4.0003973E-01;  2.3632742E+03;3; -4.5135468E+01;  0.0000000E+00;  3.5246103E+00;0; -7.2435284E-01;  1.0065793E+04;  0.0000000E+00;  6.5418810E-04;  1.0000000E+04;  0.0000000E+00;  9.9893584E+03; -8.4398520E-01;  0.0000000E+00;  1.1963237E-01;  5.3874668E+03;
  5.3939885E-01;  9.9999998E-03;  2.4009563E-01;1893; -2.0413458E-01;  0.0000000E+00;  2.9537391E-02;  1.0029284E+03;  4.0003964E-01;  2.4260869E+03;3; -4.6853054E+01;  0.0000000E+00;  4.0903487E+00;0; -7.3034555E-01;  1.0067466E+04;  0.0000000E+00;  1.4760691E-03;  1.0000000E+04;  0.0000000E+00;  9.9892070E+03; -8.4733027E-01;  0.0000000E+00;  1.1698472E-01;  5.4709688E+03;
  5.3939956E-01;  9.9999998E-03;  2.6010764E-01;1894; -2.0028301E-01;  0.0000000E+00;  3.2049969E-02;  1.0030343E+03;  4.0003964E-01;  2.5138862E+03;3; -5.1585045E+01;  0.0000000E+00;  5.4205470E+00;0; -7.3818970E-01;  1.0069138E+04;  0.0000000E+00;  2.4690400E-03;  1.0000000E+04;  0.0000000E+00;  9.9896475E+03; -8.5236621E-01;  0.0000000E+00;  1.1417654E-01;  5.2589409E+03;
  5.3940582E-01;  9.9999998E-03;  2.8012821E-01;1895; -1.9478956E-01;  0.0000000E+00;  3.5470765E-02;  1.0030768E+03;  4.0003958E-01;  2.5490454E+03;3; -5.9728523E+01;  0.0000000E+00;  7.6370306E+00;0; -7.3700100E-01;  1.0070734E+04;  0.0000000E+00;  2.5733272E-03;  1.0000000E+04;  0.0000000E+00;  9.9889033E+03; -8.5864770E-01;  0.0000000E+00;  1.2164672E-01;  5.6211782E+03;
  5.3941840E-01;  9.9999998E-03;  3.0014887E-01;1896; -1.8759581E-01;  0.0000000E+00;  3.8431726E-02;  1.0030636E+03;  4.0003961E-01;  2.5380828E+03;3; -7.0371262E+01;  0.0000000E+00;  1.0841103E+01;0; -7.3686910E-01;  1.0072187E+04;  0.0000000E+00;  2.7782412E-04;  1.0000000E+04;  0.0000000E+00;  9.9871836E+03; -8.6551207E-01;  0.0000000E+00;  1.2864295E-01;  6.4680127E+03;
  5.5936271E-01;  9.9999998E-03;  1.6008312E-01;1920; -2.2625066E-01;  0.0000000E+00;  2.4136374E-02;  1.0028270E+03;  4.0010685E-01;  2.3421338E+03;3; -5.0337635E+01;  0.0000000E+00;  2.0856295E+00;0; -6.9418418E-01;  1.0062342E+04;  0.0000000E+00;  1.0640510E-04;  1.0000000E+04;  0.0000000E+00;  9.9888789E+03; -8.3635342E-01;  0.0000000E+00;  1.4216922E-01;  5.5862671E+03;
  5.5935144E-01;  9.9999998E-03;  1.8009226E-01;1921; -2.2620548E-01;  0.0000000E+00;  2.6723972E-02;  1.0028811E+03;  4.0010667E-01;  2.3868728E+03;3; -4.8696159E+01;  0.0000000E+00;  2.1324797E+00;0; -6.9793475E-01;  1.0063608E+04;  0.0000000E+00;  1.2949301E-04;  1.0000000E+04;  0.0000000E+00;  9.9887031E+03; -8.3404762E-01;  0.0000000E+00;  1.3611290E-01;  5.6866230E+03;
  5.5934066E-01;  9.9999998E-03;  2.0010027E-01;1922; -2.2583063E-01;  0.0000000E+00;  2.8819477E-02;  1.0029301E+03;  4.0010673E-01;  2.4275625E+03;3; -4.7391205E+01;  0.0000000E+00;  2.1512847E+00;0; -7.0108569E-01;  1.0065104E+04;  0.0000000E+00;  3.7029845E-04;  1.0000000E+04;  0.0000000E+00;  9.9882002E+03; -8.3353007E-01;  0.0000000E+00;  1.3244441E-01;  5.9460767E+03;
  5.5933154E-01;  9.9999998E-03;  2.2010717E-01;1923; -2.2476937E-01;  0.0000000E+00;  3.0454308E-02;  1.0029855E+03;  4.0010682E-01;  2.4733879E+03;3; -4.7140388E+01;  0.0000000E+00;  2.2585571E+00;0; -7.0500821E-01;  1.0066775E+04;  0.0000000E+00;  1.1063290E-03;  1.0000000E+04;  0.0000000E+00;  9.9876475E+03; -8.3522511E-01;  0.0000000E+00;  1.3021690E-01;  6.2288115E+03;
  5.5932528E-01;  9.9999998E-03;  2.4011368E-01;1924; -2.2258539E-01;  0.0000000E+00;  3.1746898E-02;  1.0030793E+03;  4.0010661E-01;  2.5511135E+03;3; -4.9026474E+01;  0.0000000E+00;  2.8007541E+00;0; -7.1491253E-01;  1.0068560E+04;  0.0000000E+00;  2.4645331E-03;  1.0000000E+04;  0.0000000E+00;  9.9877441E+03; -8.3916527E-01;  0.0000000E+00;  1.2425276E-01;  6.1924185E+03;
  5.5932295E-01;  9.9999998E-03;  2.6012534E-01;1925; -2.1892262E-01;  0.0000000E+00;  3.4155130E-02;  1.0032284E+03;  4.0010658E-01;  2.6746643E+03;3; -5.4253456E+01;  0.0000000E+00;  4.2026443E+00;0; -7.3024714E-01;  1.0070373E+04;  0.0000000E+00;  3.9484724E-03;  1.0000000E+04;  0.0000000E+00;  9.9889033E+03; -8.4518886E-01;  0.0000000E+00;  1.1494174E-01;  5.6324858E+03;
  5.5932510E-01;  9.9999998E-03;  2.8014931E-01;1926; -2.1377632E-01;  0.0000000E+00;  3.8194243E-02;  1.0033016E+03;  4.0010661E-01;  2.7353040E+03;3; -6.3322113E+01;  0.0000000E+00;  6.6361399E+00;0; -7.3190999E-01;  1.0072154E+04;  0.0000000E+00;  3.8521059E-03;  1.0000000E+04;  0.0000000E+00;  9.9885840E+03; -8.5283941E-01;  0.0000000E+00;  1.2092944E-01;  5.7858369E+03;
  5.5933172E-01;  9.9999998E-03;  3.0017403E-01;1927; -2.0731395E-01;  0.0000000E+00;  4.1633721E-02;  1.0032875E+03;  4.0010655E-01;  2.7235515E+03;3; -7.5417465E+01;  0.0000000E+00;  1.0319358E+01;0; -7.3276353E-01;  1.0073803E+04;  0.0000000E+00;  4.1398191E-04;  1.0000000E+04;  0.0000000E+00;  9.9866494E+03; -8.6126024E-01;  0.0000000E+00;  1.2849668E-01;  6.7394907E+03;
  5.7929397E-01;  9.9999998E-03;  1.6010520E-01;1951; -2.4485278E-01;  0.0000000E+00;  2.7251294E-02;  1.0030455E+03;  4.0028462E-01;  2.5231558E+03;3; -5.2418957E+01;  0.0000000E+00;  8.4986436E-01;0; -6.3020241E-01;  1.0060215E+04;  0.0000000E+00;  4.4785589E-05;  1.0000000E+04;  0.0000000E+00;  9.9864531E+03; -7.9080468E-01;  0.0000000E+00;  1.6060226E-01;  6.7605483E+03;
  5.7928175E-01;  9.9999998E-03;  1.8011642E-01;1952; -2.4458288E-01;  0.0000000E+00;  3.0157717E-02;  1.0030922E+03;  4.0028471E-01;  2.5617715E+03;3; -5.0603638E+01;  0.0000000E+00;  8.3335757E-01;0; -6.3291436E-01;  1.0061367E+04;  0.0000000E+00;  7.9401034E-05;  1.0000000E+04;  0.0000000E+00;  9.9862441E+03; -7.8707278E-01;  0.0000000E+00;  1.5415843E-01;  6.8767837E+03;
  5.7926989E-01;  9.9999998E-03;  2.0012577E-01;1953; -2.4400680E-01;  0.0000000E+00;  3.2464288E-02;  1.0031305E+03;  4.0028465E-01;  2.5934739E+03;3; -4.9167835E+01;  0.0000000E+00;  8.0589628E-01;0; -6.3498276E-01;  1.0062726E+04;  0.0000000E+00;  5.3501985E-04;  1.0000000E+04;  0.0000000E+00;  9.9856680E+03; -7.8498638E-01;  0.0000000E+00;  1.5000363E-01;  7.1711816E+03;
  5.7925916E-01;  9.9999998E-03;  2.2013320E-01;1954; -2.4284449E-01;  0.0000000E+00;  3.4026209E-02;  1.0031779E+03;  4.0028447E-01;  2.6327808E+03;3; -4.8867580E+01;  0.0000000E+00;  8.3828634E-01;0; -6.3819951E-01;  1.0064240E+04;  0.0000000E+00;  1.8335345E-03;  1.0000000E+04;  0.0000000E+00;  9.9851025E+03; -7.8475440E-01;  0.0000000E+00;  1.4655489E-01;  7.4599907E+03;
  5.7925034E-01;  9.9999998E-03;  2.4013907E-01;1955; -2.4086843E-01;  0.0000000E+00;  3.4896206E-02;  1.0032778E+03;  4.0028441E-01;  2.7155430E+03;3; -5.1014713E+01;  0.0000000E+00;  1.1792533E+00;0; -6.4998996E-01;  1.0065847E+04;  0.0000000E+00;  4.0943054E-03;  1.0000000E+04;  0.0000000E+00;  9.9854932E+03; -7.8641385E-01;  0.0000000E+00;  1.3642389E-01;  7.2813047E+03;
  5.7924420E-01;  9.9999998E-03;  2.6015061E-01;1956; -2.3760647E-01;  0.0000000E+00;  3.7019923E-02;  1.0034626E+03;  4.0028438E-01;  2.8687217E+03;3; -5.6784451E+01;  0.0000000E+00;  2.6129115E+00;0; -6.7240572E-01;  1.0067499E+04;  0.0000000E+00;  6.3642152E-03;  1.0000000E+04;  0.0000000E+00;  9.9875264E+03; -7.9012787E-01;  0.0000000E+00;  1.1772215E-01;  6.2986860E+03;
  5.7924038E-01;  9.9999998E-03;  2.8017762E-01;1957; -2.3316231E-01;  0.0000000E+00;  4.1608937E-02;  1.0035692E+03;  4.0028432E-01;  2.9570144E+03;3; -6.6863304E+01;  0.0000000E+00;  5.3709288E+00;0; -6.7750221E-01;  1.0069155E+04;  0.0000000E+00;  5.8905222E-03;  1.0000000E+04;  0.0000000E+00;  9.9879893E+03; -7.9583216E-01;  0.0000000E+00;  1.1832996E-01;  6.0683247E+03;
  5.7923764E-01;  9.9999998E-03;  3.0020621E-01;1958; -2.2807510E-01;  0.0000000E+00;  4.5535970E-02;  1.0035574E+03;  4.0028414E-01;  2.9471384E+03;3; -8.0572952E+01;  0.0000000E+00;  9.6177874E+00;0; -6.7812604E-01;  1.0070722E+04;  0.0000000E+00;  8.6103269E-04;  1.0000000E+04;  0.0000000E+00;  9.9861855E+03; -8.0281377E-01;  0.0000000E+00;  1.2468772E-01;  6.9567881E+03;
  5.9922779E-01;  9.9999998E-03;  1.6013147E-01;1982; -2.6229528E-01;  0.0000000E+00;  3.0845981E-02;  1.0036839E+03;  4.0073678E-01;  3.0520093E+03;3; -5.4202705E+01;  0.0000000E+00; -6.9651216E-01;0; -5.0551611E-01;  1.0053668E+04;  0.0000000E+00; -1.4453748E-04;  1.0000000E+04;  0.0000000E+00;  9.9831670E+03; -6.9118428E-01;  0.0000000E+00;  1.8566816E-01;  8.3340488E+03;
  5.9921443E-01;  9.9999998E-03;  1.8014491E-01;1983; -2.6182395E-01;  0.0000000E+00;  3.4068946E-02;  1.0037090E+03;  4.0073651E-01;  3.0727490E+03;3; -5.2184353E+01;  0.0000000E+00; -7.4634975E-01;0; -5.0489235E-01;  1.0054517E+04;  0.0000000E+00; -7.7800163E-05;  1.0000000E+04;  0.0000000E+00;  9.9828398E+03; -6.8431634E-01;  0.0000000E+00;  1.7942402E-01;  8.5075996E+03;
  5.9920150E-01;  9.9999998E-03;  2.0015652E-01;1984; -2.6103872E-01;  0.0000000E+00;  3.6609098E-02;  1.0037224E+03;  4.0073636E-01;  3.0838103E+03;3; -5.0577000E+01;  0.0000000E+00; -8.3579010E-01;0; -5.0332958E-01;  1.0055479E+04;  0.0000000E+00;  7.3679560E-04;  1.0000000E+04;  0.0000000E+00;  9.9821602E+03; -6.7789066E-01;  0.0000000E+00;  1.7456107E-01;  8.8515811E+03;
  5.9918940E-01;  9.9999998E-03;  2.2016592E-01;1985; -2.5976777E-01;  0.0000000E+00;  3.8289495E-02;  1.0037451E+03;  4.0073642E-01;  3.1026736E+03;3; -5.0263023E+01;  0.0000000E+00; -9.4744259E-01;0; -5.0301647E-01;  1.0056485E+04;  0.0000000E+00;  2.9488478E-03;  1.0000000E+04;  0.0000000E+00;  9.9816172E+03; -6.7182791E-01;  0.0000000E+00;  1.6881144E-01;  9.1289629E+03;
  5.9917849E-01;  9.9999998E-03;  2.4017353E-01;1986; -2.5773284E-01;  0.0000000E+00;  3.9358746E-02;  1.0038319E+03;  4.0073606E-01;  3.1745718E+03;3; -5.2590977E+01;  0.0000000E+00; -5.9276038E-01;0; -5.1274854E-01;  1.0057508E+04;  0.0000000E+00;  6.6500050E-03;  1.0000000E+04;  0.0000000E+00;  9.9823369E+03; -6.6653150E-01;  0.0000000E+00;  1.5378298E-01;  8.7913613E+03;
  5.9916866E-01;  9.9999998E-03;  2.6018786E-01;1987; -2.5490010E-01;  0.0000000E+00;  4.1622002E-02;  1.0040195E+03;  4.0073574E-01;  3.3300215E+03;3; -5.8982269E+01;  0.0000000E+00;  6.7430699E-01;0; -5.3556573E-01;  1.0058559E+04;  0.0000000E+00;  1.0154969E-02;  1.0000000E+04;  0.0000000E+00;  9.9850166E+03; -6.6292191E-01;  0.0000000E+00;  1.2735616E-01;  7.4966084E+03;
  5.9915799E-01;  9.9999998E-03;  2.8021762E-01;1988; -2.5151360E-01;  0.0000000E+00;  4.6336904E-02;  1.0041394E+03;  4.0073544E-01;  3.4293750E+03;3; -7.0068489E+01;  0.0000000E+00;  3.9389689E+00;0; -5.4414648E-01;  1.0059647E+04;  0.0000000E+00;  9.1012483E-03;  1.0000000E+04;  0.0000000E+00;  9.9863115E+03; -6.6166818E-01;  0.0000000E+00;  1.1752172E-01;  6.8630781E+03;
  5.9914422E-01;  9.9999998E-03;  3.0024883E-01;1989; -2.4825791E-01;  0.0000000E+00;  5.0658587E-02;  1.0041319E+03;  4.0073517E-01;  3.4231528E+03;3; -8.5519089E+01;  0.0000000E+00;  8.9523029E+00;0; -5.4148847E-01;  1.0060721E+04;  0.0000000E+00;  1.8566316E-03;  1.0000000E+04;  0.0000000E+00;  9.9850928E+03; -6.6249901E-01;  0.0000000E+00;  1.2101052E-01;  7.4595044E+03;
  6.1916822E-01;  9.9999998E-03;  1.6016130E-01;2013; -2.7751729E-01;  0.0000000E+00;  3.4476139E-02;  1.0054138E+03;  4.0177396E-01;  4.4851021E+03;3; -5.5627026E+01;  0.0000000E+00; -2.6489997E+00;0; -2.9187095E-01;  1.0040729E+04;  0.0000000E+00; -4.7382325E-04;  1.0000000E+04;  0.0000000E+00;  9.9789424E+03; -5.1005965E-01;  0.0000000E+00;  2.1818870E-01;  1.0338720E+04;
  6.1915356E-01;  9.9999998E-03;  1.8017709E-01;2014; -2.7691153E-01;  0.0000000E+00;  3.8054645E-02;  1.0054041E+03;  4.0177336E-01;  4.4771025E+03;3; -5.3399487E+01;  0.0000000E+00; -2.7150304E+00;0; -2.8564826E-01;  1.0041044E+04;  0.0000000E+00; -3.2221383E-04;  1.0000000E+04;  0.0000000E+00;  9.9784600E+03; -4.9758974E-01;  0.0000000E+00;  2.1194148E-01;  1.0586150E+04;
  6.1913902E-01;  9.9999998E-03;  2.0019154E-01;2015; -2.7610031E-01;  0.0000000E+00;  4.0955663E-02;  1.0053777E+03;  4.0177307E-01;  4.4551777E+03;3; -5.1668446E+01;  0.0000000E+00; -2.9072044E+00;0; -2.7812031E-01;  1.0041283E+04;  0.0000000E+00;  1.0659052E-03;  1.0000000E+04;  0.0000000E+00;  9.9777227E+03; -4.8323724E-01;  0.0000000E+00;  2.0511693E-01;  1.0959134E+04;
  6.1912549E-01;  9.9999998E-03;  2.2020529E-01;2016; -2.7473560E-01;  0.0000000E+00;  4.3331228E-02;  1.0053614E+03;  4.0177280E-01;  4.4417466E+03;3; -5.1319508E+01;  0.0000000E+00; -3.0540860E+00;0; -2.7194813E-01;  1.0041392E+04;  0.0000000E+00;  4.6415138E-03;  1.0000000E+04;  0.0000000E+00;  9.9773135E+03; -4.6693462E-01;  0.0000000E+00;  1.9498649E-01;  1.1172482E+04;
  6.1911207E-01;  9.9999998E-03;  2.4021834E-01;2017; -2.7286923E-01;  0.0000000E+00;  4.5029301E-02;  1.0054143E+03;  4.0177220E-01;  4.4854971E+03;3; -5.3819527E+01;  0.0000000E+00; -2.6345766E+00;0; -2.7685106E-01;  1.0041389E+04;  0.0000000E+00;  1.0359134E-02;  1.0000000E+04;  0.0000000E+00;  9.9783750E+03; -4.4986597E-01;  0.0000000E+00;  1.7301489E-01;  1.0669543E+04;
  6.1909926E-01;  9.9999998E-03;  2.6024047E-01;2018; -2.7015254E-01;  0.0000000E+00;  4.8637521E-02;  1.0055519E+03;  4.0177161E-01;  4.5995654E+03;3; -6.0708809E+01;  0.0000000E+00; -1.1085767E+00;0; -2.9016444E-01;  1.0041390E+04;  0.0000000E+00;  1.5414388E-02;  1.0000000E+04;  0.0000000E+00;  9.9811143E+03; -4.3392038E-01;  0.0000000E+00;  1.4375594E-01;  9.3418770E+03;
  6.1908489E-01;  9.9999998E-03;  2.8027594E-01;2019; -2.6721722E-01;  0.0000000E+00;  5.3544689E-02;  1.0056040E+03;  4.0177086E-01;  4.6427241E+03;3; -7.2804665E+01;  0.0000000E+00;  2.2437210E+00;0; -2.9114109E-01;  1.0041464E+04;  0.0000000E+00;  1.3624741E-02;  1.0000000E+04;  0.0000000E+00;  9.9820732E+03; -4.2055249E-01;  0.0000000E+00;  1.2941138E-01;  8.8753428E+03;
  6.1906195E-01;  9.9999998E-03;  3.0030704E-01;2020; -2.6557538E-01;  0.0000000E+00;  5.7617016E-02;  1.0055922E+03;  4.0177003E-01;  4.6329468E+03;3; -8.9494728E+01;  0.0000000E+00;  8.3066301E+00;0; -2.8536877E-01;  1.0041597E+04;  0.0000000E+00;  3.4785254E-03;  1.0000000E+04;  0.0000000E+00;  9.9817480E+03; -4.0998080E-01;  0.0000000E+00;  1.2461203E-01;  9.0316328E+03;
  6.3911813E-01;  9.9999998E-03;  1.6019365E-01;2044; -2.8984410E-01;  0.0000000E+00;  3.7821960E-02;  1.0088544E+03;  4.0368310E-01;  7.3354648E+03;3; -5.6595863E+01;  0.0000000E+00; -4.9998441E+00;0;  4.2453587E-02;  1.0019421E+04;  0.0000000E+00; -8.2088762E-04;  1.0000000E+04;  0.0000000E+00;  9.9738701E+03; -2.1493536E-01;  0.0000000E+00;  2.5738895E-01;  1.2720080E+04;
  6.3910246E-01;  9.9999998E-03;  1.8021283E-01;2045; -2.8910643E-01;  0.0000000E+00;  4.1912485E-02;  1.0088016E+03;  4.0368259E-01;  7.2917144E+03;3; -5.4248531E+01;  0.0000000E+00; -5.0947886E+00;0;  5.4736137E-02;  1.0018975E+04;  0.0000000E+00; -4.5510658E-04;  1.0000000E+04;  0.0000000E+00;  9.9733027E+03; -1.9489761E-01;  0.0000000E+00;  2.4963374E-01;  1.3009896E+04;
  6.3908589E-01;  9.9999998E-03;  2.0023149E-01;2046; -2.8834701E-01;  0.0000000E+00;  4.5596734E-02;  1.0087284E+03;  4.0368184E-01;  7.2310757E+03;3; -5.2349861E+01;  0.0000000E+00; -5.3016191E+00;0;  6.8039685E-02;  1.0018228E+04;  0.0000000E+00;  1.7609319E-03;  1.0000000E+04;  0.0000000E+00;  9.9726436E+03; -1.7025544E-01;  0.0000000E+00;  2.3829512E-01;  1.3345344E+04;
  6.3907015E-01;  9.9999998E-03;  2.2025259E-01;2047; -2.8724939E-01;  0.0000000E+00;  4.9207229E-02;  1.0086667E+03;  4.0368131E-01;  7.1799185E+03;3; -5.2101261E+01;  0.0000000E+00; -5.2888436E+00;0;  7.9239815E-02;  1.0017142E+04;  0.0000000E+00;  7.0172609E-03;  1.0000000E+04;  0.0000000E+00;  9.9725322E+03; -1.4126752E-01;  0.0000000E+00;  2.2050734E-01;  1.3415573E+04;
  6.3905579E-01;  9.9999998E-03;  2.4028119E-01;2048; -2.8543696E-01;  0.0000000E+00;  5.3505156E-02;  1.0086473E+03;  4.0368047E-01;  7.1639194E+03;3; -5.4747364E+01;  0.0000000E+00; -4.7640128E+00;0;  8.4107392E-02;  1.0015839E+04;  0.0000000E+00;  1.4883392E-02;  1.0000000E+04;  0.0000000E+00;  9.9734727E+03; -1.0991257E-01;  0.0000000E+00;  1.9401996E-01;  1.2972620E+04;
  6.3904250E-01;  9.9999998E-03;  2.6031896E-01;2049; -2.8268331E-01;  0.0000000E+00;  5.9244748E-02;  1.0086323E+03;  4.0367967E-01;  7.1514756E+03;3; -6.2098579E+01;  0.0000000E+00; -2.7778656E+00;0;  9.2640221E-02;  1.0014489E+04;  0.0000000E+00;  2.1195242E-02;  1.0000000E+04;  0.0000000E+00;  9.9745283E+03; -7.8862071E-02;  0.0000000E+00;  1.7150229E-01;  1.2465199E+04;
  6.3902658E-01;  9.9999998E-03;  2.8035635E-01;2050; -2.7970824E-01;  0.0000000E+00;  6.3840002E-02;  1.0085569E+03;  4.0367869E-01;  7.0889609E+03;3; -7.4935020E+01;  0.0000000E+00;  5.7665640E-01;0;  1.0892558E-01;  1.0013221E+04;  0.0000000E+00;  1.8123794E-02;  1.0000000E+04;  0.0000000E+00;  9.9743154E+03; -5.0130770E-02;  0.0000000E+00;  1.5905635E-01;  1.2572154E+04;
  6.3900131E-01;  9.9999998E-03;  3.0038425E-01;2051; -2.7811098E-01;  0.0000000E+00;  6.7004569E-02;  1.0085139E+03;  4.0367714E-01;  7.0533086E+03;3; -9.2592255E+01;  0.0000000E+00;  8.2512121E+00;0;  1.1963982E-01;  1.0012066E+04;  0.0000000E+00;  5.1288246E-03;  1.0000000E+04;  0.0000000E+00;  9.9746865E+03; -2.4362469E-02;  0.0000000E+00;  1.4400229E-01;  1.2382791E+04;
  6.5908158E-01;  9.9999998E-03;  1.6023108E-01;2075; -2.9864877E-01;  0.0000000E+00;  4.1239019E-02;  1.0130657E+03;  4.0610158E-01;  1.0824225E+04;3; -5.7188530E+01;  0.0000000E+00; -7.7976022E+00;0;  5.1536542E-01;  9.9888994E+03;  0.0000000E+00; -8.9965761E-04;  1.0000000E+04;  0.0000000E+00;  9.9682783E+03;  2.1486899E-01;  0.0000000E+00;  3.0049643E-01;  1.5319513E+04;
  6.5906578E-01;  9.9999998E-03;  1.8025556E-01;2076; -2.9766494E-01;  0.0000000E+00;  4.6384744E-02;  1.0129742E+03;  4.0610096E-01;  1.0748379E+04;3; -5.4710678E+01;  0.0000000E+00; -7.6983042E+00;0;  5.3032213E-01;  9.9875967E+03;  0.0000000E+00; -1.3488391E-04;  1.0000000E+04;  0.0000000E+00;  9.9678047E+03;  2.4197885E-01;  0.0000000E+00;  2.8834328E-01;  1.5564200E+04;
  6.5904921E-01;  9.9999998E-03;  2.0028339E-01;2077; -2.9661891E-01;  0.0000000E+00;  5.1966518E-02;  1.0128614E+03;  4.0610066E-01;  1.0654953E+04;3; -5.2685646E+01;  0.0000000E+00; -7.6604443E+00;0;  5.4491246E-01;  9.9857891E+03;  0.0000000E+00;  3.0032957E-03;  1.0000000E+04;  0.0000000E+00;  9.9674102E+03;  2.7568990E-01;  0.0000000E+00;  2.6922256E-01;  1.5772119E+04;
  6.5903413E-01;  9.9999998E-03;  2.2032166E-01;2078; -2.9499418E-01;  0.0000000E+00;  5.9003968E-02;  1.0127485E+03;  4.0610015E-01;  1.0561429E+04;3; -5.2237362E+01;  0.0000000E+00; -7.3620591E+00;0;  5.5886042E-01;  9.9835039E+03;  0.0000000E+00;  9.6919760E-03;  1.0000000E+04;  0.0000000E+00;  9.9674854E+03;  3.1542549E-01;  0.0000000E+00;  2.4343497E-01;  1.5755469E+04;
  6.5902221E-01;  9.9999998E-03;  2.4037459E-01;2079; -2.9237741E-01;  0.0000000E+00;  6.7966677E-02;  1.0126048E+03;  4.0609980E-01;  1.0442425E+04;3; -5.4971901E+01;  0.0000000E+00; -6.2712088E+00;0;  5.8096814E-01;  9.9808965E+03;  0.0000000E+00;  1.8876353E-02;  1.0000000E+04;  0.0000000E+00;  9.9672510E+03;  3.5893312E-01;  0.0000000E+00;  2.2203504E-01;  1.5881906E+04;
  6.5900940E-01;  9.9999998E-03;  2.6042259E-01;2080; -2.8937176E-01;  0.0000000E+00;  7.4013919E-02;  1.0123860E+03;  4.0609962E-01;  1.0261203E+04;3; -6.2396057E+01;  0.0000000E+00; -4.0097466E+00;0;  6.1408269E-01;  9.9781865E+03;  0.0000000E+00;  2.5107563E-02;  1.0000000E+04;  0.0000000E+00;  9.9656338E+03;  4.0337777E-01;  0.0000000E+00;  2.1070491E-01;  1.6684127E+04;
  6.5899283E-01;  9.9999998E-03;  2.8045186E-01;2081; -2.8609321E-01;  0.0000000E+00;  7.7054724E-02;  1.0122004E+03;  4.0609914E-01;  1.0107437E+04;3; -7.5729347E+01;  0.0000000E+00; -8.3986104E-01;0;  6.4995474E-01;  9.9755283E+03;  0.0000000E+00;  1.9893195E-02;  1.0000000E+04;  0.0000000E+00;  9.9646367E+03;  4.4666696E-01;  0.0000000E+00;  2.0328780E-01;  1.7167398E+04;
  6.5896952E-01;  9.9999998E-03;  3.0047408E-01;2082; -2.8386167E-01;  0.0000000E+00;  7.7833124E-02;  1.0121147E+03;  4.0609765E-01;  1.0036430E+04;3; -9.3246506E+01;  0.0000000E+00;  8.5624695E+00;0;  6.5109742E-01;  9.9730068E+03;  0.0000000E+00;  4.8395456E-03;  1.0000000E+04;  0.0000000E+00;  9.9655322E+03;  4.8742375E-01;  0.0000000E+00;  1.6367364E-01;  1.6739803E+04;
  6.7906779E-01;  9.9999998E-03;  1.6028440E-01;2106; -3.0183852E-01;  0.0000000E+00;  4.8249166E-02;  1.0157028E+03;  4.0804872E-01;  1.3008769E+04;3; -5.7263187E+01;  0.0000000E+00; -1.0729314E+01;0;  1.1096433E+00;  9.9508135E+03;  0.0000000E+00; -4.9897860E-04;  1.0000000E+04;  0.0000000E+00;  9.9626748E+03;  7.6665491E-01;  0.0000000E+00;  3.4298840E-01;  1.7892301E+04;
  6.7905265E-01;  9.9999998E-03;  1.8031666E-01;2107; -3.0044836E-01;  0.0000000E+00;  5.5180516E-02;  1.0155917E+03;  4.0804884E-01;  1.2916628E+04;3; -5.4582882E+01;  0.0000000E+00; -1.0269551E+01;0;  1.1194620E+00;  9.9487559E+03;  0.0000000E+00;  7.2419248E-04;  1.0000000E+04;  0.0000000E+00;  9.9625508E+03;  7.9653215E-01;  0.0000000E+00;  3.2292980E-01;  1.7967541E+04;
  6.7903721E-01;  9.9999998E-03;  2.0035663E-01;2108; -2.9887322E-01;  0.0000000E+00;  6.3458502E-02;  1.0154600E+03;  4.0804899E-01;  1.2807601E+04;3; -5.2367809E+01;  0.0000000E+00; -9.7185125E+00;0;  1.1266360E+00;  9.9461182E+03;  0.0000000E+00;  4.4312440E-03;  1.0000000E+04;  0.0000000E+00;  9.9626064E+03;  8.3315486E-01;  0.0000000E+00;  2.9348114E-01;  1.7964543E+04;
  6.7902535E-01;  9.9999998E-03;  2.2041444E-01;2109; -2.9618269E-01;  0.0000000E+00;  7.4658781E-02;  1.0153052E+03;  4.0804920E-01;  1.2679315E+04;3; -5.1565968E+01;  0.0000000E+00; -8.8331223E+00;0;  1.1372445E+00;  9.9429590E+03;  0.0000000E+00;  1.1450208E-02;  1.0000000E+04;  0.0000000E+00;  9.9627129E+03;  8.7602663E-01;  0.0000000E+00;  2.6121783E-01;  1.7934061E+04;
  6.7901814E-01;  9.9999998E-03;  2.4048457E-01;2110; -2.9219455E-01;  0.0000000E+00;  8.5966997E-02;  1.0150444E+03;  4.0804994E-01;  1.2463234E+04;3; -5.3847561E+01;  0.0000000E+00; -7.8215895E+00;0;  1.1698064E+00;  9.9394414E+03;  0.0000000E+00;  2.0062724E-02;  1.0000000E+04;  0.0000000E+00;  9.9610752E+03;  9.2351937E-01;  0.0000000E+00;  2.4628697E-01;  1.8749477E+04;
  6.7900610E-01;  9.9999998E-03;  2.6052436E-01;2111; -2.8904057E-01;  0.0000000E+00;  8.9084275E-02;  1.0147212E+03;  4.0805084E-01;  1.2195507E+04;3; -6.1075901E+01;  0.0000000E+00; -5.2168136E+00;0;  1.2064838E+00;  9.9357510E+03;  0.0000000E+00;  2.4093639E-02;  1.0000000E+04;  0.0000000E+00;  9.9583643E+03;  9.7348583E-01;  0.0000000E+00;  2.3299795E-01;  2.0092639E+04;
  6.7899173E-01;  9.9999998E-03;  2.8054067E-01;2112; -2.8425995E-01;  0.0000000E+00;  8.9279398E-02;  1.0145094E+03;  4.0805104E-01;  1.2020114E+04;3; -7.4148628E+01;  0.0000000E+00; -2.1794217E+00;0;  1.2411761E+00;  9.9320488E+03;  0.0000000E+00;  1.6092228E-02;  1.0000000E+04;  0.0000000E+00;  9.9578809E+03;  1.0242233E+00;  0.0000000E+00;  2.1695276E-01;  2.0327625E+04;
  6.7898405E-01;  9.9999998E-03;  3.0055633E-01;2113; -2.7727318E-01;  0.0000000E+00;  8.6593501E-02;  1.0144174E+03;  4.0805060E-01;  1.1943873E+04;3; -8.9331779E+01;  0.0000000E+00;  9.4492159E+00;0;  1.2088261E+00;  9.9285430E+03;  0.0000000E+00;  1.6672412E-03;  1.0000000E+04;  0.0000000E+00;  9.9595938E+03;  1.0728018E+00;  0.0000000E+00;  1.3602421E-01;  1.9533914E+04;
  6.9909441E-01;  9.9999998E-03;  1.6036268E-01;2137; -2.9512113E-01;  0.0000000E+00;  6.4116985E-02;  1.0160419E+03;  4.0912318E-01;  1.3289370E+04;3; -5.6390247E+01;  0.0000000E+00; -1.2988205E+01;0;  1.7584393E+00;  9.9100479E+03;  0.0000000E+00;  1.6297078E-04;  1.0000000E+04;  0.0000000E+00;  9.9576602E+03;  1.3787621E+00;  0.0000000E+00;  3.7967715E-01;  2.0165117E+04;
  6.9908202E-01;  9.9999998E-03;  1.8040514E-01;2138; -2.9246002E-01;  0.0000000E+00;  7.3931798E-02;  1.0159376E+03;  4.0912393E-01;  1.3202959E+04;3; -5.3088242E+01;  0.0000000E+00; -1.1639812E+01;0;  1.7530200E+00;  9.9075244E+03;  0.0000000E+00;  1.5843386E-03;  1.0000000E+04;  0.0000000E+00;  9.9581289E+03;  1.4037519E+00;  0.0000000E+00;  3.4926820E-01;  1.9958414E+04;
  6.9907027E-01;  9.9999998E-03;  2.0045732E-01;2139; -2.8942034E-01;  0.0000000E+00;  8.5518420E-02;  1.0158130E+03;  4.0912452E-01;  1.3099760E+04;3; -5.0182537E+01;  0.0000000E+00; -1.0357846E+01;0;  1.7434762E+00;  9.9045342E+03;  0.0000000E+00;  5.0511621E-03;  1.0000000E+04;  0.0000000E+00;  9.9586699E+03;  1.4331094E+00;  0.0000000E+00;  3.1036678E-01;  1.9722451E+04;
  6.9906437E-01;  9.9999998E-03;  2.2052513E-01;2140; -2.8468287E-01;  0.0000000E+00;  9.8095901E-02;  1.0156401E+03;  4.0912530E-01;  1.2956565E+04;3; -4.8314751E+01;  0.0000000E+00; -9.7555971E+00;0;  1.7434816E+00;  9.9011445E+03;  0.0000000E+00;  1.0934905E-02;  1.0000000E+04;  0.0000000E+00;  9.9586436E+03;  1.4667361E+00;  0.0000000E+00;  2.7674559E-01;  1.9758416E+04;
  6.9906300E-01;  9.9999998E-03;  2.4058825E-01;2141; -2.7983019E-01;  0.0000000E+00;  1.0457188E-01;  1.0153397E+03;  4.0912682E-01;  1.2707702E+04;3; -5.0423065E+01;  0.0000000E+00; -9.9063616E+00;0;  1.7650532E+00;  9.8974697E+03;  0.0000000E+00;  1.7254710E-02;  1.0000000E+04;  0.0000000E+00;  9.9563799E+03;  1.5043826E+00;  0.0000000E+00;  2.6067054E-01;  2.0886453E+04;
  6.9905281E-01;  9.9999998E-03;  2.6060766E-01;2142; -2.7718428E-01;  0.0000000E+00;  1.0094642E-01;  1.0150399E+03;  4.0912825E-01;  1.2459234E+04;3; -5.6994724E+01;  0.0000000E+00; -6.6082087E+00;0;  1.7698021E+00;  9.8936318E+03;  0.0000000E+00;  1.8088575E-02;  1.0000000E+04;  0.0000000E+00;  9.9542822E+03;  1.5453112E+00;  0.0000000E+00;  2.2449087E-01;  2.1953119E+04;
  6.9906294E-01;  9.9999998E-03;  2.8061011E-01;2143; -2.6416349E-01;  0.0000000E+00;  9.9342898E-02;  1.0149095E+03;  4.0912896E-01;  1.2351296E+04;3; -6.5393929E+01;  0.0000000E+00; -3.8119779E+00;0;  1.7945619E+00;  9.8897881E+03;  0.0000000E+00;  1.0439536E-02;  1.0000000E+04;  0.0000000E+00;  9.9555205E+03;  1.5882310E+00;  0.0000000E+00;  2.0633094E-01;  2.1328127E+04;
  6.9913310E-01;  9.9999998E-03;  3.0062199E-01;2144; -2.3144345E-01;  0.0000000E+00;  9.5682047E-02;  1.0148567E+03;  4.0912944E-01;  1.2307546E+04;3; -6.9188995E+01;  0.0000000E+00;  9.5781775E+00;0;  1.7514992E+00;  9.8862852E+03;  0.0000000E+00;  6.6166455E-03;  1.0000000E+04;  0.0000000E+00;  9.9579111E+03;  1.6283445E+00;  0.0000000E+00;  1.2315460E-01;  2.0197131E+04;
  7.1922266E-01;  9.9999998E-03;  1.6046308E-01;2168; -2.6239881E-01;  0.0000000E+00;  9.6136153E-02;  1.0151739E+03;  4.0959749E-01;  1.2569995E+04;3; -5.0048656E+01;  0.0000000E+00; -1.0668822E+01;0;  2.3506899E+00;  9.8740430E+03;  0.0000000E+00;  5.7655835E-04;  1.0000000E+04;  0.0000000E+00;  9.9537480E+03;  1.9441254E+00;  0.0000000E+00;  4.0656438E-01;  2.1920686E+04;
  7.1921152E-01;  9.9999998E-03;  1.8051231E-01;2169; -2.5882638E-01;  0.0000000E+00;  1.0720185E-01;  1.0151005E+03;  4.0959844E-01;  1.2509163E+04;3; -4.6205944E+01;  0.0000000E+00; -9.1066761E+00;0;  2.3222389E+00;  9.8714482E+03;  0.0000000E+00;  1.7233532E-03;  1.0000000E+04;  0.0000000E+00;  9.9548887E+03;  1.9557559E+00;  0.0000000E+00;  3.6648306E-01;  2.1389252E+04;
  7.1920300E-01;  9.9999998E-03;  2.0056818E-01;2170; -2.5418305E-01;  0.0000000E+00;  1.1683176E-01;  1.0150081E+03;  4.0959930E-01;  1.2432630E+04;3; -4.2533779E+01;  0.0000000E+00; -1.0678100E+01;0;  2.2891304E+00;  9.8686729E+03;  0.0000000E+00;  4.1694883E-03;  1.0000000E+04;  0.0000000E+00;  9.9558428E+03;  1.9669060E+00;  0.0000000E+00;  3.2222447E-01;  2.0954955E+04;
  7.1920186E-01;  9.9999998E-03;  2.2062223E-01;2171; -2.4835904E-01;  0.0000000E+00;  1.2030534E-01;  1.0148658E+03;  4.0960008E-01;  1.2314721E+04;3; -4.0797935E+01;  0.0000000E+00; -1.2731651E+01;0;  2.2636096E+00;  9.8658320E+03;  0.0000000E+00;  8.0876155E-03;  1.0000000E+04;  0.0000000E+00;  9.9558691E+03;  1.9776180E+00;  0.0000000E+00;  2.8599161E-01;  2.0970420E+04;
  7.1921831E-01;  9.9999998E-03;  2.4066080E-01;2172; -2.3749742E-01;  0.0000000E+00;  1.1762390E-01;  1.0146304E+03;  4.0960154E-01;  1.2119782E+04;3; -4.0927452E+01;  0.0000000E+00; -1.2647456E+01;0;  2.2480190E+00;  9.8629863E+03;  0.0000000E+00;  1.2342627E-02;  1.0000000E+04;  0.0000000E+00;  9.9540615E+03;  1.9890852E+00;  0.0000000E+00;  2.5893375E-01;  2.1887451E+04;
  7.1925980E-01;  9.9999998E-03;  2.6066265E-01;2173; -2.1539560E-01;  0.0000000E+00;  1.0975323E-01;  1.0144601E+03;  4.0960327E-01;  1.1978665E+04;3; -4.0822430E+01;  0.0000000E+00; -9.2766047E+00;0;  2.2094646E+00;  9.8601641E+03;  0.0000000E+00;  1.5344354E-02;  1.0000000E+04;  0.0000000E+00;  9.9534688E+03;  2.0021656E+00;  0.0000000E+00;  2.0729907E-01;  2.2228854E+04;
  7.1932745E-01;  9.9999998E-03;  2.8065851E-01;2174; -1.8369184E-01;  0.0000000E+00;  1.0599884E-01;  1.0144779E+03;  4.0960366E-01;  1.1993377E+04;3; -4.0636047E+01;  0.0000000E+00; -4.3825226E+00;0;  2.1815789E+00;  9.8575117E+03;  0.0000000E+00;  1.6753256E-02;  1.0000000E+04;  0.0000000E+00;  9.9564102E+03;  2.0154123E+00;  0.0000000E+00;  1.6616662E-01;  2.0788510E+04;
  7.1940958E-01;  9.9999998E-03;  3.0067042E-01;2175; -1.5103689E-01;  0.0000000E+00;  1.0240075E-01;  1.0144966E+03;  4.0960369E-01;  1.2008979E+04;3; -4.1273396E+01;  0.0000000E+00;  1.0178116E+01;0;  2.1161807E+00;  9.8552979E+03;  0.0000000E+00;  1.2655647E-02;  1.0000000E+04;  0.0000000E+00;  9.9589473E+03;  2.0252447E+00;  0.0000000E+00;  9.0935893E-02;  1.9579639E+04;
  7.3949492E-01;  9.9999998E-03;  1.6048826E-01;2199; -1.7183727E-01;  0.0000000E+00;  9.7995318E-02;  1.0142757E+03;  4.0978587E-01;  1.1825460E+04;3; -3.1875574E+01;  0.0000000E+00; -1.4285056E+01;0;  2.7655067E+00;  9.8501133E+03;  0.0000000E+00;  5.3954340E-04;  1.0000000E+04;  0.0000000E+00;  9.9511504E+03;  2.3426635E+00;  0.0000000E+00;  4.2284334E-01;  2.3077133E+04;
  7.3948920E-01;  9.9999998E-03;  1.8053648E-01;2200; -1.6815865E-01;  0.0000000E+00;  1.0845315E-01;  1.0142500E+03;  4.0978652E-01;  1.1804229E+04;3; -2.8834261E+01;  0.0000000E+00; -1.2522215E+01;0;  2.7106814E+00;  9.8477881E+03;  0.0000000E+00;  1.1367822E-03;  1.0000000E+04;  0.0000000E+00;  9.9529463E+03;  2.3359790E+00;  0.0000000E+00;  3.7470251E-01;  2.2228848E+04;
  7.3948610E-01;  9.9999998E-03;  2.0058934E-01;2201; -1.6381726E-01;  0.0000000E+00;  1.1836634E-01;  1.0142291E+03;  4.0978751E-01;  1.1786949E+04;3; -2.6168993E+01;  0.0000000E+00; -1.2304610E+01;0;  2.6432502E+00;  9.8456865E+03;  0.0000000E+00;  2.3956199E-03;  1.0000000E+04;  0.0000000E+00;  9.9546318E+03;  2.3225644E+00;  0.0000000E+00;  3.2068592E-01;  2.1447293E+04;
  7.3949122E-01;  9.9999998E-03;  2.2063878E-01;2202; -1.5694170E-01;  0.0000000E+00;  1.2084731E-01;  1.0141940E+03;  4.0978831E-01;  1.1757817E+04;3; -2.4107883E+01;  0.0000000E+00; -1.4592400E+01;0;  2.5732644E+00;  9.8439678E+03;  0.0000000E+00;  4.6266699E-03;  1.0000000E+04;  0.0000000E+00;  9.9556436E+03;  2.3022847E+00;  0.0000000E+00;  2.7097967E-01;  2.0996063E+04;
  7.3951072E-01;  9.9999998E-03;  2.4067366E-01;2203; -1.4549693E-01;  0.0000000E+00;  1.1777022E-01;  1.0141220E+03;  4.0978935E-01;  1.1698173E+04;3; -2.2876926E+01;  0.0000000E+00; -1.4442852E+01;0;  2.5010448E+00;  9.8426865E+03;  0.0000000E+00;  7.7549815E-03;  1.0000000E+04;  0.0000000E+00;  9.9554736E+03;  2.2768254E+00;  0.0000000E+00;  2.2421938E-01;  2.1128816E+04;
  7.3954487E-01;  9.9999998E-03;  2.6068091E-01;2204; -1.2941431E-01;  0.0000000E+00;  1.1264267E-01;  1.0141252E+03;  4.0979043E-01;  1.1700837E+04;3; -2.2706942E+01;  0.0000000E+00; -1.0186580E+01;0;  2.4157805E+00;  9.8417734E+03;  0.0000000E+00;  1.1035061E-02;  1.0000000E+04;  0.0000000E+00;  9.9563975E+03;  2.2486839E+00;  0.0000000E+00;  1.6709656E-01;  2.0729326E+04;
  7.3959059E-01;  9.9999998E-03;  2.8069130E-01;2205; -1.0953693E-01;  0.0000000E+00;  1.0997685E-01;  1.0141743E+03;  4.0979049E-01;  1.1741521E+04;3; -2.2758160E+01;  0.0000000E+00; -7.5183754E+00;0;  2.3481593E+00;  9.8411709E+03;  0.0000000E+00;  1.1546044E-02;  1.0000000E+04;  0.0000000E+00;  9.9579326E+03;  2.2201228E+00;  0.0000000E+00;  1.2803645E-01;  2.0005480E+04;
  7.3964399E-01;  9.9999998E-03;  3.0070481E-01;2206; -8.9600079E-02;  0.0000000E+00;  1.0558280E-01;  1.0142822E+03;  4.0979025E-01;  1.1830888E+04;3; -2.3359539E+01;  0.0000000E+00;  1.0950486E+01;0;  2.2267926E+00;  9.8408066E+03;  0.0000000E+00;  2.4386439E-03;  1.0000000E+04;  0.0000000E+00;  9.9603906E+03;  2.1934655E+00;  0.0000000E+00;  3.3327106E-02;  1.8857068E+04;
  7.5971311E-01;  9.9999998E-03;  1.6049489E-01;2230; -1.0008871E-01;  0.0000000E+00;  9.3415618E-02;  1.0138994E+03;  4.0985650E-01;  1.1513138E+04;3; -1.9272087E+01;  0.0000000E+00; -1.8647718E+01;0;  2.9500957E+00;  9.8408604E+03;  0.0000000E+00;  2.7607701E-04;  1.0000000E+04;  0.0000000E+00;  9.9497471E+03;  2.5190325E+00;  0.0000000E+00;  4.3106312E-01;  2.3705428E+04;
  7.5971258E-01;  9.9999998E-03;  1.8053962E-01;2231; -9.6598946E-02;  0.0000000E+00;  1.0240674E-01;  1.0139175E+03;  4.0985727E-01;  1.1528146E+04;3; -1.7162115E+01;  0.0000000E+00; -1.7117851E+01;0;  2.8751683E+00;  9.8389941E+03;  0.0000000E+00;  4.2908330E-04;  1.0000000E+04;  0.0000000E+00;  9.9519395E+03;  2.4952288E+00;  0.0000000E+00;  3.7993962E-01;  2.2665594E+04;
  7.5971389E-01;  9.9999998E-03;  2.0058803E-01;2232; -9.2863999E-02;  0.0000000E+00;  1.1162462E-01;  1.0139620E+03;  4.0985817E-01;  1.1565077E+04;3; -1.5456961E+01;  0.0000000E+00; -1.5661370E+01;0;  2.7798212E+00;  9.8377246E+03;  0.0000000E+00;  8.0894999E-04;  1.0000000E+04;  0.0000000E+00;  9.9540596E+03;  2.4593461E+00;  0.0000000E+00;  3.2047519E-01;  2.1677459E+04;
  7.5972015E-01;  9.9999998E-03;  2.2063628E-01;2233; -8.7927051E-02;  0.0000000E+00;  1.1668538E-01;  1.0140251E+03;  4.0985885E-01;  1.1617313E+04;3; -1.4216176E+01;  0.0000000E+00; -1.5604925E+01;0;  2.6731312E+00;  9.8372461E+03;  0.0000000E+00;  1.5889517E-03;  1.0000000E+04;  0.0000000E+00;  9.9557500E+03;  2.4111092E+00;  0.0000000E+00;  2.6202199E-01;  2.0905078E+04;
  7.5973392E-01;  9.9999998E-03;  2.4067220E-01;2234; -8.0977559E-02;  0.0000000E+00;  1.1567817E-01;  1.0140944E+03;  4.0985948E-01;  1.1674779E+04;3; -1.3646106E+01;  0.0000000E+00; -1.5148030E+01;0;  2.5559249E+00;  9.8375566E+03;  0.0000000E+00;  2.7915025E-03;  1.0000000E+04;  0.0000000E+00;  9.9567549E+03;  2.3531153E+00;  0.0000000E+00;  2.0280947E-01;  2.0477563E+04;
  7.5975478E-01;  9.9999998E-03;  2.6068825E-01;2235; -7.2065838E-02;  0.0000000E+00;  1.1385922E-01;  1.0142350E+03;  4.0986010E-01;  1.1791198E+04;3; -1.3820929E+01;  0.0000000E+00; -1.0942247E+01;0;  2.4346325E+00;  9.8384980E+03;  0.0000000E+00;  3.8181990E-03;  1.0000000E+04;  0.0000000E+00;  9.9585273E+03;  2.2900410E+00;  0.0000000E+00;  1.4459148E-01;  1.9665289E+04;
  7.5977981E-01;  9.9999998E-03;  2.8071544E-01;2236; -6.1928686E-02;  0.0000000E+00;  1.1244934E-01;  1.0142642E+03;  4.0985993E-01;  1.1815390E+04;3; -1.4351918E+01;  0.0000000E+00; -1.2786463E+01;0;  2.3408792E+00;  9.8397871E+03;  0.0000000E+00;  2.1929643E-03;  1.0000000E+04;  0.0000000E+00;  9.9577744E+03;  2.2274492E+00;  0.0000000E+00;  1.1343004E-01;  2.0090535E+04;
  7.5980955E-01;  9.9999998E-03;  3.0072954E-01;2237; -5.1532596E-02;  0.0000000E+00;  1.0748614E-01;  1.0144732E+03;  4.0985954E-01;  1.1988487E+04;3; -1.4994255E+01;  0.0000000E+00;  1.0963011E+01;0;  2.1668169E+00;  9.8410947E+03;  0.0000000E+00; -6.2164622E-03;  1.0000000E+04;  0.0000000E+00;  9.9605508E+03;  2.1717792E+00;  0.0000000E+00; -4.9621109E-03;  1.8808949E+04;
  7.7987540E-01;  9.9999998E-03;  1.6049421E-01;2261; -4.8366528E-02;  0.0000000E+00;  8.8857934E-02;  1.0140380E+03;  4.0988180E-01;  1.1627196E+04;3; -1.1536294E+01;  0.0000000E+00; -2.1594608E+01;0;  2.9590127E+00;  9.8429033E+03;  0.0000000E+00;  6.5428896E-05;  1.0000000E+04;  0.0000000E+00;  9.9491846E+03;  2.5234697E+00;  0.0000000E+00;  4.3554315E-01;  2.3956693E+04;
  7.7987736E-01;  9.9999998E-03;  1.8053609E-01;2262; -4.6026886E-02;  0.0000000E+00;  9.6903078E-02;  1.0140830E+03;  4.0988258E-01;  1.1664519E+04;3; -1.0531933E+01;  0.0000000E+00; -2.0166513E+01;0;  2.8752694E+00;  9.8414668E+03;  0.0000000E+00;  4.1867959E-05;  1.0000000E+04;  0.0000000E+00;  9.9514814E+03;  2.4892817E+00;  0.0000000E+00;  3.8598773E-01;  2.2868973E+04;
  7.7988034E-01;  9.9999998E-03;  2.0058176E-01;2263; -4.3789759E-02;  0.0000000E+00;  1.0552241E-01;  1.0141663E+03;  4.0988326E-01;  1.1733536E+04;3; -9.8490410E+00;  0.0000000E+00; -1.8691853E+01;0;  2.7663431E+00;  9.8408789E+03;  0.0000000E+00;  5.4439930E-05;  1.0000000E+04;  0.0000000E+00;  9.9536699E+03;  2.4398861E+00;  0.0000000E+00;  3.2645708E-01;  2.1848693E+04;
  7.7988535E-01;  9.9999998E-03;  2.2063039E-01;2264; -4.1340772E-02;  0.0000000E+00;  1.1220523E-01;  1.0142873E+03;  4.0988374E-01;  1.1833655E+04;3; -9.5338192E+00;  0.0000000E+00; -1.7362703E+01;0;  2.6394911E+00;  9.8413252E+03;  0.0000000E+00;  1.4041072E-04;  1.0000000E+04;  0.0000000E+00;  9.9555625E+03;  2.3750021E+00;  0.0000000E+00;  2.6448905E-01;  2.0985498E+04;
  7.7989280E-01;  9.9999998E-03;  2.4066976E-01;2265; -3.8491502E-02;  0.0000000E+00;  1.1431398E-01;  1.0144352E+03;  4.0988412E-01;  1.1956286E+04;3; -9.6187019E+00;  0.0000000E+00; -1.5879756E+01;0;  2.5003052E+00;  9.8427764E+03;  0.0000000E+00;  2.6930630E-04;  1.0000000E+04;  0.0000000E+00;  9.9569688E+03;  2.2979481E+00;  0.0000000E+00;  2.0235695E-01;  2.0365545E+04;
  7.7990174E-01;  9.9999998E-03;  2.6069471E-01;2266; -3.5348110E-02;  0.0000000E+00;  1.1674853E-01;  1.0146359E+03;  4.0988451E-01;  1.2122461E+04;3; -1.0086061E+01;  0.0000000E+00; -1.1024910E+01;0;  2.3738256E+00;  9.8449736E+03;  0.0000000E+00;  1.3434647E-04;  1.0000000E+04;  0.0000000E+00;  9.9586553E+03;  2.2147410E+00;  0.0000000E+00;  1.5908457E-01;  1.9586045E+04;
  7.7991056E-01;  9.9999998E-03;  2.8073126E-01;2267; -3.2177441E-02;  0.0000000E+00;  1.1445814E-01;  1.0146585E+03;  4.0988445E-01;  1.2141120E+04;3; -1.0841537E+01;  0.0000000E+00; -1.4999053E+01;0;  2.2520139E+00;  9.8475391E+03;  0.0000000E+00; -1.1951036E-03;  1.0000000E+04;  0.0000000E+00;  9.9564922E+03;  2.1326251E+00;  0.0000000E+00;  1.1938891E-01;  2.0732703E+04;
  7.7992171E-01;  9.9999998E-03;  3.0074614E-01;2268; -2.8625015E-02;  0.0000000E+00;  1.0934856E-01;  1.0149407E+03;  4.0988383E-01;  1.2374831E+04;3; -1.1580254E+01;  0.0000000E+00;  1.1298522E+01;0;  2.0456626E+00;  9.8500146E+03;  0.0000000E+00; -4.8311171E-03;  1.0000000E+04;  0.0000000E+00;  9.9595332E+03;  2.0595436E+00;  0.0000000E+00; -1.3881069E-02;  1.9341787E+04;
  8.0000883E-01;  9.9999998E-03;  1.6048960E-01;2292; -5.4542515E-03;  0.0000000E+00;  8.5719138E-02;  1.0144615E+03;  4.0988883E-01;  1.1976923E+04;3; -5.0893688E+00;  0.0000000E+00; -2.2760767E+01;0;  2.8810568E+00;  9.8507871E+03;  0.0000000E+00; -4.4688472E-06;  1.0000000E+04;  0.0000000E+00;  9.9491377E+03;  2.4414568E+00;  0.0000000E+00;  4.3959990E-01;  2.3969367E+04;
  8.0001217E-01;  9.9999998E-03;  1.8053009E-01;2293; -4.4187866E-03;  0.0000000E+00;  9.3553983E-02;  1.0145110E+03;  4.0988958E-01;  1.2017896E+04;3; -5.0537286E+00;  0.0000000E+00; -2.1258707E+01;0;  2.8003676E+00;  9.8495635E+03;  0.0000000E+00; -2.4149958E-05;  1.0000000E+04;  0.0000000E+00;  9.9513027E+03;  2.4064467E+00;  0.0000000E+00;  3.9392099E-01;  2.2941961E+04;
  8.0001557E-01;  9.9999998E-03;  2.0057522E-01;2294; -3.7276172E-03;  0.0000000E+00;  1.0242604E-01;  1.0146016E+03;  4.0989020E-01;  1.2092928E+04;3; -5.1958289E+00;  0.0000000E+00; -1.9661726E+01;0;  2.6925454E+00;  9.8492900E+03;  0.0000000E+00; -4.3491978E-05;  1.0000000E+04;  0.0000000E+00;  9.9533203E+03;  2.3552392E+00;  0.0000000E+00;  3.3730632E-01;  2.2008748E+04;
  8.0001855E-01;  9.9999998E-03;  2.2062719E-01;2295; -3.4901674E-03;  0.0000000E+00;  1.1080042E-01;  1.0147348E+03;  4.0989071E-01;  1.2203207E+04;3; -5.4923859E+00;  0.0000000E+00; -1.8073769E+01;0;  2.5641932E+00;  9.8501602E+03;  0.0000000E+00; -6.6898487E-05;  1.0000000E+04;  0.0000000E+00;  9.9550244E+03;  2.2872057E+00;  0.0000000E+00;  2.7698767E-01;  2.1239012E+04;
  8.0002010E-01;  9.9999998E-03;  2.4067035E-01;2296; -3.9925301E-03;  0.0000000E+00;  1.1496119E-01;  1.0148978E+03;  4.0989095E-01;  1.2338268E+04;3; -5.9314060E+00;  0.0000000E+00; -1.6041246E+01;0;  2.4237304E+00;  9.8521143E+03;  0.0000000E+00; -1.1277606E-04;  1.0000000E+04;  0.0000000E+00;  9.9562324E+03;  2.2058120E+00;  0.0000000E+00;  2.1791832E-01;  2.0717779E+04;
  8.0001885E-01;  9.9999998E-03;  2.6070023E-01;2297; -5.4174513E-03;  0.0000000E+00;  1.1888437E-01;  1.0151013E+03;  4.0989125E-01;  1.2506797E+04;3; -6.4856572E+00;  0.0000000E+00; -1.1848642E+01;0;  2.3011091E+00;  9.8548564E+03;  0.0000000E+00; -2.1770230E-04;  1.0000000E+04;  0.0000000E+00;  9.9574248E+03;  2.1175020E+00;  0.0000000E+00;  1.8360712E-01;  2.0173803E+04;
  8.0001521E-01;  9.9999998E-03;  2.8073928E-01;2298; -7.3513673E-03;  0.0000000E+00;  1.1516592E-01;  1.0151309E+03;  4.0989128E-01;  1.2531282E+04;3; -7.1037765E+00;  0.0000000E+00; -1.5998384E+01;0;  2.1554031E+00;  9.8579824E+03;  0.0000000E+00; -4.0771073E-04;  1.0000000E+04;  0.0000000E+00;  9.9548457E+03;  2.0298772E+00;  0.0000000E+00;  1.2552588E-01;  2.1553748E+04;
  8.0001116E-01;  9.9999998E-03;  3.0075470E-01;2299; -8.9902552E-03;  0.0000000E+00;  1.1055651E-01;  1.0154529E+03;  4.0989065E-01;  1.2797947E+04;3; -7.6566048E+00;  0.0000000E+00;  1.1479425E+01;0;  1.9427630E+00;  9.8610225E+03;  0.0000000E+00; -6.0161698E-04;  1.0000000E+04;  0.0000000E+00;  9.9581055E+03;  1.9506724E+00;  0.0000000E+00; -7.9094693E-03;  2.0057547E+04;
  8.2013786E-01;  9.9999998E-03;  1.6048273E-01;2323;  3.7845515E-02;  0.0000000E+00;  8.4331885E-02;  1.0149420E+03;  4.0987512E-01;  1.2373380E+04;3;  2.5287378E+00;  0.0000000E+00; -2.2253736E+01;0;  2.7794514E+00;  9.8604473E+03;  0.0000000E+00;  9.2771807E-06;  1.0000000E+04;  0.0000000E+00;  9.9494072E+03;  2.3351731E+00;  0.0000000E+00;  4.4427824E-01;  2.3820100E+04;
  8.2014287E-01;  9.9999998E-03;  1.8052310E-01;2324;  3.8105492E-02;  0.0000000E+00;  9.2537150E-02;  1.0149752E+03;  4.0987596E-01;  1.2400823E+04;3;  1.9433879E+00;  0.0000000E+00; -2.0580605E+01;0;  2.7108874E+00;  9.8591416E+03;  0.0000000E+00;  4.2103737E-05;  1.0000000E+04;  0.0000000E+00;  9.9513350E+03;  2.3083289E+00;  0.0000000E+00;  4.0255845E-01;  2.2906807E+04;
  8.2014722E-01;  9.9999998E-03;  2.0056911E-01;2325;  3.7940092E-02;  0.0000000E+00;  1.0214853E-01;  1.0150463E+03;  4.0987647E-01;  1.2459756E+04;3;  1.3716686E+00;  0.0000000E+00; -1.8801210E+01;0;  2.6150289E+00;  9.8587734E+03;  0.0000000E+00;  1.0939047E-04;  1.0000000E+04;  0.0000000E+00;  9.9530713E+03;  2.2657442E+00;  0.0000000E+00;  3.4928459E-01;  2.2109139E+04;
  8.2014906E-01;  9.9999998E-03;  2.2062655E-01;2326;  3.6768321E-02;  0.0000000E+00;  1.1261252E-01;  1.0151548E+03;  4.0987700E-01;  1.2549587E+04;3;  8.7282991E-01;  0.0000000E+00; -1.7046583E+01;0;  2.4992421E+00;  9.8595439E+03;  0.0000000E+00;  2.0940290E-04;  1.0000000E+04;  0.0000000E+00;  9.9543867E+03;  2.2058918E+00;  0.0000000E+00;  2.9335013E-01;  2.1526477E+04;
  8.2014567E-01;  9.9999998E-03;  2.4067342E-01;2327;  3.3749316E-02;  0.0000000E+00;  1.1748990E-01;  1.0152839E+03;  4.0987751E-01;  1.2656398E+04;3;  4.7794333E-01;  0.0000000E+00; -1.5589134E+01;0;  2.3721132E+00;  9.8614053E+03;  0.0000000E+00;  3.2227824E-04;  1.0000000E+04;  0.0000000E+00;  9.9550244E+03;  2.1317818E+00;  0.0000000E+00;  2.4033141E-01;  2.1282908E+04;
  8.2013607E-01;  9.9999998E-03;  2.6070318E-01;2328;  2.8669646E-02;  0.0000000E+00;  1.1968420E-01;  1.0154584E+03;  4.0987781E-01;  1.2801019E+04;3;  1.9956224E-01;  0.0000000E+00; -1.2994232E+01;0;  2.2509069E+00;  9.8640566E+03;  0.0000000E+00;  4.2639280E-04;  1.0000000E+04;  0.0000000E+00;  9.9557480E+03;  2.0497222E+00;  0.0000000E+00;  2.0118470E-01;  2.0979119E+04;
  8.2012272E-01;  9.9999998E-03;  2.8073984E-01;2329;  2.2440735E-02;  0.0000000E+00;  1.1488733E-01;  1.0155002E+03;  4.0987775E-01;  1.2835570E+04;3;  2.3123879E-02;  0.0000000E+00; -1.6062592E+01;0;  2.0943890E+00;  9.8671172E+03;  0.0000000E+00;  4.5046202E-04;  1.0000000E+04;  0.0000000E+00;  9.9534775E+03;  1.9670826E+00;  0.0000000E+00;  1.2730646E-01;  2.2223492E+04;
  8.2010484E-01;  9.9999998E-03;  3.0075541E-01;2330;  1.5932934E-02;  0.0000000E+00;  1.1094733E-01;  1.0158320E+03;  4.0987706E-01;  1.3110298E+04;3; -1.0378578E-01;  0.0000000E+00;  1.1580334E+01;0;  1.8904096E+00;  9.8701621E+03;  0.0000000E+00;  2.4183255E-04;  1.0000000E+04;  0.0000000E+00;  9.9569199E+03;  1.8908728E+00;  0.0000000E+00; -4.6320865E-04;  2.0630162E+04;
  8.4027326E-01;  9.9999998E-03;  1.6047359E-01;2354;  8.4978931E-02;  0.0000000E+00;  8.4172323E-02;  1.0150974E+03;  4.0971407E-01;  1.2499935E+04;3;  1.1943998E+01;  0.0000000E+00; -2.0514372E+01;0;  2.6681488E+00;  9.8706572E+03;  0.0000000E+00;  3.9802140E-05;  1.0000000E+04;  0.0000000E+00;  9.9499521E+03;  2.2195377E+00;  0.0000000E+00;  4.4861099E-01;  2.3521285E+04;
  8.4028095E-01;  9.9999998E-03;  1.8051438E-01;2355;  8.5285902E-02;  0.0000000E+00;  9.2948698E-02;  1.0151000E+03;  4.0971482E-01;  1.2502104E+04;3;  1.1124729E+01;  0.0000000E+00; -1.8681992E+01;0;  2.6165469E+00;  9.8690088E+03;  0.0000000E+00;  1.1827060E-04;  1.0000000E+04;  0.0000000E+00;  9.9516357E+03;  2.2069800E+00;  0.0000000E+00;  4.0956697E-01;  2.2727871E+04;
  8.4028769E-01;  9.9999998E-03;  2.0056133E-01;2356;  8.5235797E-02;  0.0000000E+00;  1.0324098E-01;  1.0151348E+03;  4.0971532E-01;  1.2530924E+04;3;  1.0531205E+01;  0.0000000E+00; -1.6818182E+01;0;  2.5384614E+00;  9.8681875E+03;  0.0000000E+00;  3.0890325E-04;  1.0000000E+04;  0.0000000E+00;  9.9531084E+03;  2.1799843E+00;  0.0000000E+00;  3.5847721E-01;  2.2057008E+04;
  8.4029007E-01;  9.9999998E-03;  2.2062190E-01;2357;  8.3654821E-02;  0.0000000E+00;  1.1473902E-01;  1.0151996E+03;  4.0971589E-01;  1.2584518E+04;3;  1.0206431E+01;  0.0000000E+00; -1.5283453E+01;0;  2.4414980E+00;  9.8684443E+03;  0.0000000E+00;  6.5087405E-04;  1.0000000E+04;  0.0000000E+00;  9.9540996E+03;  2.1357973E+00;  0.0000000E+00;  3.0570072E-01;  2.1631844E+04;
  8.4028298E-01;  9.9999998E-03;  2.4067017E-01;2358;  7.8727901E-02;  0.0000000E+00;  1.1870247E-01;  1.0152786E+03;  4.0971649E-01;  1.2649957E+04;3;  1.0055232E+01;  0.0000000E+00; -1.5459802E+01;0;  2.3310893E+00;  9.8697529E+03;  0.0000000E+00;  1.0910156E-03;  1.0000000E+04;  0.0000000E+00;  9.9543018E+03;  2.0764728E+00;  0.0000000E+00;  2.5461659E-01;  2.1596639E+04;
  8.4026659E-01;  9.9999998E-03;  2.6069731E-01;2359;  7.0551388E-02;  0.0000000E+00;  1.1873217E-01;  1.0154215E+03;  4.0971693E-01;  1.2768301E+04;3;  1.0425634E+01;  0.0000000E+00; -1.3470399E+01;0;  2.2120614E+00;  9.8718516E+03;  0.0000000E+00;  1.4284881E-03;  1.0000000E+04;  0.0000000E+00;  9.9549580E+03;  2.0078139E+00;  0.0000000E+00;  2.0424753E-01;  2.1341313E+04;
  8.4024453E-01;  9.9999998E-03;  2.8073090E-01;2360;  6.0103055E-02;  0.0000000E+00;  1.1367592E-01;  1.0154692E+03;  4.0971705E-01;  1.2807782E+04;3;  1.0820891E+01;  0.0000000E+00; -1.5237781E+01;0;  2.0579948E+00;  9.8743857E+03;  0.0000000E+00;  1.1208184E-03;  1.0000000E+04;  0.0000000E+00;  9.9533281E+03;  1.9368415E+00;  0.0000000E+00;  1.2115344E-01;  2.2272344E+04;
  8.4021354E-01;  9.9999998E-03;  3.0074671E-01;2361;  4.8366558E-02;  0.0000000E+00;  1.1030414E-01;  1.0157855E+03;  4.0971643E-01;  1.3069637E+04;3;  1.1213543E+01;  0.0000000E+00;  1.1529379E+01;0;  1.8721306E+00;  9.8770010E+03;  0.0000000E+00; -7.4836577E-04;  1.0000000E+04;  0.0000000E+00;  9.9568984E+03;  1.8700169E+00;  0.0000000E+00;  2.1137143E-03;  2.0604637E+04;
  8.6041200E-01;  9.9999998E-03;  1.6046125E-01;2385;  1.3438031E-01;  0.0000000E+00;  8.4290735E-02;  1.0149678E+03;  4.0939781E-01;  1.2389870E+04;3;  2.2499718E+01;  0.0000000E+00; -1.8098114E+01;0;  2.5217221E+00;  9.8825420E+03;  0.0000000E+00;  5.5330507E-05;  1.0000000E+04;  0.0000000E+00;  9.9508330E+03;  2.0709774E+00;  0.0000000E+00;  4.5074469E-01;  2.3047684E+04;
  8.6042339E-01;  9.9999998E-03;  1.8050228E-01;2386;  1.3545290E-01;  0.0000000E+00;  9.3548216E-02;  1.0149343E+03;  4.0939859E-01;  1.2362141E+04;3;  2.1731987E+01;  0.0000000E+00; -1.6175407E+01;0;  2.4882636E+00;  9.8803838E+03;  0.0000000E+00;  1.7587078E-04;  1.0000000E+04;  0.0000000E+00;  9.9523135E+03;  2.0753825E+00;  0.0000000E+00;  4.1288102E-01;  2.2353109E+04;
  8.6043388E-01;  9.9999998E-03;  2.0054950E-01;2387;  1.3631819E-01;  0.0000000E+00;  1.0422781E-01;  1.0149241E+03;  4.0939921E-01;  1.2353750E+04;3;  2.1385227E+01;  0.0000000E+00; -1.4325986E+01;0;  2.4299650E+00;  9.8788799E+03;  0.0000000E+00;  5.3895905E-04;  1.0000000E+04;  0.0000000E+00;  9.9535947E+03;  2.0673215E+00;  0.0000000E+00;  3.6264360E-01;  2.1774814E+04;
  8.6043853E-01;  9.9999998E-03;  2.2061040E-01;2388;  1.3506643E-01;  0.0000000E+00;  1.1558621E-01;  1.0149368E+03;  4.0939969E-01;  1.2364210E+04;3;  2.1381264E+01;  0.0000000E+00; -1.3505639E+01;0;  2.3540530E+00;  9.8783262E+03;  0.0000000E+00;  1.2893068E-03;  1.0000000E+04;  0.0000000E+00;  9.9543877E+03;  2.0428638E+00;  0.0000000E+00;  3.1118926E-01;  2.1445576E+04;
  8.6042893E-01;  9.9999998E-03;  2.4065788E-01;2389;  1.2874189E-01;  0.0000000E+00;  1.1828218E-01;  1.0149617E+03;  4.0940037E-01;  1.2384835E+04;3;  2.1643536E+01;  0.0000000E+00; -1.5118372E+01;0;  2.2622356E+00;  9.8787578E+03;  0.0000000E+00;  2.3359943E-03;  1.0000000E+04;  0.0000000E+00;  9.9544072E+03;  2.0027790E+00;  0.0000000E+00;  2.5945663E-01;  2.1498666E+04;
  8.6040670E-01;  9.9999998E-03;  2.6068220E-01;2390;  1.1750628E-01;  0.0000000E+00;  1.1656751E-01;  1.0150687E+03;  4.0940094E-01;  1.2473451E+04;3;  2.2477501E+01;  0.0000000E+00; -1.3230121E+01;0;  2.1502695E+00;  9.8799805E+03;  0.0000000E+00;  3.2122289E-03;  1.0000000E+04;  0.0000000E+00;  9.9552334E+03;  1.9519202E+00;  0.0000000E+00;  1.9834931E-01;  2.1169732E+04;
  8.6037666E-01;  9.9999998E-03;  2.8071353E-01;2391;  1.0282683E-01;  0.0000000E+00;  1.1192105E-01;  1.0151061E+03;  4.0940109E-01;  1.2504342E+04;3;  2.3632837E+01;  0.0000000E+00; -1.3772264E+01;0;  2.0094416E+00;  9.8816934E+03;  0.0000000E+00;  2.8830548E-03;  1.0000000E+04;  0.0000000E+00;  9.9542197E+03;  1.8967590E+00;  0.0000000E+00;  1.1268252E-01;  2.1790820E+04;
  8.6033261E-01;  9.9999998E-03;  3.0072978E-01;2392;  8.5612595E-02;  0.0000000E+00;  1.0920961E-01;  1.0153866E+03;  4.0940070E-01;  1.2736538E+04;3;  2.4630157E+01;  0.0000000E+00;  1.1600327E+01;0;  1.8497558E+00;  9.8835850E+03;  0.0000000E+00; -2.1509912E-04;  1.0000000E+04;  0.0000000E+00;  9.9578145E+03;  1.8433936E+00;  0.0000000E+00;  6.3622380E-03;  2.0099912E+04;
  8.8054490E-01;  9.9999998E-03;  1.6044471E-01;2416;  1.8260022E-01;  0.0000000E+00;  8.3763078E-02;  1.0146940E+03;  4.0894422E-01;  1.2159525E+04;3;  3.3311653E+01;  0.0000000E+00; -1.5505239E+01;0;  2.3043454E+00;  9.8978945E+03;  0.0000000E+00;  3.7306647E-05;  1.0000000E+04;  0.0000000E+00;  9.9521270E+03;  1.8552436E+00;  0.0000000E+00;  4.4910172E-01;  2.2369195E+04;
  8.8056058E-01;  9.9999998E-03;  1.8048534E-01;2417;  1.8481335E-01;  0.0000000E+00;  9.3253404E-02;  1.0146241E+03;  4.0894505E-01;  1.2101714E+04;3;  3.2719639E+01;  0.0000000E+00; -1.3565825E+01;0;  2.2882106E+00;  9.8951758E+03;  0.0000000E+00;  1.9830168E-04;  1.0000000E+04;  0.0000000E+00;  9.9534619E+03;  1.8766419E+00;  0.0000000E+00;  4.1156885E-01;  2.1747141E+04;
  8.8057548E-01;  9.9999998E-03;  2.0053186E-01;2418;  1.8697129E-01;  0.0000000E+00;  1.0400995E-01;  1.0145667E+03;  4.0894559E-01;  1.2054162E+04;3;  3.2696636E+01;  0.0000000E+00; -1.1761928E+01;0;  2.2500265E+00;  9.8928740E+03;  0.0000000E+00;  7.8466104E-04;  1.0000000E+04;  0.0000000E+00;  9.9546201E+03;  1.8884478E+00;  0.0000000E+00;  3.6157864E-01;  2.1227836E+04;
  8.8058305E-01;  9.9999998E-03;  2.2059104E-01;2419;  1.8628940E-01;  0.0000000E+00;  1.1466397E-01;  1.0145231E+03;  4.0894619E-01;  1.2018155E+04;3;  3.2863838E+01;  0.0000000E+00; -1.1920761E+01;0;  2.1964016E+00;  9.8913164E+03;  0.0000000E+00;  2.1075676E-03;  1.0000000E+04;  0.0000000E+00;  9.9553066E+03;  1.8858761E+00;  0.0000000E+00;  3.1052557E-01;  2.0943049E+04;
  8.8057166E-01;  9.9999998E-03;  2.4063648E-01;2420;  1.7880297E-01;  0.0000000E+00;  1.1644196E-01;  1.0144910E+03;  4.0894699E-01;  1.1991620E+04;3;  3.3486710E+01;  0.0000000E+00; -1.4195559E+01;0;  2.1259921E+00;  9.8906357E+03;  0.0000000E+00;  4.0344698E-03;  1.0000000E+04;  0.0000000E+00;  9.9553281E+03;  1.8682117E+00;  0.0000000E+00;  2.5778034E-01;  2.0996203E+04;
  8.8054401E-01;  9.9999998E-03;  2.6065907E-01;2421;  1.6450374E-01;  0.0000000E+00;  1.1397228E-01;  1.0145501E+03;  4.0894768E-01;  1.2040458E+04;3;  3.4669712E+01;  0.0000000E+00; -1.2052347E+01;0;  2.0307946E+00;  9.8907510E+03;  0.0000000E+00;  5.7860217E-03;  1.0000000E+04;  0.0000000E+00;  9.9563330E+03;  1.8387272E+00;  0.0000000E+00;  1.9206746E-01;  2.0581576E+04;
  8.8050687E-01;  9.9999998E-03;  2.8068915E-01;2422;  1.4557263E-01;  0.0000000E+00;  1.0991554E-01;  1.0145574E+03;  4.0894794E-01;  1.2046482E+04;3;  3.6560951E+01;  0.0000000E+00; -1.1816779E+01;0;  1.9119028E+00;  9.8914199E+03;  0.0000000E+00;  5.8951499E-03;  1.0000000E+04;  0.0000000E+00;  9.9557529E+03;  1.8027573E+00;  0.0000000E+00;  1.0914557E-01;  2.0974670E+04;
  8.8045096E-01;  9.9999998E-03;  3.0070603E-01;2423;  1.2328629E-01;  0.0000000E+00;  1.0791143E-01;  1.0147855E+03;  4.0894786E-01;  1.2235208E+04;3;  3.8356140E+01;  0.0000000E+00;  1.2202845E+01;0;  1.7817756E+00;  9.8924131E+03;  0.0000000E+00;  2.4966763E-03;  1.0000000E+04;  0.0000000E+00;  9.9592051E+03;  1.7658901E+00;  0.0000000E+00;  1.5885441E-02;  1.9344475E+04;
  9.0066278E-01;  9.9999998E-03;  1.6042344E-01;2447;  2.2662278E-01;  0.0000000E+00;  8.1978962E-02;  1.0143720E+03;  4.0837839E-01;  1.1888217E+04;3;  4.3883675E+01;  0.0000000E+00; -1.3084787E+01;0;  2.0002632E+00;  9.9173857E+03;  0.0000000E+00; -1.6899619E-05;  1.0000000E+04;  0.0000000E+00;  9.9538574E+03;  1.5572218E+00;  0.0000000E+00;  4.4304141E-01;  2.1474299E+04;
  9.0068245E-01;  9.9999998E-03;  1.8046288E-01;2448;  2.2996986E-01;  0.0000000E+00;  9.1417842E-02;  1.0142711E+03;  4.0837908E-01;  1.1804690E+04;3;  4.3443466E+01;  0.0000000E+00; -1.1176898E+01;0;  1.9996643E+00;  9.9141660E+03;  0.0000000E+00;  1.5088741E-04;  1.0000000E+04;  0.0000000E+00;  9.9550879E+03;  1.5938307E+00;  0.0000000E+00;  4.0583363E-01;  2.0904357E+04;
  9.0070158E-01;  9.9999998E-03;  2.0050772E-01;2449;  2.3334233E-01;  0.0000000E+00;  1.0198122E-01;  1.0141683E+03;  4.0837967E-01;  1.1719686E+04;3;  4.3633583E+01;  0.0000000E+00; -9.4689493E+00;0;  1.9814694E+00;  9.9110498E+03;  0.0000000E+00;  9.2264038E-04;  1.0000000E+04;  0.0000000E+00;  9.9561729E+03;  1.6251701E+00;  0.0000000E+00;  3.5629922E-01;  2.0421010E+04;
  9.0071076E-01;  9.9999998E-03;  2.2056243E-01;2450;  2.3267798E-01;  0.0000000E+00;  1.1128614E-01;  1.0140682E+03;  4.0838009E-01;  1.1636853E+04;3;  4.3672066E+01;  0.0000000E+00; -1.0413410E+01;0;  1.9511306E+00;  9.9083857E+03;  0.0000000E+00;  2.8145076E-03;  1.0000000E+04;  0.0000000E+00;  9.9568721E+03;  1.6460547E+00;  0.0000000E+00;  3.0507588E-01;  2.0128732E+04;
  9.0069735E-01;  9.9999998E-03;  2.4060613E-01;2451;  2.2357245E-01;  0.0000000E+00;  1.1286133E-01;  1.0139756E+03;  4.0838096E-01;  1.1560337E+04;3;  4.3973392E+01;  0.0000000E+00; -1.2815486E+01;0;  1.9059011E+00;  9.9064180E+03;  0.0000000E+00;  5.6881788E-03;  1.0000000E+04;  0.0000000E+00;  9.9569834E+03;  1.6539482E+00;  0.0000000E+00;  2.5195292E-01;  2.0129529E+04;
  9.0066582E-01;  9.9999998E-03;  2.6062936E-01;2452;  2.0716380E-01;  0.0000000E+00;  1.1131629E-01;  1.0139691E+03;  4.0838179E-01;  1.1554922E+04;3;  4.6001465E+01;  0.0000000E+00; -1.0343973E+01;0;  1.8403958E+00;  9.9052197E+03;  0.0000000E+00;  8.4344745E-03;  1.0000000E+04;  0.0000000E+00;  9.9580049E+03;  1.6496882E+00;  0.0000000E+00;  1.9070752E-01;  1.9698541E+04;
  9.0062290E-01;  9.9999998E-03;  2.8065893E-01;2453;  1.8395722E-01;  0.0000000E+00;  1.0775900E-01;  1.0139253E+03;  4.0838221E-01;  1.1518745E+04;3;  4.8706898E+01;  0.0000000E+00; -8.7599411E+00;0;  1.7489053E+00;  9.9046826E+03;  0.0000000E+00;  9.2429584E-03;  1.0000000E+04;  0.0000000E+00;  9.9576338E+03;  1.6367326E+00;  0.0000000E+00;  1.1217276E-01;  1.9971965E+04;
  9.0055817E-01;  9.9999998E-03;  3.0067667E-01;2454;  1.5793861E-01;  0.0000000E+00;  1.0609638E-01;  1.0140831E+03;  4.0838239E-01;  1.1649221E+04;3;  5.1022739E+01;  0.0000000E+00;  1.2723466E+01;0;  1.6481414E+00;  9.9046123E+03;  0.0000000E+00;  5.9676366E-03;  1.0000000E+04;  0.0000000E+00;  9.9607461E+03;  1.6197209E+00;  0.0000000E+00;  2.8420495E-02;  1.8505830E+04;
  9.2074537E-01;  9.9999998E-03;  1.6039783E-01;2478;  2.6126477E-01;  0.0000000E+00;  7.8762852E-02;  1.0139990E+03;  4.0772974E-01;  1.1573296E+04;3;  5.4055508E+01;  0.0000000E+00; -1.1019032E+01;0;  1.6309594E+00;  9.9395771E+03;  0.0000000E+00; -6.9607755E-05;  1.0000000E+04;  0.0000000E+00;  9.9559893E+03;  1.1980923E+00;  0.0000000E+00;  4.3286702E-01;  2.0376488E+04;
  9.2077219E-01;  9.9999998E-03;  1.8043552E-01;2479;  2.6644322E-01;  0.0000000E+00;  8.7958530E-02;  1.0138779E+03;  4.0773004E-01;  1.1473255E+04;3;  5.3662537E+01;  0.0000000E+00; -9.1612463E+00;0;  1.6428049E+00;  9.9360459E+03;  0.0000000E+00;  4.3435146E-05;  1.0000000E+04;  0.0000000E+00;  9.9571426E+03;  1.2463362E+00;  0.0000000E+00;  3.9646867E-01;  1.9845135E+04;
  9.2079937E-01;  9.9999998E-03;  2.0047770E-01;2480;  2.7173844E-01;  0.0000000E+00;  9.8011710E-02;  1.0137368E+03;  4.0773043E-01;  1.1356559E+04;3;  5.3824211E+01;  0.0000000E+00; -7.6165051E+00;0;  1.6431473E+00;  9.9322393E+03;  0.0000000E+00;  8.3513663E-04;  1.0000000E+04;  0.0000000E+00;  9.9581816E+03;  1.2952132E+00;  0.0000000E+00;  3.4793413E-01;  1.9383051E+04;
  9.2081201E-01;  9.9999998E-03;  2.2052537E-01;2481;  2.7112347E-01;  0.0000000E+00;  1.0552616E-01;  1.0135876E+03;  4.0773106E-01;  1.1233166E+04;3;  5.3361298E+01;  0.0000000E+00; -9.0600615E+00;0;  1.6358320E+00;  9.9284814E+03;  0.0000000E+00;  3.0159019E-03;  1.0000000E+04;  0.0000000E+00;  9.9589844E+03;  1.3398807E+00;  0.0000000E+00;  2.9595125E-01;  1.9037537E+04;
  9.2079628E-01;  9.9999998E-03;  2.4056813E-01;2482;  2.6019517E-01;  0.0000000E+00;  1.0800879E-01;  1.0134338E+03;  4.0773186E-01;  1.1106038E+04;3;  5.3364563E+01;  0.0000000E+00; -1.0422490E+01;0;  1.6194541E+00;  9.9251494E+03;  0.0000000E+00;  6.5775658E-03;  1.0000000E+04;  0.0000000E+00;  9.9592646E+03;  1.3757149E+00;  0.0000000E+00;  2.4373931E-01;  1.8947939E+04;
  9.2076319E-01;  9.9999998E-03;  2.6059404E-01;2483;  2.4173474E-01;  0.0000000E+00;  1.0796618E-01;  1.0133469E+03;  4.0773270E-01;  1.1034204E+04;3;  5.5128674E+01;  0.0000000E+00; -7.9457603E+00;0;  1.5895033E+00;  9.9224932E+03;  0.0000000E+00;  1.0203279E-02;  1.0000000E+04;  0.0000000E+00;  9.9601563E+03;  1.4000926E+00;  0.0000000E+00;  1.8941066E-01;  1.8571154E+04;
  9.2071575E-01;  9.9999998E-03;  2.8062436E-01;2484;  2.1575907E-01;  0.0000000E+00;  1.0564435E-01;  1.0132274E+03;  4.0773341E-01;  1.0935470E+04;3;  5.9144974E+01;  0.0000000E+00; -5.8484397E+00;0;  1.5387789E+00;  9.9205918E+03;  0.0000000E+00;  1.1853139E-02;  1.0000000E+04;  0.0000000E+00;  9.9596426E+03;  1.4138268E+00;  0.0000000E+00;  1.2495213E-01;  1.8883873E+04;
  9.2064679E-01;  9.9999998E-03;  3.0064300E-01;2485;  1.8790866E-01;  0.0000000E+00;  1.0368566E-01;  1.0133005E+03;  4.0773380E-01;  1.0995907E+04;3;  6.2236225E+01;  0.0000000E+00;  1.2530496E+01;0;  1.4657815E+00;  9.9193320E+03;  0.0000000E+00;  8.5547650E-03;  1.0000000E+04;  0.0000000E+00;  9.9622734E+03;  1.4199517E+00;  0.0000000E+00;  4.5829792E-02;  1.7653939E+04;
  9.4077033E-01;  9.9999998E-03;  1.6036968E-01;2509;  2.7764109E-01;  0.0000000E+00;  7.4755989E-02;  1.0134954E+03;  4.0702969E-01;  1.1148748E+04;3;  6.3012661E+01;  0.0000000E+00; -9.2415018E+00;0;  1.2475020E+00;  9.9614658E+03;  0.0000000E+00; -6.4676598E-05;  1.0000000E+04;  0.0000000E+00;  9.9584365E+03;  8.2818496E-01;  0.0000000E+00;  4.1931701E-01;  1.9105379E+04;
  9.4080091E-01;  9.9999998E-03;  1.8040593E-01;2510;  2.8418216E-01;  0.0000000E+00;  8.3835438E-02;  1.0133682E+03;  4.0702990E-01;  1.1043556E+04;3;  6.2749130E+01;  0.0000000E+00; -7.4543800E+00;0;  1.2675188E+00;  9.9578652E+03;  0.0000000E+00; -3.8109094E-05;  1.0000000E+04;  0.0000000E+00;  9.9595313E+03;  8.8325840E-01;  0.0000000E+00;  3.8426036E-01;  1.8603932E+04;
  9.4083542E-01;  9.9999998E-03;  2.0044544E-01;2511;  2.9164234E-01;  0.0000000E+00;  9.3572743E-02;  1.0132028E+03;  4.0703022E-01;  1.0906949E+04;3;  6.2992565E+01;  0.0000000E+00; -5.7910633E+00;0;  1.2830113E+00;  9.9536182E+03;  0.0000000E+00;  5.9354171E-04;  1.0000000E+04;  0.0000000E+00;  9.9605273E+03;  9.4543582E-01;  0.0000000E+00;  3.3757553E-01;  1.8159973E+04;
  9.4086593E-01;  9.9999998E-03;  2.2048773E-01;2512;  2.9604465E-01;  0.0000000E+00;  1.0009633E-01;  1.0130104E+03;  4.0703058E-01;  1.0747987E+04;3;  6.2332508E+01;  0.0000000E+00; -7.2637968E+00;0;  1.2974979E+00;  9.9489902E+03;  0.0000000E+00;  2.6690685E-03;  1.0000000E+04;  0.0000000E+00;  9.9613799E+03;  1.0107176E+00;  0.0000000E+00;  2.8678021E-01;  1.7788934E+04;
  9.4086611E-01;  9.9999998E-03;  2.4052522E-01;2513;  2.8800946E-01;  0.0000000E+00;  1.0196904E-01;  1.0128115E+03;  4.0703106E-01;  1.0583724E+04;3;  6.1670570E+01;  0.0000000E+00; -8.1076994E+00;0;  1.3060132E+00;  9.9444004E+03;  0.0000000E+00;  6.3007558E-03;  1.0000000E+04;  0.0000000E+00;  9.9620234E+03;  1.0732477E+00;  0.0000000E+00;  2.3276559E-01;  1.7521322E+04;
  9.4083375E-01;  9.9999998E-03;  2.6055479E-01;2514;  2.6794803E-01;  0.0000000E+00;  1.0400242E-01;  1.0126411E+03;  4.0703204E-01;  1.0442911E+04;3;  6.3076958E+01;  0.0000000E+00; -4.9383378E+00;0;  1.3151363E+00;  9.9403125E+03;  0.0000000E+00;  1.0543693E-02;  1.0000000E+04;  0.0000000E+00;  9.9626934E+03;  1.1270269E+00;  0.0000000E+00;  1.8810938E-01;  1.7231031E+04;
  9.4078332E-01;  9.9999998E-03;  2.8058633E-01;2515;  2.4048132E-01;  0.0000000E+00;  1.0367848E-01;  1.0124343E+03;  4.0703270E-01;  1.0272169E+04;3;  6.8128151E+01;  0.0000000E+00; -2.5614533E+00;0;  1.3171335E+00;  9.9369902E+03;  0.0000000E+00;  1.3280876E-02;  1.0000000E+04;  0.0000000E+00;  9.9618730E+03;  1.1690837E+00;  0.0000000E+00;  1.4804985E-01;  1.7648398E+04;
  9.4071287E-01;  9.9999998E-03;  3.0060613E-01;2516;  2.1263728E-01;  0.0000000E+00;  1.0138945E-01;  1.0124095E+03;  4.0703338E-01;  1.0251716E+04;3;  7.2964134E+01;  0.0000000E+00;  1.2850307E+01;0;  1.2714258E+00;  9.9344521E+03;  0.0000000E+00;  9.4077876E-03;  1.0000000E+04;  0.0000000E+00;  9.9638389E+03;  1.2001171E+00;  0.0000000E+00;  7.1308710E-02;  1.6746338E+04;
  9.6077275E-01;  9.9999998E-03;  1.6034119E-01;2540;  2.8277141E-01;  0.0000000E+00;  7.0927888E-02;  1.0127860E+03;  4.0630877E-01;  1.0552175E+04;3;  6.7595764E+01;  0.0000000E+00; -7.2352796E+00;0;  9.0215641E-01;  9.9801836E+03;  0.0000000E+00;  9.3230284E-07;  1.0000000E+04;  0.0000000E+00;  9.9610918E+03;  4.9929971E-01;  0.0000000E+00;  4.0285671E-01;  1.7694193E+04;
  9.6080458E-01;  9.9999998E-03;  1.8037596E-01;2541;  2.9003578E-01;  0.0000000E+00;  7.9963088E-02;  1.0126635E+03;  4.0630901E-01;  1.0451020E+04;3;  6.7748810E+01;  0.0000000E+00; -5.4607301E+00;0;  9.2573369E-01;  9.9767100E+03;  0.0000000E+00; -3.2618562E-05;  1.0000000E+04;  0.0000000E+00;  9.9621494E+03;  5.5638832E-01;  0.0000000E+00;  3.6934537E-01;  1.7214623E+04;
  9.6084076E-01;  9.9999998E-03;  2.0041253E-01;2542;  2.9843166E-01;  0.0000000E+00;  8.9419208E-02;  1.0124876E+03;  4.0630919E-01;  1.0305885E+04;3;  6.8504913E+01;  0.0000000E+00; -3.6151755E+00;0;  9.5145011E-01;  9.9722822E+03;  0.0000000E+00;  3.5194797E-04;  1.0000000E+04;  0.0000000E+00;  9.9631211E+03;  6.2631536E-01;  0.0000000E+00;  3.2513472E-01;  1.6785738E+04;
  9.6087760E-01;  9.9999998E-03;  2.2045393E-01;2543;  3.0586639E-01;  0.0000000E+00;  9.6976124E-02;  1.0122624E+03;  4.0630943E-01;  1.0119921E+04;3;  6.9326660E+01;  0.0000000E+00; -4.0085139E+00;0;  9.8550159E-01;  9.9670898E+03;  0.0000000E+00;  2.3204766E-03;  1.0000000E+04;  0.0000000E+00;  9.9638770E+03;  7.0632839E-01;  0.0000000E+00;  2.7917320E-01;  1.6451887E+04;
  9.6090037E-01;  9.9999998E-03;  2.4048559E-01;2544;  3.0542096E-01;  0.0000000E+00;  9.7371437E-02;  1.0120225E+03;  4.0630978E-01;  9.9219648E+03;3;  6.9335258E+01;  0.0000000E+00; -5.6052446E+00;0;  1.0166401E+00;  9.9615547E+03;  0.0000000E+00;  8.1698177E-03;  1.0000000E+04;  0.0000000E+00;  9.9646719E+03;  7.9015899E-01;  0.0000000E+00;  2.2648105E-01;  1.6108860E+04;
  9.6088254E-01;  9.9999998E-03;  2.6051310E-01;2545;  2.8836000E-01;  0.0000000E+00;  9.9639997E-02;  1.0117980E+03;  4.0631050E-01;  9.7367217E+03;3;  7.0599632E+01;  0.0000000E+00; -1.8752633E+00;0;  1.0555673E+00;  9.9562275E+03;  0.0000000E+00;  1.6789161E-02;  1.0000000E+04;  0.0000000E+00;  9.9655254E+03;  8.6984122E-01;  0.0000000E+00;  1.8572599E-01;  1.5720920E+04;
  9.6083230E-01;  9.9999998E-03;  2.8054586E-01;2546;  2.6054358E-01;  0.0000000E+00;  1.0126068E-01;  1.0115063E+03;  4.0631118E-01;  9.4960107E+03;3;  7.6647789E+01;  0.0000000E+00;  4.9882594E-01;0;  1.1099170E+00;  9.9515752E+03;  0.0000000E+00;  2.1641612E-02;  1.0000000E+04;  0.0000000E+00;  9.9643467E+03;  9.3844503E-01;  0.0000000E+00;  1.7147201E-01;  1.6258328E+04;
  9.6076268E-01;  9.9999998E-03;  3.0056646E-01;2547;  2.3334385E-01;  0.0000000E+00;  9.8721616E-02;  1.0113868E+03;  4.0631199E-01;  9.3973711E+03;3;  8.3281372E+01;  0.0000000E+00;  1.3235275E+01;0;  1.0901928E+00;  9.9477891E+03;  0.0000000E+00;  8.2151694E-03;  1.0000000E+04;  0.0000000E+00;  9.9656885E+03;  9.9340564E-01;  0.0000000E+00;  9.6787103E-02;  1.5662174E+04;
  9.8076659E-01;  9.9999998E-03;  1.6031432E-01;2571;  2.8340730E-01;  0.0000000E+00;  6.7731909E-02;  1.0118592E+03;  4.0559489E-01;  9.7741553E+03;3;  6.9314041E+01;  0.0000000E+00; -5.0981760E+00;0;  6.2650979E-01;  9.9942236E+03;  0.0000000E+00;  5.9283731E-05;  1.0000000E+04;  0.0000000E+00;  9.9638799E+03;  2.4307226E-01;  0.0000000E+00;  3.8343751E-01;  1.6175672E+04;
  9.8079932E-01;  9.9999998E-03;  1.8034714E-01;2572;  2.9106790E-01;  0.0000000E+00;  7.6483063E-02;  1.0117465E+03;  4.0559494E-01;  9.6811855E+03;3;  6.9648933E+01;  0.0000000E+00; -3.3265998E+00;0;  6.4980924E-01;  9.9909453E+03;  0.0000000E+00;  1.0063964E-05;  1.0000000E+04;  0.0000000E+00;  9.9649238E+03;  2.9858974E-01;  0.0000000E+00;  3.5121951E-01;  1.5710090E+04;
  9.8083669E-01;  9.9999998E-03;  2.0038007E-01;2573;  2.9991877E-01;  0.0000000E+00;  8.5198633E-02;  1.0115697E+03;  4.0559492E-01;  9.5355518E+03;3;  7.0610832E+01;  0.0000000E+00; -1.4169234E+00;0;  6.8036091E-01;  9.9865244E+03;  0.0000000E+00;  5.6911854E-04;  1.0000000E+04;  0.0000000E+00;  9.9658672E+03;  3.7082586E-01;  0.0000000E+00;  3.0953506E-01;  1.5293827E+04;
  9.8087656E-01;  9.9999998E-03;  2.2041918E-01;2574;  3.0892271E-01;  0.0000000E+00;  9.3324587E-02;  1.0113279E+03;  4.0559524E-01;  9.3361729E+03;3;  7.2876053E+01;  0.0000000E+00; -4.5576909E-01;0;  7.2661000E-01;  9.9810654E+03;  0.0000000E+00;  6.5275896E-03;  1.0000000E+04;  0.0000000E+00;  9.9665508E+03;  4.5835328E-01;  0.0000000E+00;  2.6825672E-01;  1.4991496E+04;
  9.8090875E-01;  9.9999998E-03;  2.4044932E-01;2575;  3.1353936E-01;  0.0000000E+00;  9.4687916E-02;  1.0110499E+03;  4.0559542E-01;  9.1071309E+03;3;  7.5507828E+01;  0.0000000E+00; -2.0625713E+00;0;  7.8082466E-01;  9.9749609E+03;  0.0000000E+00;  2.3817679E-02;  1.0000000E+04;  0.0000000E+00;  9.9671699E+03;  5.5567420E-01;  0.0000000E+00;  2.2515048E-01;  1.4718404E+04;
  9.8091394E-01;  9.9999998E-03;  2.6047122E-01;2576;  3.0436328E-01;  0.0000000E+00;  9.4919167E-02;  1.0107997E+03;  4.0559590E-01;  8.9009014E+03;3;  7.7894119E+01;  0.0000000E+00;  4.4227129E-01;0;  8.3503604E-01;  9.9687412E+03;  0.0000000E+00;  4.4911638E-02;  1.0000000E+04;  0.0000000E+00;  9.9684219E+03;  6.5402508E-01;  0.0000000E+00;  1.8101093E-01;  1.4152115E+04;
  9.8087245E-01;  9.9999998E-03;  2.8050345E-01;2577;  2.7863878E-01;  0.0000000E+00;  9.7687073E-02;  1.0104523E+03;  4.0559646E-01;  8.6146299E+03;3;  8.5038467E+01;  0.0000000E+00;  2.9741583E+00;0;  9.2497754E-01;  9.9630205E+03;  0.0000000E+00;  5.2524455E-02;  1.0000000E+04;  0.0000000E+00;  9.9672031E+03;  7.4309766E-01;  0.0000000E+00;  1.8187988E-01;  1.4670043E+04;
  9.8080701E-01;  9.9999998E-03;  3.0052426E-01;2578;  2.5254002E-01;  0.0000000E+00;  9.4939388E-02;  1.0102600E+03;  4.0559736E-01;  8.4560986E+03;3;  9.3472275E+01;  0.0000000E+00;  1.3955009E+01;0;  9.2486608E-01;  9.9582100E+03;  0.0000000E+00;  5.0131790E-03;  1.0000000E+04;  0.0000000E+00;  9.9681250E+03;  8.1711876E-01;  0.0000000E+00;  1.0774735E-01;  1.4273101E+04;
  1.0007564E+00;  9.9999998E-03;  1.6028963E-01;2602;  2.8230140E-01;  0.0000000E+00;  6.4706430E-02;  1.0107696E+03;  4.0491113E-01;  8.8601953E+03;3;  7.0171196E+01;  0.0000000E+00; -3.2393005E+00;0;  4.2618468E-01;  1.0003538E+04;  0.0000000E+00;  3.3610766E-05;  1.0000000E+04;  0.0000000E+00;  9.9667305E+03;  6.5453909E-02;  0.0000000E+00;  3.6073077E-01;  1.4583014E+04;
  1.0007900E+00;  9.9999998E-03;  1.8031952E-01;2603;  2.9027742E-01;  0.0000000E+00;  7.2769016E-02;  1.0106656E+03;  4.0491107E-01;  8.7745469E+03;3;  7.0467819E+01;  0.0000000E+00; -1.5346208E+00;0;  4.4676474E-01;  1.0000444E+04;  0.0000000E+00; -2.3516743E-04;  1.0000000E+04;  0.0000000E+00;  9.9677666E+03;  1.1742438E-01;  0.0000000E+00;  3.2934037E-01;  1.4130248E+04;
  1.0008283E+00;  9.9999998E-03;  2.0034975E-01;2604;  2.9956442E-01;  0.0000000E+00;  8.0987595E-02;  1.0104931E+03;  4.0491107E-01;  8.6326982E+03;3;  7.1702454E+01;  0.0000000E+00;  2.2246000E-01;0;  4.7778407E-01;  9.9961406E+03;  0.0000000E+00;  2.8862408E-04;  1.0000000E+04;  0.0000000E+00;  9.9686572E+03;  1.8737215E-01;  0.0000000E+00;  2.9041192E-01;  1.3742399E+04;
  1.0008701E+00;  9.9999998E-03;  2.2038336E-01;2605;  3.0934006E-01;  0.0000000E+00;  8.8290915E-02;  1.0102498E+03;  4.0491122E-01;  8.4324932E+03;3;  7.4462112E+01;  0.0000000E+00;  1.7428257E+00;0;  5.2806562E-01;  9.9907178E+03;  0.0000000E+00;  1.3657523E-02;  1.0000000E+04;  0.0000000E+00;  9.9692822E+03;  2.7508321E-01;  0.0000000E+00;  2.5298241E-01;  1.3464864E+04;
  1.0009086E+00;  9.9999998E-03;  2.4041210E-01;2606;  3.1671578E-01;  0.0000000E+00;  9.0709299E-02;  1.0099551E+03;  4.0491131E-01;  8.1899268E+03;3;  7.9135651E+01;  0.0000000E+00;  1.8542312E+00;0;  5.9489840E-01;  9.9844297E+03;  0.0000000E+00;  5.2704543E-02;  1.0000000E+04;  0.0000000E+00;  9.9697402E+03;  3.7696478E-01;  0.0000000E+00;  2.1793361E-01;  1.3256773E+04;
  1.0009298E+00;  9.9999998E-03;  2.6042986E-01;2607;  3.1574699E-01;  0.0000000E+00;  9.0003967E-02;  1.0096923E+03;  4.0491152E-01;  7.9737573E+03;3;  8.5641785E+01;  0.0000000E+00;  3.0675294E+00;0;  6.5992182E-01;  9.9777129E+03;  0.0000000E+00;  9.5512636E-02;  1.0000000E+04;  0.0000000E+00;  9.9712520E+03;  4.8540998E-01;  0.0000000E+00;  1.7451185E-01;  1.2583868E+04;
  1.0009084E+00;  9.9999998E-03;  2.8045964E-01;2608;  2.9540965E-01;  0.0000000E+00;  9.2617638E-02;  1.0093329E+03;  4.0491208E-01;  7.6780874E+03;3;  9.3414032E+01;  0.0000000E+00;  4.8175216E+00;0;  7.6341867E-01;  9.9712900E+03;  0.0000000E+00;  1.0244571E-01;  1.0000000E+04;  0.0000000E+00;  9.9705176E+03;  5.8626932E-01;  0.0000000E+00;  1.7714933E-01;  1.2862072E+04;
  1.0008546E+00;  9.9999998E-03;  3.0048054E-01;2609;  2.7208635E-01;  0.0000000E+00;  8.9876242E-02;  1.0090974E+03;  4.0491271E-01;  7.4843379E+03;3;  1.0378982E+02;  0.0000000E+00;  1.4673427E+01;0;  7.7513790E-01;  9.9658359E+03;  0.0000000E+00; -9.4578005E-03;  1.0000000E+04;  0.0000000E+00;  9.9712285E+03;  6.7109782E-01;  0.0000000E+00;  1.0404011E-01;  1.2554349E+04;
  1.0207437E+00;  9.9999998E-03;  1.6026612E-01;2633;  2.8009200E-01;  0.0000000E+00;  6.1638441E-02;  1.0096053E+03;  4.0427589E-01;  7.8832739E+03;3;  7.0591583E+01;  0.0000000E+00; -1.6583956E+00;0;  2.8876308E-01;  1.0009015E+04;  0.0000000E+00; -2.1973721E-04;  1.0000000E+04;  0.0000000E+00;  9.9695820E+03; -4.5755476E-02;  0.0000000E+00;  3.3451855E-01;  1.2953745E+04;
  1.0207783E+00;  9.9999998E-03;  1.8029405E-01;2634;  2.8852874E-01;  0.0000000E+00;  6.9462650E-02;  1.0095056E+03;  4.0427586E-01;  7.8014443E+03;3;  7.1128380E+01;  0.0000000E+00;  7.7586975E-03;0;  3.0567813E-01;  1.0006055E+04;  0.0000000E+00; -4.0046028E-03;  1.0000000E+04;  0.0000000E+00;  9.9705693E+03;  1.7390475E-03;  0.0000000E+00;  3.0393907E-01;  1.2532392E+04;
  1.0208182E+00;  9.9999998E-03;  2.0032194E-01;2635;  2.9831401E-01;  0.0000000E+00;  7.6973863E-02;  1.0093403E+03;  4.0427583E-01;  7.6657012E+03;3;  7.2325325E+01;  0.0000000E+00;  1.6952872E+00;0;  3.3412537E-01;  1.0002021E+04;  0.0000000E+00; -1.2272085E-02;  1.0000000E+04;  0.0000000E+00;  9.9713301E+03;  6.5507732E-02;  0.0000000E+00;  2.6861763E-01;  1.2208208E+04;
  1.0208620E+00;  9.9999998E-03;  2.2034980E-01;2636;  3.0865872E-01;  0.0000000E+00;  8.2909659E-02;  1.0091073E+03;  4.0427575E-01;  7.4744829E+03;3;  7.5443199E+01;  0.0000000E+00;  3.2292223E+00;0;  3.8266522E-01;  9.9969336E+03;  0.0000000E+00;  2.1205035E-04;  1.0000000E+04;  0.0000000E+00;  9.9718086E+03;  1.4665031E-01;  0.0000000E+00;  2.3601490E-01;  1.1994043E+04;
  1.0209059E+00;  9.9999998E-03;  2.4037468E-01;2637;  3.1760183E-01;  0.0000000E+00;  8.4954768E-02;  1.0088201E+03;  4.0427592E-01;  7.2387510E+03;3;  8.1554726E+01;  0.0000000E+00;  4.2081571E+00;0;  4.5002156E-01;  9.9908789E+03;  0.0000000E+00;  6.0143918E-02;  1.0000000E+04;  0.0000000E+00;  9.9721885E+03;  2.4430189E-01;  0.0000000E+00;  2.0571966E-01;  1.1819076E+04;
  1.0209383E+00;  9.9999998E-03;  2.6038936E-01;2638;  3.2187369E-01;  0.0000000E+00;  8.4265545E-02;  1.0085667E+03;  4.0427598E-01;  7.0306235E+03;3;  9.1346100E+01;  0.0000000E+00;  5.9465861E+00;0;  5.1887774E-01;  9.9840957E+03;  0.0000000E+00;  1.2861584E-01;  1.0000000E+04;  0.0000000E+00;  9.9739512E+03;  3.5395181E-01;  0.0000000E+00;  1.6492592E-01;  1.1055278E+04;
  1.0209441E+00;  9.9999998E-03;  2.8041592E-01;2639;  3.1246474E-01;  0.0000000E+00;  8.6284809E-02;  1.0082264E+03;  4.0427604E-01;  6.7513965E+03;3;  1.0222974E+02;  0.0000000E+00;  5.9854240E+00;0;  6.2072265E-01;  9.9772373E+03;  0.0000000E+00;  1.2253927E-01;  1.0000000E+04;  0.0000000E+00;  9.9740576E+03;  4.6035376E-01;  0.0000000E+00;  1.6036887E-01;  1.0958489E+04;
  1.0209123E+00;  9.9999998E-03;  3.0043647E-01;2640;  2.9319778E-01;  0.0000000E+00;  8.3770745E-02;  1.0079822E+03;  4.0427631E-01;  6.5510601E+03;3;  1.1494940E+02;  0.0000000E+00;  1.5756685E+01;0;  6.3388872E-01;  9.9714053E+03;  0.0000000E+00; -3.7139494E-02;  1.0000000E+04;  0.0000000E+00;  9.9750049E+03;  5.4719567E-01;  0.0000000E+00;  8.6693048E-02;  1.0542636E+04;
  1.0407284E+00;  9.9999998E-03;  1.6024382E-01;2664;  2.7709553E-01;  0.0000000E+00;  5.8693498E-02;  1.0084528E+03;  4.0370193E-01;  6.9150352E+03;3;  7.0684914E+01;  0.0000000E+00; -3.2335877E-01;0;  1.9529369E-01;  1.0011796E+04;  0.0000000E+00; -2.3536745E-03;  1.0000000E+04;  0.0000000E+00;  9.9723545E+03; -1.0979126E-01;  0.0000000E+00;  3.0508494E-01;  1.1334496E+04;
  1.0407649E+00;  9.9999998E-03;  1.8026984E-01;2665;  2.8609389E-01;  0.0000000E+00;  6.5704696E-02;  1.0083539E+03;  4.0370193E-01;  6.8341426E+03;3;  7.1416710E+01;  0.0000000E+00;  1.1301178E+00;0;  2.0863232E-01;  1.0008984E+04;  0.0000000E+00; -2.1822646E-02;  1.0000000E+04;  0.0000000E+00;  9.9732100E+03; -6.7434661E-02;  0.0000000E+00;  2.7606699E-01;  1.0982833E+04;
  1.0408067E+00;  9.9999998E-03;  2.0029370E-01;2666;  2.9656392E-01;  0.0000000E+00;  7.2005227E-02;  1.0082009E+03;  4.0370172E-01;  6.7088726E+03;3;  7.3044624E+01;  0.0000000E+00;  2.6796968E+00;0;  2.3238382E-01;  1.0005406E+04;  0.0000000E+00; -6.3769847E-02;  1.0000000E+04;  0.0000000E+00;  9.9737529E+03; -1.3084423E-02;  0.0000000E+00;  2.4546824E-01;  1.0760015E+04;
  1.0408540E+00;  9.9999998E-03;  2.2031820E-01;2667;  3.0770069E-01;  0.0000000E+00;  7.6934911E-02;  1.0079886E+03;  4.0370166E-01;  6.5352275E+03;3;  7.6488846E+01;  0.0000000E+00;  4.1276684E+00;0;  2.7505961E-01;  1.0000995E+04;  0.0000000E+00; -8.2064822E-02;  1.0000000E+04;  0.0000000E+00;  9.9739707E+03;  5.5868134E-02;  0.0000000E+00;  2.1919148E-01;  1.0659134E+04;
  1.0409027E+00;  9.9999998E-03;  2.4033928E-01;2668;  3.1757525E-01;  0.0000000E+00;  7.8376114E-02;  1.0077288E+03;  4.0370163E-01;  6.3225752E+03;3;  8.3349106E+01;  0.0000000E+00;  5.3465919E+00;0;  3.3521959E-01;  9.9956035E+03;  0.0000000E+00; -2.5157625E-02;  1.0000000E+04;  0.0000000E+00;  9.9742246E+03;  1.4159639E-01;  0.0000000E+00;  1.9362320E-01;  1.0526938E+04;
  1.0409460E+00;  9.9999998E-03;  2.6035240E-01;2669;  3.2518473E-01;  0.0000000E+00;  7.8352511E-02;  1.0074964E+03;  4.0370148E-01;  6.1323633E+03;3;  9.5322319E+01;  0.0000000E+00;  8.0296497E+00;0;  4.0317076E-01;  9.9891631E+03;  0.0000000E+00;  5.3929310E-02;  1.0000000E+04;  0.0000000E+00;  9.9760654E+03;  2.4414256E-01;  0.0000000E+00;  1.5902822E-01;  9.7377998E+03;
  1.0409832E+00;  9.9999998E-03;  2.8037429E-01;2670;  3.2894859E-01;  0.0000000E+00;  7.9246961E-02;  1.0071889E+03;  4.0370134E-01;  5.8808213E+03;3;  1.1133051E+02;  0.0000000E+00;  8.1593609E+00;0;  4.9458885E-01;  9.9817832E+03;  0.0000000E+00;  9.8885894E-03;  1.0000000E+04;  0.0000000E+00;  9.9773721E+03;  3.5768911E-01;  0.0000000E+00;  1.3689975E-01;  9.1481836E+03;
  1.0409889E+00;  9.9999998E-03;  3.0039299E-01;2671;  3.1743285E-01;  0.0000000E+00;  7.6252759E-02;  1.0069374E+03;  4.0370136E-01;  5.6750527E+03;3;  1.2669595E+02;  0.0000000E+00;  1.6619961E+01;0;  4.9728870E-01;  9.9748779E+03;  0.0000000E+00;  5.8754701E-03;  1.0000000E+04;  0.0000000E+00;  9.9792813E+03;  4.4769913E-01;  0.0000000E+00;  4.9589589E-02;  8.3576533E+03;
  1.0607117E+00;  9.9999998E-03;  1.6022217E-01;2695;  2.7354607E-01;  0.0000000E+00;  5.5251803E-02;  1.0073748E+03;  4.0319651E-01;  6.0072339E+03;3;  7.0798042E+01;  0.0000000E+00;  6.8941486E-01;0;  1.2937275E-01;  1.0012844E+04;  0.0000000E+00; -1.2237658E-02;  1.0000000E+04;  0.0000000E+00;  9.9749570E+03; -1.4420196E-01;  0.0000000E+00;  2.7357471E-01;  9.7812842E+03;
  1.0607504E+00;  9.9999998E-03;  1.8024538E-01;2696;  2.8325114E-01;  0.0000000E+00;  6.1314858E-02;  1.0072764E+03;  4.0319645E-01;  5.9270669E+03;3;  7.1581230E+01;  0.0000000E+00;  1.9240950E+00;0;  1.3968569E-01;  1.0010287E+04;  0.0000000E+00; -7.3395789E-02;  1.0000000E+04;  0.0000000E+00;  9.9755596E+03; -1.0792258E-01;  0.0000000E+00;  2.4760826E-01;  9.5461982E+03;
  1.0607951E+00;  9.9999998E-03;  2.0026612E-01;2697;  2.9450053E-01;  0.0000000E+00;  6.6557035E-02;  1.0071422E+03;  4.0319636E-01;  5.8176641E+03;3;  7.3762146E+01;  0.0000000E+00;  3.3732719E+00;0;  1.5785815E-01;  1.0007399E+04;  0.0000000E+00; -1.9065155E-01;  1.0000000E+04;  0.0000000E+00;  9.9757900E+03; -6.5511033E-02;  0.0000000E+00;  2.2336918E-01;  9.4808232E+03;
  1.0608470E+00;  9.9999998E-03;  2.2028807E-01;2698;  3.0655426E-01;  0.0000000E+00;  7.0433334E-02;  1.0069629E+03;  4.0319616E-01;  5.6715503E+03;3;  7.7986000E+01;  0.0000000E+00;  4.6583176E+00;0;  1.9206713E-01;  1.0003970E+04;  0.0000000E+00; -2.8735796E-01;  1.0000000E+04;  0.0000000E+00;  9.9756797E+03; -1.2535395E-02;  0.0000000E+00;  2.0460252E-01;  9.5538379E+03;
  1.0609007E+00;  9.9999998E-03;  2.4030735E-01;2699;  3.1723920E-01;  0.0000000E+00;  7.1448073E-02;  1.0067410E+03;  4.0319598E-01;  5.4907729E+03;3;  8.5717049E+01;  0.0000000E+00;  5.9264059E+00;0;  2.4073991E-01;  9.9995928E+03;  0.0000000E+00; -2.7938637E-01;  1.0000000E+04;  0.0000000E+00;  9.9756738E+03;  5.6071740E-02;  0.0000000E+00;  1.8466817E-01;  9.5273203E+03;
  1.0609571E+00;  9.9999998E-03;  2.6032016E-01;2700;  3.2777363E-01;  0.0000000E+00;  7.1607798E-02;  1.0065266E+03;  4.0319571E-01;  5.3160166E+03;3;  9.9422829E+01;  0.0000000E+00;  8.7154369E+00;0;  3.0085972E-01;  9.9936650E+03;  0.0000000E+00; -2.4269138E-01;  1.0000000E+04;  0.0000000E+00;  9.9773623E+03;  1.4692083E-01;  0.0000000E+00;  1.5393889E-01;  8.8118096E+03;
  1.0610151E+00;  9.9999998E-03;  2.8033903E-01;2701;  3.3710235E-01;  0.0000000E+00;  7.3441029E-02;  1.0062165E+03;  4.0319553E-01;  5.0633916E+03;3;  1.1809256E+02;  0.0000000E+00;  1.1498108E+01;0;  3.9952993E-01;  9.9855605E+03;  0.0000000E+00; -2.7624744E-01;  1.0000000E+04;  0.0000000E+00;  9.9793486E+03;  2.6355585E-01;  0.0000000E+00;  1.3597408E-01;  7.9872007E+03;
  1.0610628E+00;  9.9999998E-03;  3.0035540E-01;2702;  3.4031612E-01;  0.0000000E+00;  7.2552294E-02;  1.0058609E+03;  4.0319544E-01;  4.7736963E+03;3;  1.4024323E+02;  0.0000000E+00;  1.7480255E+01;0;  4.6168971E-01;  9.9756143E+03;  0.0000000E+00;  3.7860772E-01;  1.0000000E+04;  0.0000000E+00;  9.9822842E+03;  3.8653371E-01;  0.0000000E+00;  7.5156003E-02;  6.8892725E+03;
  1.0806946E+00;  9.9999998E-03;  1.6020107E-01;2726;  2.6961794E-01;  0.0000000E+00;  5.1436700E-02;  1.0064023E+03;  4.0276265E-01;  5.1854277E+03;3;  7.0693512E+01;  0.0000000E+00;  1.4713082E+00;0;  8.1068486E-02;  1.0012755E+04;  0.0000000E+00; -4.6880644E-02;  1.0000000E+04;  0.0000000E+00;  9.9772559E+03; -1.6104169E-01;  0.0000000E+00;  2.4211018E-01;  8.3561348E+03;
  1.0807352E+00;  9.9999998E-03;  1.8021992E-01;2727;  2.8007174E-01;  0.0000000E+00;  5.6108847E-02;  1.0063104E+03;  4.0276250E-01;  5.1109194E+03;3;  7.2055214E+01;  0.0000000E+00;  2.5722942E+00;0;  8.8489950E-02;  1.0010656E+04;  0.0000000E+00; -1.8996756E-01;  1.0000000E+04;  0.0000000E+00;  9.9775264E+03; -1.3230346E-01;  0.0000000E+00;  2.2079341E-01;  8.2852363E+03;
  1.0807844E+00;  9.9999998E-03;  2.0023897E-01;2728;  2.9235005E-01;  0.0000000E+00;  6.0303491E-02;  1.0062038E+03;  4.0276235E-01;  5.0244268E+03;3;  7.4791374E+01;  0.0000000E+00;  3.7379177E+00;0;  1.0056052E-01;  1.0008676E+04;  0.0000000E+00; -4.2928892E-01;  1.0000000E+04;  0.0000000E+00;  9.9774063E+03; -1.0327609E-01;  0.0000000E+00;  2.0383660E-01;  8.4682637E+03;
  1.0808412E+00;  9.9999998E-03;  2.2026002E-01;2729;  3.0524686E-01;  0.0000000E+00;  6.3515611E-02;  1.0060655E+03;  4.0276200E-01;  4.9123398E+03;3;  8.0126785E+01;  0.0000000E+00;  4.7437925E+00;0;  1.2562022E-01;  1.0006421E+04;  0.0000000E+00; -6.4997190E-01;  1.0000000E+04;  0.0000000E+00;  9.9769346E+03; -6.7542210E-02;  0.0000000E+00;  1.9316243E-01;  8.8469746E+03;
  1.0808996E+00;  9.9999998E-03;  2.4027669E-01;2730;  3.1641939E-01;  0.0000000E+00;  6.3769557E-02;  1.0058990E+03;  4.0276188E-01;  4.7773745E+03;3;  8.9095230E+01;  0.0000000E+00;  6.1170425E+00;0;  1.5763690E-01;  1.0003199E+04;  0.0000000E+00; -7.2942358E-01;  1.0000000E+04;  0.0000000E+00;  9.9768711E+03; -1.7689398E-02;  0.0000000E+00;  1.7532629E-01;  8.9517129E+03;
  1.0809652E+00;  9.9999998E-03;  2.6028976E-01;2731;  3.2812715E-01;  0.0000000E+00;  6.4153716E-02;  1.0057075E+03;  4.0276149E-01;  4.6222246E+03;3;  1.0418205E+02;  0.0000000E+00;  8.9901266E+00;0;  2.0412603E-01;  9.9977148E+03;  0.0000000E+00; -7.4860716E-01;  1.0000000E+04;  0.0000000E+00;  9.9785762E+03;  5.9419949E-02;  0.0000000E+00;  1.4470609E-01;  8.3517217E+03;
  1.0810349E+00;  9.9999998E-03;  2.8030813E-01;2732;  3.4053057E-01;  0.0000000E+00;  6.6502012E-02;  1.0053557E+03;  4.0276152E-01;  4.3372305E+03;3;  1.2575410E+02;  0.0000000E+00;  1.2802032E+01;0;  3.0563438E-01;  9.9886025E+03;  0.0000000E+00; -5.7087547E-01;  1.0000000E+04;  0.0000000E+00;  9.9807275E+03;  1.7936242E-01;  0.0000000E+00;  1.2627195E-01;  7.2706953E+03;
  1.0810958E+00;  9.9999998E-03;  3.0032235E-01;2733;  3.4702805E-01;  0.0000000E+00;  6.7061953E-02;  1.0048958E+03;  4.0276128E-01;  3.9647014E+03;3;  1.5010660E+02;  0.0000000E+00;  1.8614035E+01;0;  3.9770845E-01;  9.9757979E+03;  0.0000000E+00;  1.3116429E+00;  1.0000000E+04;  0.0000000E+00;  9.9844463E+03;  3.1807163E-01;  0.0000000E+00;  7.9636805E-02;  7.6040542E+03;
  1.1006774E+00;  9.9999998E-03;  1.6017808E-01;2756;  2.6551199E-01;  0.0000000E+00;  4.6714682E-02;  1.0055452E+03;  4.0239859E-01;  4.4574219E+03;3;  7.0711708E+01;  0.0000000E+00;  2.1648631E+00;0;  4.5946345E-02;  1.0011897E+04;  0.0000000E+00; -1.3923666E-01;  1.0000000E+04;  0.0000000E+00;  9.9791494E+03; -1.6731729E-01;  0.0000000E+00;  2.1326363E-01;  7.1150981E+03;
  1.1007218E+00;  9.9999998E-03;  1.8019488E-01;2757;  2.7694160E-01;  0.0000000E+00;  5.0296810E-02;  1.0054694E+03;  4.0239832E-01;  4.3962979E+03;3;  7.2522194E+01;  0.0000000E+00;  2.9144866E+00;0;  4.9864218E-02;  1.0010483E+04;  0.0000000E+00; -4.1108906E-01;  1.0000000E+04;  0.0000000E+00;  9.9790664E+03; -1.4771977E-01;  0.0000000E+00;  1.9758399E-01;  7.2824634E+03;
  1.1007758E+00;  9.9999998E-03;  2.0021315E-01;2758;  2.9026303E-01;  0.0000000E+00;  5.3611975E-02;  1.0053992E+03;  4.0239820E-01;  4.3398535E+03;3;  7.6301804E+01;  0.0000000E+00;  3.8084917E+00;0;  5.5769295E-02;  1.0009531E+04;  0.0000000E+00; -8.0546993E-01;  1.0000000E+04;  0.0000000E+00;  9.9786348E+03; -1.3192995E-01;  0.0000000E+00;  1.8769924E-01;  7.8586572E+03;
  1.1008365E+00;  9.9999998E-03;  2.2023205E-01;2759;  3.0349886E-01;  0.0000000E+00;  5.5549935E-02;  1.0053112E+03;  4.0239802E-01;  4.2690264E+03;3;  8.2916168E+01;  0.0000000E+00;  4.7525101E+00;0;  6.8999961E-02;  1.0008408E+04;  0.0000000E+00; -1.1619068E+00;  1.0000000E+04;  0.0000000E+00;  9.9780322E+03; -1.1183429E-01;  0.0000000E+00;  1.8083425E-01;  8.6276973E+03;
  1.1008991E+00;  9.9999998E-03;  2.4024630E-01;2760;  3.1473684E-01;  0.0000000E+00;  5.5116627E-02;  1.0052093E+03;  4.0239775E-01;  4.1869893E+03;3;  9.3863991E+01;  0.0000000E+00;  6.3559809E+00;0;  7.9274759E-02;  1.0006098E+04;  0.0000000E+00; -1.3126075E+00;  1.0000000E+04;  0.0000000E+00;  9.9783418E+03; -7.8457758E-02;  0.0000000E+00;  1.5773252E-01;  8.8296123E+03;
  1.1009672E+00;  9.9999998E-03;  2.6025975E-01;2761;  3.2653189E-01;  0.0000000E+00;  5.6430224E-02;  1.0050515E+03;  4.0239742E-01;  4.0600115E+03;3;  1.1077680E+02;  0.0000000E+00;  9.7769318E+00;0;  1.1458859E-01;  1.0000842E+04;  0.0000000E+00; -1.2504950E+00;  1.0000000E+04;  0.0000000E+00;  9.9804766E+03; -1.2683156E-02;  0.0000000E+00;  1.2727174E-01;  8.0621606E+03;
  1.1010406E+00;  9.9999998E-03;  2.8027973E-01;2762;  3.3992541E-01;  0.0000000E+00;  5.9765343E-02;  1.0046306E+03;  4.0239745E-01;  3.7215820E+03;3;  1.3435367E+02;  0.0000000E+00;  1.4096256E+01;0;  2.2628443E-01;  9.9905879E+03;  0.0000000E+00; -4.6186724E-01;  1.0000000E+04;  0.0000000E+00;  9.9823955E+03;  1.1147167E-01;  0.0000000E+00;  1.1481276E-01;  6.0354453E+03;
  1.1206628E+00;  9.9999998E-03;  1.6015519E-01;2785;  2.6169091E-01;  0.0000000E+00;  4.1165069E-02;  1.0048071E+03;  4.0210015E-01;  3.8259402E+03;3;  7.0793144E+01;  0.0000000E+00;  2.4487228E+00;0;  2.1087900E-02;  1.0010617E+04;  0.0000000E+00; -3.4616435E-01;  1.0000000E+04;  0.0000000E+00;  9.9805762E+03; -1.6822672E-01;  0.0000000E+00;  1.8931462E-01;  6.1316802E+03;
  1.1207113E+00;  9.9999998E-03;  1.8017091E-01;2786;  2.7425310E-01;  0.0000000E+00;  4.3993816E-02;  1.0047601E+03;  4.0209985E-01;  3.7884546E+03;3;  7.3549675E+01;  0.0000000E+00;  3.0330496E+00;0;  2.0474747E-02;  1.0010051E+04;  0.0000000E+00; -7.8367764E-01;  1.0000000E+04;  0.0000000E+00;  9.9802217E+03; -1.5851970E-01;  0.0000000E+00;  1.7899445E-01;  6.6718076E+03;
  1.1207695E+00;  9.9999998E-03;  2.0018828E-01;2787;  2.8827575E-01;  0.0000000E+00;  4.6425391E-02;  1.0047315E+03;  4.0209967E-01;  3.7655603E+03;3;  7.8713936E+01;  0.0000000E+00;  3.9017804E+00;0;  1.9924730E-02;  1.0010048E+04;  0.0000000E+00; -1.3278700E+00;  1.0000000E+04;  0.0000000E+00;  9.9796738E+03; -1.5357028E-01;  0.0000000E+00;  1.7349501E-01;  7.7241743E+03;
  1.1208339E+00;  9.9999998E-03;  2.2020540E-01;2788;  3.0125204E-01;  0.0000000E+00;  4.7264498E-02;  1.0046921E+03;  4.0209940E-01;  3.7340217E+03;3;  8.6927055E+01;  0.0000000E+00;  4.8430462E+00;0;  1.9719079E-02;  1.0009672E+04;  0.0000000E+00; -1.7691659E+00;  1.0000000E+04;  0.0000000E+00;  9.9792842E+03; -1.4443862E-01;  0.0000000E+00;  1.6415770E-01;  8.7589482E+03;
  1.1208985E+00;  9.9999998E-03;  2.4021840E-01;2789;  3.1218171E-01;  0.0000000E+00;  4.6952825E-02;  1.0046426E+03;  4.0209928E-01;  3.6945161E+03;3;  1.0014758E+02;  0.0000000E+00;  6.8999200E+00;0;  1.1986360E-02;  1.0007628E+04;  0.0000000E+00; -1.8680879E+00;  1.0000000E+04;  0.0000000E+00;  9.9803633E+03; -1.2053742E-01;  0.0000000E+00;  1.3252378E-01;  8.7564355E+03;
  1.1209664E+00;  9.9999998E-03;  2.6023543E-01;2790;  3.2423052E-01;  0.0000000E+00;  5.0004240E-02;  1.0044534E+03;  4.0209916E-01;  3.5438284E+03;3;  1.1952052E+02;  0.0000000E+00;  1.0612411E+01;0;  5.7875097E-02;  1.0001912E+04;  0.0000000E+00; -1.4604511E+00;  1.0000000E+04;  0.0000000E+00;  9.9823311E+03; -5.5004105E-02;  0.0000000E+00;  1.1287920E-01;  7.3089019E+03;
  1.1210326E+00;  9.9999998E-03;  2.8025535E-01;2791;  3.3627233E-01;  0.0000000E+00;  5.3636339E-02;  1.0040087E+03;  4.0209904E-01;  3.1897813E+03;3;  1.4415428E+02;  0.0000000E+00;  1.5124053E+01;0;  1.6962023E-01;  9.9912754E+03;  0.0000000E+00;  4.4635159E-01;  1.0000000E+04;  0.0000000E+00;  9.9841396E+03;  6.6731945E-02;  0.0000000E+00;  1.0288829E-01;  4.9215845E+03;
  1.1406516E+00;  9.9999998E-03;  1.6013385E-01;2813;  2.5859466E-01;  0.0000000E+00;  3.5332959E-02;  1.0041951E+03;  4.0186056E-01;  3.2960186E+03;3;  7.1584305E+01;  0.0000000E+00;  2.5101814E+00;0;  2.6578903E-03;  1.0009321E+04;  0.0000000E+00; -7.3578757E-01;  1.0000000E+04;  0.0000000E+00;  9.9815967E+03; -1.6872488E-01;  0.0000000E+00;  1.7138277E-01;  5.5493794E+03;
  1.1407044E+00;  9.9999998E-03;  1.8014942E-01;2814;  2.7208489E-01;  0.0000000E+00;  3.7662845E-02;  1.0041851E+03;  4.0186062E-01;  3.2880239E+03;3;  7.5793365E+01;  0.0000000E+00;  3.1153343E+00;0; -2.8350800E-03;  1.0009599E+04;  0.0000000E+00; -1.3380586E+00;  1.0000000E+04;  0.0000000E+00;  9.9811309E+03; -1.6755155E-01;  0.0000000E+00;  1.6471647E-01;  6.5726821E+03;
  1.1407669E+00;  9.9999998E-03;  2.0016734E-01;2815;  2.8638545E-01;  0.0000000E+00;  3.9556690E-02;  1.0041869E+03;  4.0186030E-01;  3.2892781E+03;3;  8.2674271E+01;  0.0000000E+00;  3.9234343E+00;0; -8.3094239E-03;  1.0010144E+04;  0.0000000E+00; -1.9712337E+00;  1.0000000E+04;  0.0000000E+00;  9.9806396E+03; -1.6825002E-01;  0.0000000E+00;  1.5994060E-01;  7.9506104E+03;
  1.1408342E+00;  9.9999998E-03;  2.2018419E-01;2816;  2.9856136E-01;  0.0000000E+00;  3.9640520E-02;  1.0041637E+03;  4.0186009E-01;  3.2709478E+03;3;  9.2702065E+01;  0.0000000E+00;  4.7875385E+00;0; -2.1501884E-02;  1.0009693E+04;  0.0000000E+00; -2.3697720E+00;  1.0000000E+04;  0.0000000E+00;  9.9806475E+03; -1.6294910E-01;  0.0000000E+00;  1.4144722E-01;  8.8669873E+03;
  1.1408976E+00;  9.9999998E-03;  2.4019842E-01;2817;  3.0927730E-01;  0.0000000E+00;  4.0737960E-02;  1.0041082E+03;  4.0185988E-01;  3.2271577E+03;3;  1.0850172E+02;  0.0000000E+00;  7.4468360E+00;0; -2.6246093E-02;  1.0007026E+04;  0.0000000E+00; -2.1503153E+00;  1.0000000E+04;  0.0000000E+00;  9.9822207E+03; -1.3595946E-01;  0.0000000E+00;  1.0971337E-01;  8.0781387E+03;
  1.1409627E+00;  9.9999998E-03;  2.6021892E-01;2818;  3.2152450E-01;  0.0000000E+00;  4.5057591E-02;  1.0038214E+03;  4.0185988E-01;  3.0017068E+03;3;  1.2995636E+02;  0.0000000E+00;  1.1289945E+01;0;  4.8828300E-02;  1.0000177E+04;  0.0000000E+00; -9.2703849E-01;  1.0000000E+04;  0.0000000E+00;  9.9833721E+03; -5.6865688E-02;  0.0000000E+00;  1.0569399E-01;  5.2759873E+03;
  1.1606450E+00;  9.9999998E-03;  1.6011599E-01;2840;  2.5623107E-01;  0.0000000E+00;  2.9704522E-02;  1.0037180E+03;  4.0167290E-01;  2.8729990E+03;3;  7.3775093E+01;  0.0000000E+00;  2.5053000E+00;0; -1.3804838E-02;  1.0008393E+04;  0.0000000E+00; -1.3448884E+00;  1.0000000E+04;  0.0000000E+00;  9.9823711E+03; -1.7263550E-01;  0.0000000E+00;  1.5883066E-01;  5.5074136E+03;
  1.1607029E+00;  9.9999998E-03;  1.8013339E-01;2841;  2.7027801E-01;  0.0000000E+00;  3.1917151E-02;  1.0037323E+03;  4.0167266E-01;  2.8839890E+03;3;  7.9527725E+01;  0.0000000E+00;  3.0343990E+00;0; -2.1704629E-02;  1.0009163E+04;  0.0000000E+00; -2.0456488E+00;  1.0000000E+04;  0.0000000E+00;  9.9818994E+03; -1.7526314E-01;  0.0000000E+00;  1.5355851E-01;  6.8566895E+03;
  1.1607703E+00;  9.9999998E-03;  2.0015326E-01;2842;  2.8428870E-01;  0.0000000E+00;  3.3306945E-02;  1.0037168E+03;  4.0167254E-01;  2.8718330E+03;3;  8.8397469E+01;  0.0000000E+00;  3.5847988E+00;0; -2.9041052E-02;  1.0009303E+04;  0.0000000E+00; -2.6356432E+00;  1.0000000E+04;  0.0000000E+00;  9.9814756E+03; -1.7329124E-01;  0.0000000E+00;  1.4425018E-01;  8.1341846E+03;
  1.1608369E+00;  9.9999998E-03;  2.2017008E-01;2843;  2.9562804E-01;  0.0000000E+00;  3.3518504E-02;  1.0036609E+03;  4.0167236E-01;  2.8284580E+03;3;  1.0059628E+02;  0.0000000E+00;  4.5677304E+00;0; -4.5622475E-02;  1.0007768E+04;  0.0000000E+00; -2.7138078E+00;  1.0000000E+04;  0.0000000E+00;  9.9819102E+03; -1.6151017E-01;  0.0000000E+00;  1.1588769E-01;  8.2509629E+03;
  1.1608986E+00;  9.9999998E-03;  2.4018875E-01;2844;  3.0681843E-01;  0.0000000E+00;  3.6818422E-02;  1.0034863E+03;  4.0167230E-01;  2.6933723E+03;3;  1.1875568E+02;  0.0000000E+00;  7.6929493E+00;0; -1.2908950E-02;  1.0003415E+04;  0.0000000E+00; -1.7742666E+00;  1.0000000E+04;  0.0000000E+00;  9.9827871E+03; -1.1387229E-01;  0.0000000E+00;  1.0096334E-01;  6.1540176E+03;
  1.1609508E+00;  9.9999998E-03;  2.6020634E-01;2845;  3.1691051E-01;  0.0000000E+00;  4.0963650E-02;  1.0032126E+03;  4.0167227E-01;  2.4817966E+03;3;  1.4117056E+02;  0.0000000E+00;  1.1861096E+01;0;  6.7558721E-02;  9.9965635E+03;  0.0000000E+00;  8.3429652E-01;  1.0000000E+04;  0.0000000E+00;  9.9841895E+03; -3.2954372E-02;  0.0000000E+00;  1.0051309E-01;  4.2474990E+03;
  1.1806458E+00;  9.9999998E-03;  1.6010539E-01;2866;  2.5458285E-01;  0.0000000E+00;  2.4984032E-02;  1.0033585E+03;  4.0152836E-01;  2.5412241E+03;3;  7.7286659E+01;  0.0000000E+00;  2.2696373E+00;0; -2.9087275E-02;  1.0007817E+04;  0.0000000E+00; -2.1189339E+00;  1.0000000E+04;  0.0000000E+00;  9.9829717E+03; -1.7941199E-01;  0.0000000E+00;  1.5032472E-01;  5.8216704E+03;
  1.1807114E+00;  9.9999998E-03;  1.8012701E-01;2867;  2.6904508E-01;  0.0000000E+00;  2.7296090E-02;  1.0033286E+03;  4.0152842E-01;  2.5183896E+03;3;  8.4749466E+01;  0.0000000E+00;  2.4502640E+00;0; -3.0403972E-02;  1.0007914E+04;  0.0000000E+00; -2.7913120E+00;  1.0000000E+04;  0.0000000E+00;  9.9822998E+03; -1.7520258E-01;  0.0000000E+00;  1.4479861E-01;  7.0973477E+03;
  1.1807787E+00;  9.9999998E-03;  2.0014735E-01;2868;  2.8222060E-01;  0.0000000E+00;  2.8707873E-02;  1.0032331E+03;  4.0152827E-01;  2.4459507E+03;3;  9.5791412E+01;  0.0000000E+00;  3.0568678E+00;0; -2.8920844E-02;  1.0006438E+04;  0.0000000E+00; -3.0416763E+00;  1.0000000E+04;  0.0000000E+00;  9.9818809E+03; -1.5862286E-01;  0.0000000E+00;  1.2970202E-01;  7.6027681E+03;
  1.1808401E+00;  9.9999998E-03;  2.2016485E-01;2869;  2.9304141E-01;  0.0000000E+00;  3.0346675E-02;  1.0030874E+03;  4.0152824E-01;  2.3355737E+03;3;  1.1080042E+02;  0.0000000E+00;  4.7640915E+00;0; -2.1801554E-02;  1.0003133E+04;  0.0000000E+00; -2.2971535E+00;  1.0000000E+04;  0.0000000E+00;  9.9822900E+03; -1.2742929E-01;  0.0000000E+00;  1.0562774E-01;  6.1843359E+03;
  1.1808923E+00;  9.9999998E-03;  2.4018353E-01;2870;  3.0343020E-01;  0.0000000E+00;  3.4651667E-02;  1.0028473E+03;  4.0152818E-01;  2.1538188E+03;3;  1.3088110E+02;  0.0000000E+00;  8.4457455E+00;0;  4.6202544E-02;  9.9978877E+03;  0.0000000E+00; -1.6961051E-02;  1.0000000E+04;  0.0000000E+00;  9.9827490E+03; -6.1827194E-02;  0.0000000E+00;  1.0802974E-01;  3.4649370E+03;
  1.2006601E+00;  9.9999998E-03;  1.6010648E-01;2890;  2.5440529E-01;  0.0000000E+00;  2.1952640E-02;  1.0030093E+03;  4.0141988E-01;  2.2181831E+03;3;  8.3071678E+01;  0.0000000E+00;  1.4189626E+00;0; -2.9677749E-02;  1.0006194E+04;  0.0000000E+00; -2.9101353E+00;  1.0000000E+04;  0.0000000E+00;  9.9830518E+03; -1.7644200E-01;  0.0000000E+00;  1.4676425E-01;  6.0198428E+03;
  1.2007262E+00;  9.9999998E-03;  1.8012774E-01;2891;  2.6833454E-01;  0.0000000E+00;  2.4137823E-02;  1.0028722E+03;  4.0141976E-01;  2.1169312E+03;3;  9.2610001E+01;  0.0000000E+00;  1.7060180E+00;0; -1.2363300E-02;  1.0004310E+04;  0.0000000E+00; -3.2313888E+00;  1.0000000E+04;  0.0000000E+00;  9.9822158E+03; -1.5173484E-01;  0.0000000E+00;  1.3937154E-01;  6.5784780E+03;
  1.2007880E+00;  9.9999998E-03;  2.0014799E-01;2892;  2.8065521E-01;  0.0000000E+00;  2.6698127E-02;  1.0026526E+03;  4.0141982E-01;  1.9549155E+03;3;  1.0590123E+02;  0.0000000E+00;  3.1210122E+00;0;  2.2303574E-02;  1.0000531E+04;  0.0000000E+00; -2.5579753E+00;  1.0000000E+04;  0.0000000E+00;  9.9816201E+03; -1.0622842E-01;  0.0000000E+00;  1.2853199E-01;  5.5718848E+03;
  1.2008362E+00;  9.9999998E-03;  2.2016348E-01;2893;  2.8960615E-01;  0.0000000E+00;  2.9205937E-02;  1.0024883E+03;  4.0141991E-01;  1.8337255E+03;3;  1.2330426E+02;  0.0000000E+00;  5.7453232E+00;0;  4.8733301E-02;  9.9967363E+03;  0.0000000E+00; -3.3161673E-01;  1.0000000E+04;  0.0000000E+00;  9.9821377E+03; -6.4651504E-02;  0.0000000E+00;  1.1338481E-01;  3.0672642E+03;
  1.2206786E+00;  9.9999998E-03;  1.6011195E-01;2913;  2.5389054E-01;  0.0000000E+00;  1.9843709E-02;  1.0025681E+03;  4.0133989E-01;  1.8336946E+03;3;  9.1687103E+01;  0.0000000E+00;  6.5595502E-01;0; -6.0452521E-04;  1.0001713E+04;  0.0000000E+00; -3.2192230E+00;  1.0000000E+04;  0.0000000E+00;  9.9827324E+03; -1.4552824E-01;  0.0000000E+00;  1.4492372E-01;  5.3085864E+03;
  1.2207351E+00;  9.9999998E-03;  1.8013087E-01;2914;  2.6602155E-01;  0.0000000E+00;  2.2568416E-02;  1.0023544E+03;  4.0133989E-01;  1.6809135E+03;3;  1.0364328E+02;  0.0000000E+00;  2.0234146E+00;0;  4.0411621E-02;  9.9982578E+03;  0.0000000E+00; -2.5514431E+00;  1.0000000E+04;  0.0000000E+00;  9.9819229E+03; -9.8351404E-02;  0.0000000E+00;  1.3876303E-01;  4.5069082E+03;
  1.2207845E+00;  9.9999998E-03;  2.0014894E-01;2915;  2.7649891E-01;  0.0000000E+00;  2.5915466E-02;  1.0021115E+03;  4.0134007E-01;  1.5074156E+03;3;  1.1927818E+02;  0.0000000E+00;  4.2711649E+00;0;  9.5000096E-02;  9.9939863E+03;  0.0000000E+00; -3.4777692E-01;  1.0000000E+04;  0.0000000E+00;  9.9813525E+03; -4.1156583E-02;  0.0000000E+00;  1.3615668E-01;  2.6034292E+03;
  1.2208092E+00;  9.9999998E-03;  2.2015373E-01;2916;  2.7974325E-01;  0.0000000E+00;  2.6636725E-02;  1.0022764E+03;  4.0133983E-01;  1.6250425E+03;3;  1.3452132E+02;  0.0000000E+00;  6.9539218E+00;0;  4.2118844E-02;  9.9944951E+03;  0.0000000E+00;  2.9463789E+00;  1.0000000E+04;  0.0000000E+00;  9.9841270E+03; -5.9853207E-02;  0.0000000E+00;  1.0197205E-01;  4.7958442E+03;
  1.2406819E+00;  9.9999998E-03;  1.6011360E-01;2934;  2.4989624E-01;  0.0000000E+00;  1.7932897E-02;  1.0021686E+03;  4.0128213E-01;  1.4912957E+03;3;  1.0337988E+02;  0.0000000E+00;  1.2338926E+00;0;  3.8539186E-02;  9.9964385E+03;  0.0000000E+00; -2.0158777E+00;  1.0000000E+04;  0.0000000E+00;  9.9829063E+03; -9.9117965E-02;  0.0000000E+00;  1.3765715E-01;  3.0582166E+03;
  1.2407235E+00;  9.9999998E-03;  1.8012850E-01;2935;  2.5969937E-01;  0.0000000E+00;  2.1062996E-02;  1.0020500E+03;  4.0128234E-01;  1.4096897E+03;3;  1.1731815E+02;  0.0000000E+00;  3.3728895E+00;0;  7.4761994E-02;  9.9943682E+03;  0.0000000E+00; -1.8191859E-02;  1.0000000E+04;  0.0000000E+00;  9.9826152E+03; -5.9895657E-02;  0.0000000E+00;  1.3465765E-01;  1.9584790E+03;
  1.2606624E+00;  9.9999998E-03;  1.6010900E-01;2952;  2.4157079E-01;  0.0000000E+00;  1.5840145E-02;  1.0020959E+03;  4.0124139E-01;  1.3808484E+03;3;  1.1625464E+02;  0.0000000E+00;  2.2674088E+00;0;  3.1143025E-02;  9.9958096E+03;  0.0000000E+00;  7.5602460E-01;  1.0000000E+04;  0.0000000E+00;  9.9841250E+03; -9.2727683E-02;  0.0000000E+00;  1.2387071E-01;  1.6462577E+03;
