TimeStep;Np;Nbound;Nfixed;Nmoving;Nfloat;Nfluid
0.00911576;2975;1031;1031;0;0;1944

Pos.x;Pos.y;Pos.z;Idp;Vel.x;Vel.y;Vel.z;Rhop;Mass;Press;Type;Acec.x;Acec.y;Acec.z;CellOffSpring;GradVel;Qfxx;Qfxy;Qfxz;Qfyy;Qfyz;Qfzz;StrainDot.x;StrainDot.y;StrainDot.z;VonMises3D;
 -2.2000000E-01;  9.9999998E-03; -3.8000000E-01;0;  0.0000000E+00;  0.0000000E+00;  0.0000000E+00;  1.0000000E+03;  4.0000001E-01;  0.0000000E+00;0;  0.0000000E+00;  0.0000000E+00;  0.0000000E+00;0;  0.0000000E+00;  1.0000000E+04;  0.0000000E+00;  0.0000000E+00;  1.0000000E+04;  0.0000000E+00;  1.0000000E+04;  0.0000000E+00;  0.0000000E+00;  0.0000000E+00;  0.0000000E+00;
 -2.2000000E-01;  9.9999998E-03; -3.6000001E-01;1;  0.0000000E+00;  0.0000000E+00;  0.0000000E+00;  1.0000000E+03;  4.0000001E-01;  0.0000000E+00;0;  0.0000000E+00;  0.0000000E+00;  0.0000000E+00;0;  0.0000000E+00;  1.0000000E+04;  0.0000000E+00;  0.0000000E+00;  1.0000000E+04;  0.0000000E+00;  1.0000000E+04;  0.0000000E+00;  0.0000000E+00;  0.0000000E+00;  0.0000000E+00;
 -2.0000000E-01;  9.9999998E-03; -4.0000001E-01;39;  0.0000000E+00;  0.0000000E+00;  0.0000000E+00;  1.0000000E+03;  4.0000001E-01;  0.0000000E+00;0;  0.0000000E+00;  0.0000000E+00;  0.0000000E+00;0;  0.0000000E+00;  1.0000000E+04;  0.0000000E+00;  0.0000000E+00;  1.0000000E+04;  0.0000000E+00;  1.0000000E+04;  0.0000000E+00;  0.0000000E+00;  0.0000000E+00;  0.0000000E+00;
 -2.0000000E-01;  9.9999998E-03; -3.8000000E-01;40;  0.0000000E+00;  0.0000000E+00;  0.0000000E+00;  1.0000000E+03;  4.0000001E-01;  0.0000000E+00;0;  0.0000000E+00;  0.0000000E+00;  0.0000000E+00;0;  0.0000000E+00;  1.0000000E+04;  0.0000000E+00;  0.0000000E+00;  1.0000000E+04;  0.0000000E+00;  1.0000000E+04;  0.0000000E+00;  0.0000000E+00;  0.0000000E+00;  0.0000000E+00;
 -2.0000000E-01;  9.9999998E-03; -3.6000001E-01;41;  0.0000000E+00;  0.0000000E+00;  0.0000000E+00;  1.0000000E+03;  4.0000001E-01;  0.0000000E+00;0;  0.0000000E+00;  0.0000000E+00;  0.0000000E+00;0;  0.0000000E+00;  1.0000000E+04;  0.0000000E+00;  0.0000000E+00;  1.0000000E+04;  0.0000000E+00;  1.0000000E+04;  0.0000000E+00;  0.0000000E+00;  0.0000000E+00;  0.0000000E+00;
 -1.8000001E-01;  9.9999998E-03; -4.0000001E-01;80;  0.0000000E+00;  0.0000000E+00;  0.0000000E+00;  1.0000000E+03;  4.0000001E-01;  0.0000000E+00;0;  0.0000000E+00;  0.0000000E+00;  0.0000000E+00;0;  0.0000000E+00;  1.0000000E+04;  0.0000000E+00;  0.0000000E+00;  1.0000000E+04;  0.0000000E+00;  1.0000000E+04;  0.0000000E+00;  0.0000000E+00;  0.0000000E+00;  0.0000000E+00;
 -1.8000001E-01;  9.9999998E-03; -3.8000000E-01;81;  0.0000000E+00;  0.0000000E+00;  0.0000000E+00;  1.0000000E+03;  4.0000001E-01;  0.0000000E+00;0;  0.0000000E+00;  0.0000000E+00;  0.0000000E+00;0;  0.0000000E+00;  1.0000000E+04;  0.0000000E+00;  0.0000000E+00;  1.0000000E+04;  0.0000000E+00;  1.0000000E+04;  0.0000000E+00;  0.0000000E+00;  0.0000000E+00;  0.0000000E+00;
 -1.8000001E-01;  9.9999998E-03; -3.6000001E-01;82;  0.0000000E+00;  0.0000000E+00;  0.0000000E+00;  1.0000000E+03;  4.0000001E-01;  0.0000000E+00;0;  0.0000000E+00;  0.0000000E+00;  0.0000000E+00;0;  0.0000000E+00;  1.0000000E+04;  0.0000000E+00;  0.0000000E+00;  1.0000000E+04;  0.0000000E+00;  1.0000000E+04;  0.0000000E+00;  0.0000000E+00;  0.0000000E+00;  0.0000000E+00;
 -1.6000000E-01;  9.9999998E-03; -4.0000001E-01;121;  0.0000000E+00;  0.0000000E+00;  0.0000000E+00;  1.0000000E+03;  4.0000001E-01;  0.0000000E+00;0;  0.0000000E+00;  0.0000000E+00;  0.0000000E+00;0;  0.0000000E+00;  1.0000000E+04;  0.0000000E+00;  0.0000000E+00;  1.0000000E+04;  0.0000000E+00;  1.0000000E+04;  0.0000000E+00;  0.0000000E+00;  0.0000000E+00;  0.0000000E+00;
 -1.6000000E-01;  9.9999998E-03; -3.8000000E-01;122;  0.0000000E+00;  0.0000000E+00;  0.0000000E+00;  1.0000000E+03;  4.0000001E-01;  0.0000000E+00;0;  0.0000000E+00;  0.0000000E+00;  0.0000000E+00;0;  0.0000000E+00;  1.0000000E+04;  0.0000000E+00;  0.0000000E+00;  1.0000000E+04;  0.0000000E+00;  1.0000000E+04;  0.0000000E+00;  0.0000000E+00;  0.0000000E+00;  0.0000000E+00;
 -1.6000000E-01;  9.9999998E-03; -3.6000001E-01;123;  0.0000000E+00;  0.0000000E+00;  0.0000000E+00;  1.0000000E+03;  4.0000001E-01;  0.0000000E+00;0;  0.0000000E+00;  0.0000000E+00;  0.0000000E+00;0;  0.0000000E+00;  1.0000000E+04;  0.0000000E+00;  0.0000000E+00;  1.0000000E+04;  0.0000000E+00;  1.0000000E+04;  0.0000000E+00;  0.0000000E+00;  0.0000000E+00;  0.0000000E+00;
 -1.4000000E-01;  9.9999998E-03; -4.0000001E-01;162;  0.0000000E+00;  0.0000000E+00;  0.0000000E+00;  1.0000000E+03;  4.0000001E-01;  0.0000000E+00;0;  0.0000000E+00;  0.0000000E+00;  0.0000000E+00;0;  0.0000000E+00;  1.0000000E+04;  0.0000000E+00;  0.0000000E+00;  1.0000000E+04;  0.0000000E+00;  1.0000000E+04;  0.0000000E+00;  0.0000000E+00;  0.0000000E+00;  0.0000000E+00;
 -1.4000000E-01;  9.9999998E-03; -3.8000000E-01;163;  0.0000000E+00;  0.0000000E+00;  0.0000000E+00;  1.0000000E+03;  4.0000001E-01;  0.0000000E+00;0;  0.0000000E+00;  0.0000000E+00;  0.0000000E+00;0;  0.0000000E+00;  1.0000000E+04;  0.0000000E+00;  0.0000000E+00;  1.0000000E+04;  0.0000000E+00;  1.0000000E+04;  0.0000000E+00;  0.0000000E+00;  0.0000000E+00;  0.0000000E+00;
 -1.4000000E-01;  9.9999998E-03; -3.6000001E-01;164;  0.0000000E+00;  0.0000000E+00;  0.0000000E+00;  1.0000000E+03;  4.0000001E-01;  0.0000000E+00;0;  0.0000000E+00;  0.0000000E+00;  0.0000000E+00;0; -2.1017986E-06;  1.0000000E+04;  0.0000000E+00;  0.0000000E+00;  1.0000000E+04;  0.0000000E+00;  1.0000000E+04; -1.6461604E-06;  0.0000000E+00; -4.5563823E-07;  7.9021025E-03;
 -1.2000000E-01;  9.9999998E-03; -4.0000001E-01;203;  0.0000000E+00;  0.0000000E+00;  0.0000000E+00;  1.0000000E+03;  4.0000001E-01;  0.0000000E+00;0;  0.0000000E+00;  0.0000000E+00;  0.0000000E+00;0; -7.6177643E-16;  1.0000000E+04;  0.0000000E+00;  0.0000000E+00;  1.0000000E+04;  0.0000000E+00;  1.0000000E+04; -5.3090082E-16;  0.0000000E+00; -2.3087561E-16;  1.0013460E-12;
 -1.2000000E-01;  9.9999998E-03; -3.8000000E-01;204;  0.0000000E+00;  0.0000000E+00;  0.0000000E+00;  1.0000000E+03;  4.0000001E-01;  0.0000000E+00;0;  0.0000000E+00;  0.0000000E+00;  0.0000000E+00;0; -1.1018408E-05;  1.0000000E+04;  0.0000000E+00;  0.0000000E+00;  1.0000000E+04;  0.0000000E+00;  1.0000000E+04; -7.7073846E-06;  0.0000000E+00; -3.3110236E-06;  5.8052473E-02;
 -1.2000000E-01;  9.9999998E-03; -3.6000001E-01;205;  0.0000000E+00;  0.0000000E+00;  0.0000000E+00;  1.0000000E+03;  4.0000001E-01;  0.0000000E+00;0;  0.0000000E+00;  0.0000000E+00;  0.0000000E+00;0; -7.4177296E-05;  1.0000000E+04;  0.0000000E+00;  0.0000000E+00;  1.0000000E+04;  0.0000000E+00;  1.0000000E+04; -5.5503679E-05;  0.0000000E+00; -1.8673622E-05;  3.2552591E-01;
 -1.0000000E-01;  9.9999998E-03; -4.0000001E-01;244;  0.0000000E+00;  0.0000000E+00;  0.0000000E+00;  1.0000000E+03;  4.0000001E-01;  0.0000000E+00;0;  0.0000000E+00;  0.0000000E+00;  0.0000000E+00;0; -2.0028294E-05;  1.0000000E+04;  0.0000000E+00;  0.0000000E+00;  1.0000000E+04;  0.0000000E+00;  1.0000000E+04; -1.3080982E-05;  0.0000000E+00; -6.9473117E-06;  1.2259050E-01;
 -1.0000000E-01;  9.9999998E-03; -3.8000000E-01;245;  0.0000000E+00;  0.0000000E+00;  0.0000000E+00;  1.0000002E+03;  4.0000001E-01;  1.9752525E-01;0;  0.0000000E+00;  0.0000000E+00;  0.0000000E+00;0; -1.4584765E-04;  1.0000000E+04;  0.0000000E+00;  0.0000000E+00;  1.0000000E+04;  0.0000000E+00;  1.0000000E+04; -9.6564116E-05;  0.0000000E+00; -4.9283524E-05;  8.6866313E-01;
 -1.0000000E-01;  9.9999998E-03; -3.6000001E-01;246;  0.0000000E+00;  0.0000000E+00;  0.0000000E+00;  1.0000009E+03;  4.0000001E-01;  6.9133836E-01;0;  0.0000000E+00;  0.0000000E+00;  0.0000000E+00;0; -4.5880771E-04;  1.0000000E+04;  0.0000000E+00;  0.0000000E+00;  1.0000000E+04;  0.0000000E+00;  1.0000000E+04; -3.2999442E-04;  0.0000000E+00; -1.2881329E-04;  2.2593880E+00;
 -7.9999998E-02;  9.9999998E-03; -4.0000001E-01;285;  0.0000000E+00;  0.0000000E+00;  0.0000000E+00;  1.0000002E+03;  4.0000001E-01;  1.9752525E-01;0;  0.0000000E+00;  0.0000000E+00;  0.0000000E+00;0; -1.6780655E-04;  1.0000000E+04;  0.0000000E+00;  0.0000000E+00;  1.0000000E+04;  0.0000000E+00;  1.0000000E+04; -1.0346842E-04;  0.0000000E+00; -6.4338128E-05;  1.1411256E+00;
 -7.9999998E-02;  9.9999998E-03; -3.8000000E-01;286;  0.0000000E+00;  0.0000000E+00;  0.0000000E+00;  1.0000012E+03;  4.0000001E-01;  9.8762625E-01;0;  0.0000000E+00;  0.0000000E+00;  0.0000000E+00;0; -6.3698087E-04;  1.0000000E+04;  0.0000000E+00;  0.0000000E+00;  1.0000000E+04;  0.0000000E+00;  1.0000000E+04; -4.0302073E-04;  0.0000000E+00; -2.3396011E-04;  4.1474476E+00;
 -7.9999998E-02;  9.9999998E-03; -3.6000001E-01;287;  0.0000000E+00;  0.0000000E+00;  0.0000000E+00;  1.0000029E+03;  4.0000001E-01;  2.4690657E+00;0;  0.0000000E+00;  0.0000000E+00;  0.0000000E+00;0; -1.5288901E-03;  1.0000000E+04;  0.0000000E+00;  0.0000000E+00;  1.0000000E+04;  0.0000000E+00;  1.0000000E+04; -1.0623587E-03;  0.0000000E+00; -4.6653143E-04;  8.2280893E+00;
 -5.9999999E-02;  9.9999998E-03; -4.0000001E-01;326;  0.0000000E+00;  0.0000000E+00;  0.0000000E+00;  1.0000011E+03;  4.0000001E-01;  8.8886362E-01;0;  0.0000000E+00;  0.0000000E+00;  0.0000000E+00;0; -5.9393572E-04;  1.0000000E+04;  0.0000000E+00;  0.0000000E+00;  1.0000000E+04;  0.0000000E+00;  1.0000000E+04; -3.4766269E-04;  0.0000000E+00; -2.4627300E-04;  4.3946009E+00;
 -5.9999999E-02;  9.9999998E-03; -3.8000000E-01;327;  0.0000000E+00;  0.0000000E+00;  0.0000000E+00;  1.0000034E+03;  4.0000001E-01;  2.8641162E+00;0;  0.0000000E+00;  0.0000000E+00;  0.0000000E+00;0; -1.7332253E-03;  1.0000000E+04;  0.0000000E+00;  0.0000000E+00;  1.0000000E+04;  0.0000000E+00;  1.0000000E+04; -1.0494059E-03;  0.0000000E+00; -6.8381935E-04;  1.2200791E+01;
 -5.9999999E-02;  9.9999998E-03; -3.6000001E-01;328;  0.0000000E+00;  0.0000000E+00;  0.0000000E+00;  1.0000073E+03;  4.0000001E-01;  6.0245199E+00;0;  0.0000000E+00;  0.0000000E+00;  0.0000000E+00;0; -3.6371644E-03;  1.0000000E+04;  0.0000000E+00;  0.0000000E+00;  1.0000000E+04;  0.0000000E+00;  1.0000000E+04; -2.4421192E-03;  0.0000000E+00; -1.1950451E-03;  2.1223537E+01;
 -3.9999999E-02;  9.9999998E-03; -4.0000001E-01;367;  0.0000000E+00;  0.0000000E+00;  0.0000000E+00;  1.0000027E+03;  4.0000001E-01;  2.2715404E+00;0;  0.0000000E+00;  0.0000000E+00;  0.0000000E+00;0; -1.3913270E-03;  1.0000000E+04;  0.0000000E+00;  0.0000000E+00;  1.0000000E+04;  0.0000000E+00;  1.0000000E+04; -7.7080150E-04;  0.0000000E+00; -6.2052556E-04;  1.1155260E+01;
 -3.9999999E-02;  9.9999998E-03; -3.8000000E-01;368;  0.0000000E+00;  0.0000000E+00;  0.0000000E+00;  1.0000070E+03;  4.0000001E-01;  5.8269949E+00;0;  0.0000000E+00;  0.0000000E+00;  0.0000000E+00;0; -3.5518035E-03;  1.0000000E+04;  0.0000000E+00;  0.0000000E+00;  1.0000000E+04;  0.0000000E+00;  1.0000000E+04; -2.0511909E-03;  0.0000000E+00; -1.5006126E-03;  2.6984234E+01;
 -3.9999999E-02;  9.9999998E-03; -3.6000001E-01;369;  0.0000000E+00;  0.0000000E+00;  0.0000000E+00;  1.0000139E+03;  4.0000001E-01;  1.1456465E+01;0;  0.0000000E+00;  0.0000000E+00;  0.0000000E+00;0; -6.9057727E-03;  1.0000000E+04;  0.0000000E+00;  0.0000000E+00;  1.0000000E+04;  0.0000000E+00;  1.0000000E+04; -4.4659227E-03;  0.0000000E+00; -2.4398500E-03;  4.3691254E+01;
 -2.0000000E-02;  9.9999998E-03; -4.0000001E-01;408;  0.0000000E+00;  0.0000000E+00;  0.0000000E+00;  1.0000049E+03;  4.0000001E-01;  4.0492678E+00;0;  0.0000000E+00;  0.0000000E+00;  0.0000000E+00;0; -2.5231515E-03;  1.0000000E+04;  0.0000000E+00;  0.0000000E+00;  1.0000000E+04;  0.0000000E+00;  1.0000000E+04; -1.3165658E-03;  0.0000000E+00; -1.2065857E-03;  2.1892609E+01;
 -2.0000000E-02;  9.9999998E-03; -3.8000000E-01;409;  0.0000000E+00;  0.0000000E+00;  0.0000000E+00;  1.0000121E+03;  4.0000001E-01;  9.9750252E+00;0;  0.0000000E+00;  0.0000000E+00;  0.0000000E+00;0; -5.9816092E-03;  1.0000000E+04;  0.0000000E+00;  0.0000000E+00;  1.0000000E+04;  0.0000000E+00;  1.0000000E+04; -3.2827226E-03;  0.0000000E+00; -2.6988869E-03;  4.9001804E+01;
 -2.0000000E-02;  9.9999998E-03; -3.6000001E-01;410;  0.0000000E+00;  0.0000000E+00;  0.0000000E+00;  1.0000223E+03;  4.0000001E-01;  1.8468611E+01;0;  0.0000000E+00;  0.0000000E+00;  0.0000000E+00;0; -1.1107227E-02;  1.0000000E+04;  0.0000000E+00;  0.0000000E+00;  1.0000000E+04;  0.0000000E+00;  1.0000000E+04; -6.8964581E-03;  0.0000000E+00; -4.2107687E-03;  7.6163918E+01;
  0.0000000E+00;  9.9999998E-03; -4.0000001E-01;449;  0.0000000E+00;  0.0000000E+00;  0.0000000E+00;  1.0000077E+03;  4.0000001E-01;  6.4195704E+00;0;  0.0000000E+00;  0.0000000E+00;  0.0000000E+00;0; -3.8248801E-03;  1.0000000E+04;  0.0000000E+00;  0.0000000E+00;  1.0000000E+04;  0.0000000E+00;  1.0000000E+04; -1.8750490E-03;  0.0000000E+00; -1.9498311E-03;  3.5795895E+01;
  0.0000000E+00;  9.9999998E-03; -3.8000000E-01;450;  0.0000000E+00;  0.0000000E+00;  0.0000000E+00;  1.0000175E+03;  4.0000001E-01;  1.4518106E+01;0;  0.0000000E+00;  0.0000000E+00;  0.0000000E+00;0; -8.6993258E-03;  1.0000000E+04;  0.0000000E+00;  0.0000000E+00;  1.0000000E+04;  0.0000000E+00;  1.0000000E+04; -4.5329607E-03;  0.0000000E+00; -4.1663656E-03;  7.6564644E+01;
  0.0000000E+00;  9.9999998E-03; -3.6000001E-01;451;  0.0000000E+00;  0.0000000E+00;  0.0000000E+00;  1.0000319E+03;  4.0000001E-01;  2.6468384E+01;0;  0.0000000E+00;  0.0000000E+00;  0.0000000E+00;0; -1.5697464E-02;  1.0000000E+04;  0.0000000E+00;  0.0000000E+00;  1.0000000E+04;  0.0000000E+00;  1.0000000E+04; -9.3529634E-03;  0.0000000E+00; -6.3445009E-03;  1.1618681E+02;
  2.0000000E-02;  9.9999998E-03; -4.0000001E-01;461;  0.0000000E+00;  0.0000000E+00;  0.0000000E+00;  1.0000103E+03;  4.0000001E-01;  8.5923481E+00;0;  0.0000000E+00;  0.0000000E+00;  0.0000000E+00;0; -5.0837453E-03;  1.0000000E+04;  0.0000000E+00;  0.0000000E+00;  1.0000000E+04;  0.0000000E+00;  1.0000000E+04; -2.3503634E-03;  0.0000000E+00; -2.7333817E-03;  5.0940502E+01;
  2.0000000E-02;  9.9999998E-03; -3.8000000E-01;462;  0.0000000E+00;  0.0000000E+00;  0.0000000E+00;  1.0000233E+03;  4.0000001E-01;  1.9258711E+01;0;  0.0000000E+00;  0.0000000E+00;  0.0000000E+00;0; -1.1310048E-02;  1.0000000E+04;  0.0000000E+00;  0.0000000E+00;  1.0000000E+04;  0.0000000E+00;  1.0000000E+04; -5.6257765E-03;  0.0000000E+00; -5.6842719E-03;  1.0607072E+02;
  2.0000000E-02;  9.9999998E-03; -3.6000001E-01;463;  0.0000000E+00;  0.0000000E+00;  0.0000000E+00;  1.0000413E+03;  4.0000001E-01;  3.4171867E+01;0;  0.0000000E+00;  0.0000000E+00;  0.0000000E+00;0; -2.0043410E-02;  1.0000000E+04;  0.0000000E+00;  0.0000000E+00;  1.0000000E+04;  0.0000000E+00;  1.0000000E+04; -1.1521341E-02;  0.0000000E+00; -8.5220682E-03;  1.5850732E+02;
  3.9999999E-02;  9.9999998E-03; -4.0000001E-01;471;  0.0000000E+00;  0.0000000E+00;  0.0000000E+00;  1.0000128E+03;  4.0000001E-01;  1.0666364E+01;0;  0.0000000E+00;  0.0000000E+00;  0.0000000E+00;0; -6.1503379E-03;  1.0000000E+04;  0.0000000E+00;  0.0000000E+00;  1.0000000E+04;  0.0000000E+00;  1.0000000E+04; -2.7206948E-03;  0.0000000E+00; -3.4296431E-03;  6.5154961E+01;
  3.9999999E-02;  9.9999998E-03; -3.8000000E-01;472;  0.0000000E+00;  0.0000000E+00;  0.0000000E+00;  1.0000283E+03;  4.0000001E-01;  2.3406742E+01;0;  0.0000000E+00;  0.0000000E+00;  0.0000000E+00;0; -1.3546441E-02;  1.0000000E+04;  0.0000000E+00;  0.0000000E+00;  1.0000000E+04;  0.0000000E+00;  1.0000000E+04; -6.5282728E-03;  0.0000000E+00; -7.0181680E-03;  1.3353445E+02;
  3.9999999E-02;  9.9999998E-03; -3.6000001E-01;473;  0.0000000E+00;  0.0000000E+00;  0.0000000E+00;  1.0000498E+03;  4.0000001E-01;  4.1282776E+01;0;  0.0000000E+00;  0.0000000E+00;  0.0000000E+00;0; -2.3754343E-02;  1.0000000E+04;  0.0000000E+00;  0.0000000E+00;  1.0000000E+04;  0.0000000E+00;  1.0000000E+04; -1.3355330E-02;  0.0000000E+00; -1.0399013E-02;  1.9726295E+02;
  5.9999999E-02;  9.9999998E-03; -4.0000001E-01;481;  0.0000000E+00;  0.0000000E+00;  0.0000000E+00;  1.0000150E+03;  4.0000001E-01;  1.2444091E+01;0;  0.0000000E+00;  0.0000000E+00;  0.0000000E+00;0; -7.0168558E-03;  1.0000000E+04;  0.0000000E+00;  0.0000000E+00;  1.0000000E+04;  0.0000000E+00;  1.0000000E+04; -3.0558947E-03;  0.0000000E+00; -3.9609610E-03;  7.7077751E+01;
  5.9999999E-02;  9.9999998E-03; -3.8000000E-01;482;  0.0000000E+00;  0.0000000E+00;  0.0000000E+00;  1.0000329E+03;  4.0000001E-01;  2.7258484E+01;0;  0.0000000E+00;  0.0000000E+00;  0.0000000E+00;0; -1.5406416E-02;  1.0000000E+04;  0.0000000E+00;  0.0000000E+00;  1.0000000E+04;  0.0000000E+00;  1.0000000E+04; -7.3806010E-03;  0.0000000E+00; -8.0258148E-03;  1.5648322E+02;
  5.9999999E-02;  9.9999998E-03; -3.6000001E-01;483;  0.0000000E+00;  0.0000000E+00;  0.0000000E+00;  1.0000575E+03;  4.0000001E-01;  4.7603584E+01;0;  0.0000000E+00;  0.0000000E+00;  0.0000000E+00;0; -2.6886508E-02;  1.0000000E+04;  0.0000000E+00;  0.0000000E+00;  1.0000000E+04;  0.0000000E+00;  1.0000000E+04; -1.5111642E-02;  0.0000000E+00; -1.1774867E-02;  2.2897360E+02;
  7.9999998E-02;  9.9999998E-03; -4.0000001E-01;491;  0.0000000E+00;  0.0000000E+00;  0.0000000E+00;  1.0000170E+03;  4.0000001E-01;  1.4123055E+01;0;  0.0000000E+00;  0.0000000E+00;  0.0000000E+00;0; -7.8283455E-03;  1.0000000E+04;  0.0000000E+00;  0.0000000E+00;  1.0000000E+04;  0.0000000E+00;  1.0000000E+04; -3.5014285E-03;  0.0000000E+00; -4.3269168E-03;  8.6755554E+01;
  7.9999998E-02;  9.9999998E-03; -3.8000000E-01;492;  0.0000000E+00;  0.0000000E+00;  0.0000000E+00;  1.0000377E+03;  4.0000001E-01;  3.1208990E+01;0;  0.0000000E+00;  0.0000000E+00;  0.0000000E+00;0; -1.7192680E-02;  1.0000000E+04;  0.0000000E+00;  0.0000000E+00;  1.0000000E+04;  0.0000000E+00;  1.0000000E+04; -8.4874714E-03;  0.0000000E+00; -8.7052081E-03;  1.7489586E+02;
  7.9999998E-02;  9.9999998E-03; -3.6000001E-01;493;  0.0000000E+00;  0.0000000E+00;  0.0000000E+00;  1.0000661E+03;  4.0000001E-01;  5.4714493E+01;0;  0.0000000E+00;  0.0000000E+00;  0.0000000E+00;0; -3.0008622E-02;  1.0000000E+04;  0.0000000E+00;  0.0000000E+00;  1.0000000E+04;  0.0000000E+00;  1.0000000E+04; -1.7344126E-02;  0.0000000E+00; -1.2664495E-02;  2.5445219E+02;
  1.0000000E-01;  9.9999998E-03; -4.0000001E-01;501;  0.0000000E+00;  0.0000000E+00;  0.0000000E+00;  1.0000201E+03;  4.0000001E-01;  1.6592121E+01;0;  0.0000000E+00;  0.0000000E+00;  0.0000000E+00;0; -8.8580139E-03;  1.0000000E+04;  0.0000000E+00;  0.0000000E+00;  1.0000000E+04;  0.0000000E+00;  1.0000000E+04; -4.2646714E-03;  0.0000000E+00; -4.5933430E-03;  1.0100106E+02;
  1.0000000E-01;  9.9999998E-03; -3.8000000E-01;502;  0.0000000E+00;  0.0000000E+00;  0.0000000E+00;  1.0000439E+03;  4.0000001E-01;  3.6443409E+01;0;  0.0000000E+00;  0.0000000E+00;  0.0000000E+00;0; -1.9470446E-02;  1.0000000E+04;  0.0000000E+00;  0.0000000E+00;  1.0000000E+04;  0.0000000E+00;  1.0000000E+04; -1.0286960E-02;  0.0000000E+00; -9.1834869E-03;  1.9121568E+02;
  1.0000000E-01;  9.9999998E-03; -3.6000001E-01;503;  0.0000000E+00;  0.0000000E+00;  0.0000000E+00;  1.0000772E+03;  4.0000001E-01;  6.3998180E+01;0;  0.0000000E+00;  0.0000000E+00;  0.0000000E+00;0; -3.4110032E-02;  1.0000000E+04;  0.0000000E+00;  0.0000000E+00;  1.0000000E+04;  0.0000000E+00;  1.0000000E+04; -2.0833172E-02;  0.0000000E+00; -1.3276861E-02;  2.8185834E+02;
  1.2000000E-01;  9.9999998E-03; -4.0000001E-01;511;  0.0000000E+00;  0.0000000E+00;  0.0000000E+00;  1.0000245E+03;  4.0000001E-01;  2.0246338E+01;0;  0.0000000E+00;  0.0000000E+00;  0.0000000E+00;0; -1.0496849E-02;  1.0000000E+04;  0.0000000E+00;  0.0000000E+00;  1.0000000E+04;  0.0000000E+00;  1.0000000E+04; -5.6140674E-03;  0.0000000E+00; -4.8827822E-03;  1.8935973E+02;
  1.2000000E-01;  9.9999998E-03; -3.8000000E-01;512;  0.0000000E+00;  0.0000000E+00;  0.0000000E+00;  1.0000536E+03;  4.0000001E-01;  4.4443180E+01;0;  0.0000000E+00;  0.0000000E+00;  0.0000000E+00;0; -2.3036487E-02;  1.0000000E+04;  0.0000000E+00;  0.0000000E+00;  1.0000000E+04;  0.0000000E+00;  1.0000000E+04; -1.3316507E-02;  0.0000000E+00; -9.7199799E-03;  2.3314626E+02;
  1.2000000E-01;  9.9999998E-03; -3.6000001E-01;513;  0.0000000E+00;  0.0000000E+00;  0.0000000E+00;  1.0000943E+03;  4.0000001E-01;  7.8121239E+01;0;  0.0000000E+00;  0.0000000E+00;  0.0000000E+00;0; -4.0511481E-02;  1.0000000E+04;  0.0000000E+00;  0.0000000E+00;  1.0000000E+04;  0.0000000E+00;  1.0000000E+04; -2.6495742E-02;  0.0000000E+00; -1.4015738E-02;  3.3344998E+02;
  1.4000000E-01;  9.9999998E-03; -4.0000001E-01;521;  0.0000000E+00;  0.0000000E+00;  0.0000000E+00;  1.0000318E+03;  4.0000001E-01;  2.6369621E+01;0;  0.0000000E+00;  0.0000000E+00;  0.0000000E+00;0; -1.3356723E-02;  1.0000000E+04;  0.0000000E+00;  0.0000000E+00;  1.0000000E+04;  0.0000000E+00;  1.0000000E+04; -7.9093082E-03;  0.0000000E+00; -5.4474152E-03;  5.5176654E+02;
  1.4000000E-01;  9.9999998E-03; -3.8000000E-01;522;  0.0000000E+00;  0.0000000E+00;  0.0000000E+00;  1.0000695E+03;  4.0000001E-01;  5.7578609E+01;0;  0.0000000E+00;  0.0000000E+00;  0.0000000E+00;0; -2.9002279E-02;  1.0000000E+04;  0.0000000E+00;  0.0000000E+00;  1.0000000E+04;  0.0000000E+00;  1.0000000E+04; -1.8218633E-02;  0.0000000E+00; -1.0783646E-02;  4.7875397E+02;
  1.4000000E-01;  9.9999998E-03; -3.6000001E-01;523;  0.0000000E+00;  0.0000000E+00;  0.0000000E+00;  1.0001220E+03;  4.0000001E-01;  1.0103416E+02;0;  0.0000000E+00;  0.0000000E+00;  0.0000000E+00;0; -5.0867721E-02;  1.0000000E+04;  0.0000000E+00;  0.0000000E+00;  1.0000000E+04;  0.0000000E+00;  1.0000000E+04; -3.5333198E-02;  0.0000000E+00; -1.5534522E-02;  4.4202304E+02;
  1.6000000E-01;  9.9999998E-03; -4.0000001E-01;531;  0.0000000E+00;  0.0000000E+00;  0.0000000E+00;  1.0000450E+03;  4.0000001E-01;  3.7332272E+01;0;  0.0000000E+00;  0.0000000E+00;  0.0000000E+00;0; -1.8386601E-02;  1.0000000E+04;  0.0000000E+00;  0.0000000E+00;  1.0000000E+04;  0.0000000E+00;  1.0000000E+04; -1.1546903E-02;  0.0000000E+00; -6.8396972E-03;  1.5360406E+03;
  1.6000000E-01;  9.9999998E-03; -3.8000000E-01;532;  0.0000000E+00;  0.0000000E+00;  0.0000000E+00;  1.0000951E+03;  4.0000001E-01;  7.8812576E+01;0;  0.0000000E+00;  0.0000000E+00;  0.0000000E+00;0; -3.8641803E-02;  1.0000000E+04;  0.0000000E+00;  0.0000000E+00;  1.0000000E+04;  0.0000000E+00;  1.0000000E+04; -2.5445810E-02;  0.0000000E+00; -1.3195994E-02;  1.2702428E+03;
  1.6000000E-01;  9.9999998E-03; -3.6000001E-01;533;  0.0000000E+00;  0.0000000E+00;  0.0000000E+00;  1.0001642E+03;  4.0000001E-01;  1.3599614E+02;0;  0.0000000E+00;  0.0000000E+00;  0.0000000E+00;0; -6.6687301E-02;  1.0000000E+04;  0.0000000E+00;  0.0000000E+00;  1.0000000E+04;  0.0000000E+00;  1.0000000E+04; -4.7843646E-02;  0.0000000E+00; -1.8843658E-02;  6.0446649E+02;
  1.8000001E-01;  9.9999998E-03; -4.0000001E-01;541;  0.0000000E+00;  0.0000000E+00;  0.0000000E+00;  1.0000674E+03;  4.0000001E-01;  5.5800884E+01;0;  0.0000000E+00;  0.0000000E+00;  0.0000000E+00;0; -2.6804479E-02;  1.0000000E+04;  0.0000000E+00;  0.0000000E+00;  1.0000000E+04;  0.0000000E+00;  1.0000000E+04; -1.6578646E-02;  0.0000000E+00; -1.0225832E-02;  3.6822698E+03;
  1.8000001E-01;  9.9999998E-03; -3.8000000E-01;542;  0.0000000E+00;  0.0000000E+00;  0.0000000E+00;  1.0001329E+03;  4.0000001E-01;  1.1012032E+02;0;  0.0000000E+00;  0.0000000E+00;  0.0000000E+00;0; -5.2646704E-02;  1.0000000E+04;  0.0000000E+00;  0.0000000E+00;  1.0000000E+04;  0.0000000E+00;  1.0000000E+04; -3.4299351E-02;  0.0000000E+00; -1.8347353E-02;  2.9616768E+03;
  1.8000001E-01;  9.9999998E-03; -3.6000001E-01;543;  0.0000000E+00;  0.0000000E+00;  0.0000000E+00;  1.0002219E+03;  4.0000001E-01;  1.8389601E+02;0;  0.0000000E+00;  0.0000000E+00;  0.0000000E+00;0; -8.7943077E-02;  1.0000000E+04;  0.0000000E+00;  0.0000000E+00;  1.0000000E+04;  0.0000000E+00;  1.0000000E+04; -6.2478904E-02;  0.0000000E+00; -2.5464170E-02;  7.3248956E+02;
  2.0000000E-01;  9.9999998E-03; -3.8000000E-01;551;  0.0000000E+00;  0.0000000E+00;  0.0000000E+00;  1.0001843E+03;  4.0000001E-01;  1.5268701E+02;0;  0.0000000E+00;  0.0000000E+00;  0.0000000E+00;0; -7.1158268E-02;  1.0000000E+04;  0.0000000E+00;  0.0000000E+00;  1.0000000E+04;  0.0000000E+00;  1.0000000E+04; -4.2806674E-02;  0.0000000E+00; -2.8351594E-02;  5.5908721E+03;
  2.0000000E-01;  9.9999998E-03; -3.6000001E-01;552;  0.0000000E+00;  0.0000000E+00;  0.0000000E+00;  1.0002930E+03;  4.0000001E-01;  2.4275853E+02;0;  0.0000000E+00;  0.0000000E+00;  0.0000000E+00;0; -1.1330153E-01;  1.0000000E+04;  0.0000000E+00;  0.0000000E+00;  1.0000000E+04;  0.0000000E+00;  1.0000000E+04; -7.5825311E-02;  0.0000000E+00; -3.7476223E-02;  9.0853094E+02;
 -2.2000000E-01;  9.9999998E-03; -3.4000000E-01;2;  0.0000000E+00;  0.0000000E+00;  0.0000000E+00;  1.0000000E+03;  4.0000001E-01;  0.0000000E+00;0;  0.0000000E+00;  0.0000000E+00;  0.0000000E+00;0;  0.0000000E+00;  1.0000000E+04;  0.0000000E+00;  0.0000000E+00;  1.0000000E+04;  0.0000000E+00;  1.0000000E+04;  0.0000000E+00;  0.0000000E+00;  0.0000000E+00;  0.0000000E+00;
 -2.2000000E-01;  9.9999998E-03; -3.1999999E-01;3;  0.0000000E+00;  0.0000000E+00;  0.0000000E+00;  1.0000000E+03;  4.0000001E-01;  0.0000000E+00;0;  0.0000000E+00;  0.0000000E+00;  0.0000000E+00;0;  0.0000000E+00;  1.0000000E+04;  0.0000000E+00;  0.0000000E+00;  1.0000000E+04;  0.0000000E+00;  1.0000000E+04;  0.0000000E+00;  0.0000000E+00;  0.0000000E+00;  0.0000000E+00;
 -2.2000000E-01;  9.9999998E-03; -3.0000001E-01;4;  0.0000000E+00;  0.0000000E+00;  0.0000000E+00;  1.0000000E+03;  4.0000001E-01;  0.0000000E+00;0;  0.0000000E+00;  0.0000000E+00;  0.0000000E+00;0;  0.0000000E+00;  1.0000000E+04;  0.0000000E+00;  0.0000000E+00;  1.0000000E+04;  0.0000000E+00;  1.0000000E+04;  0.0000000E+00;  0.0000000E+00;  0.0000000E+00;  0.0000000E+00;
 -2.2000000E-01;  9.9999998E-03; -2.8000000E-01;5;  0.0000000E+00;  0.0000000E+00;  0.0000000E+00;  1.0000000E+03;  4.0000001E-01;  0.0000000E+00;0;  0.0000000E+00;  0.0000000E+00;  0.0000000E+00;0;  0.0000000E+00;  1.0000000E+04;  0.0000000E+00;  0.0000000E+00;  1.0000000E+04;  0.0000000E+00;  1.0000000E+04;  0.0000000E+00;  0.0000000E+00;  0.0000000E+00;  0.0000000E+00;
 -2.2000000E-01;  9.9999998E-03; -2.5999999E-01;6;  0.0000000E+00;  0.0000000E+00;  0.0000000E+00;  1.0000000E+03;  4.0000001E-01;  0.0000000E+00;0;  0.0000000E+00;  0.0000000E+00;  0.0000000E+00;0;  0.0000000E+00;  1.0000000E+04;  0.0000000E+00;  0.0000000E+00;  1.0000000E+04;  0.0000000E+00;  1.0000000E+04;  0.0000000E+00;  0.0000000E+00;  0.0000000E+00;  0.0000000E+00;
 -2.2000000E-01;  9.9999998E-03; -2.3999999E-01;7;  0.0000000E+00;  0.0000000E+00;  0.0000000E+00;  1.0000000E+03;  4.0000001E-01;  0.0000000E+00;0;  0.0000000E+00;  0.0000000E+00;  0.0000000E+00;0;  0.0000000E+00;  1.0000000E+04;  0.0000000E+00;  0.0000000E+00;  1.0000000E+04;  0.0000000E+00;  1.0000000E+04;  0.0000000E+00;  0.0000000E+00;  0.0000000E+00;  0.0000000E+00;
 -2.2000000E-01;  9.9999998E-03; -2.2000000E-01;8;  0.0000000E+00;  0.0000000E+00;  0.0000000E+00;  1.0000000E+03;  4.0000001E-01;  0.0000000E+00;0;  0.0000000E+00;  0.0000000E+00;  0.0000000E+00;0;  0.0000000E+00;  1.0000000E+04;  0.0000000E+00;  0.0000000E+00;  1.0000000E+04;  0.0000000E+00;  1.0000000E+04;  0.0000000E+00;  0.0000000E+00;  0.0000000E+00;  0.0000000E+00;
 -2.2000000E-01;  9.9999998E-03; -2.0000000E-01;9;  0.0000000E+00;  0.0000000E+00;  0.0000000E+00;  1.0000000E+03;  4.0000001E-01;  0.0000000E+00;0;  0.0000000E+00;  0.0000000E+00;  0.0000000E+00;0;  0.0000000E+00;  1.0000000E+04;  0.0000000E+00;  0.0000000E+00;  1.0000000E+04;  0.0000000E+00;  1.0000000E+04;  0.0000000E+00;  0.0000000E+00;  0.0000000E+00;  0.0000000E+00;
 -2.0000000E-01;  9.9999998E-03; -3.4000000E-01;42;  0.0000000E+00;  0.0000000E+00;  0.0000000E+00;  1.0000000E+03;  4.0000001E-01;  0.0000000E+00;0;  0.0000000E+00;  0.0000000E+00;  0.0000000E+00;0;  0.0000000E+00;  1.0000000E+04;  0.0000000E+00;  0.0000000E+00;  1.0000000E+04;  0.0000000E+00;  1.0000000E+04;  0.0000000E+00;  0.0000000E+00;  0.0000000E+00;  0.0000000E+00;
 -2.0000000E-01;  9.9999998E-03; -3.1999999E-01;43;  0.0000000E+00;  0.0000000E+00;  0.0000000E+00;  1.0000000E+03;  4.0000001E-01;  0.0000000E+00;0;  0.0000000E+00;  0.0000000E+00;  0.0000000E+00;0;  0.0000000E+00;  1.0000000E+04;  0.0000000E+00;  0.0000000E+00;  1.0000000E+04;  0.0000000E+00;  1.0000000E+04;  0.0000000E+00;  0.0000000E+00;  0.0000000E+00;  0.0000000E+00;
 -2.0000000E-01;  9.9999998E-03; -3.0000001E-01;44;  0.0000000E+00;  0.0000000E+00;  0.0000000E+00;  1.0000000E+03;  4.0000001E-01;  0.0000000E+00;0;  0.0000000E+00;  0.0000000E+00;  0.0000000E+00;0;  0.0000000E+00;  1.0000000E+04;  0.0000000E+00;  0.0000000E+00;  1.0000000E+04;  0.0000000E+00;  1.0000000E+04;  0.0000000E+00;  0.0000000E+00;  0.0000000E+00;  0.0000000E+00;
 -2.0000000E-01;  9.9999998E-03; -2.8000000E-01;45;  0.0000000E+00;  0.0000000E+00;  0.0000000E+00;  1.0000000E+03;  4.0000001E-01;  0.0000000E+00;0;  0.0000000E+00;  0.0000000E+00;  0.0000000E+00;0;  0.0000000E+00;  1.0000000E+04;  0.0000000E+00;  0.0000000E+00;  1.0000000E+04;  0.0000000E+00;  1.0000000E+04;  0.0000000E+00;  0.0000000E+00;  0.0000000E+00;  0.0000000E+00;
 -2.0000000E-01;  9.9999998E-03; -2.5999999E-01;46;  0.0000000E+00;  0.0000000E+00;  0.0000000E+00;  1.0000000E+03;  4.0000001E-01;  0.0000000E+00;0;  0.0000000E+00;  0.0000000E+00;  0.0000000E+00;0;  0.0000000E+00;  1.0000000E+04;  0.0000000E+00;  0.0000000E+00;  1.0000000E+04;  0.0000000E+00;  1.0000000E+04;  0.0000000E+00;  0.0000000E+00;  0.0000000E+00;  0.0000000E+00;
 -2.0000000E-01;  9.9999998E-03; -2.3999999E-01;47;  0.0000000E+00;  0.0000000E+00;  0.0000000E+00;  1.0000000E+03;  4.0000001E-01;  0.0000000E+00;0;  0.0000000E+00;  0.0000000E+00;  0.0000000E+00;0;  0.0000000E+00;  1.0000000E+04;  0.0000000E+00;  0.0000000E+00;  1.0000000E+04;  0.0000000E+00;  1.0000000E+04;  0.0000000E+00;  0.0000000E+00;  0.0000000E+00;  0.0000000E+00;
 -2.0000000E-01;  9.9999998E-03; -2.2000000E-01;48;  0.0000000E+00;  0.0000000E+00;  0.0000000E+00;  1.0000000E+03;  4.0000001E-01;  0.0000000E+00;0;  0.0000000E+00;  0.0000000E+00;  0.0000000E+00;0;  0.0000000E+00;  1.0000000E+04;  0.0000000E+00;  0.0000000E+00;  1.0000000E+04;  0.0000000E+00;  1.0000000E+04;  0.0000000E+00;  0.0000000E+00;  0.0000000E+00;  0.0000000E+00;
 -2.0000000E-01;  9.9999998E-03; -2.0000000E-01;49;  0.0000000E+00;  0.0000000E+00;  0.0000000E+00;  1.0000000E+03;  4.0000001E-01;  0.0000000E+00;0;  0.0000000E+00;  0.0000000E+00;  0.0000000E+00;0;  0.0000000E+00;  1.0000000E+04;  0.0000000E+00;  0.0000000E+00;  1.0000000E+04;  0.0000000E+00;  1.0000000E+04;  0.0000000E+00;  0.0000000E+00;  0.0000000E+00;  0.0000000E+00;
 -1.8000001E-01;  9.9999998E-03; -3.4000000E-01;83;  0.0000000E+00;  0.0000000E+00;  0.0000000E+00;  1.0000000E+03;  4.0000001E-01;  0.0000000E+00;0;  0.0000000E+00;  0.0000000E+00;  0.0000000E+00;0;  0.0000000E+00;  1.0000000E+04;  0.0000000E+00;  0.0000000E+00;  1.0000000E+04;  0.0000000E+00;  1.0000000E+04;  0.0000000E+00;  0.0000000E+00;  0.0000000E+00;  0.0000000E+00;
 -1.8000001E-01;  9.9999998E-03; -3.1999999E-01;84;  0.0000000E+00;  0.0000000E+00;  0.0000000E+00;  1.0000000E+03;  4.0000001E-01;  0.0000000E+00;0;  0.0000000E+00;  0.0000000E+00;  0.0000000E+00;0;  0.0000000E+00;  1.0000000E+04;  0.0000000E+00;  0.0000000E+00;  1.0000000E+04;  0.0000000E+00;  1.0000000E+04;  0.0000000E+00;  0.0000000E+00;  0.0000000E+00;  0.0000000E+00;
 -1.8000001E-01;  9.9999998E-03; -3.0000001E-01;85;  0.0000000E+00;  0.0000000E+00;  0.0000000E+00;  1.0000000E+03;  4.0000001E-01;  0.0000000E+00;0;  0.0000000E+00;  0.0000000E+00;  0.0000000E+00;0;  0.0000000E+00;  1.0000000E+04;  0.0000000E+00;  0.0000000E+00;  1.0000000E+04;  0.0000000E+00;  1.0000000E+04;  0.0000000E+00;  0.0000000E+00;  0.0000000E+00;  0.0000000E+00;
 -1.8000001E-01;  9.9999998E-03; -2.8000000E-01;86;  0.0000000E+00;  0.0000000E+00;  0.0000000E+00;  1.0000000E+03;  4.0000001E-01;  0.0000000E+00;0;  0.0000000E+00;  0.0000000E+00;  0.0000000E+00;0;  0.0000000E+00;  1.0000000E+04;  0.0000000E+00;  0.0000000E+00;  1.0000000E+04;  0.0000000E+00;  1.0000000E+04;  0.0000000E+00;  0.0000000E+00;  0.0000000E+00;  0.0000000E+00;
 -1.8000001E-01;  9.9999998E-03; -2.5999999E-01;87;  0.0000000E+00;  0.0000000E+00;  0.0000000E+00;  1.0000000E+03;  4.0000001E-01;  0.0000000E+00;0;  0.0000000E+00;  0.0000000E+00;  0.0000000E+00;0;  0.0000000E+00;  1.0000000E+04;  0.0000000E+00;  0.0000000E+00;  1.0000000E+04;  0.0000000E+00;  1.0000000E+04;  0.0000000E+00;  0.0000000E+00;  0.0000000E+00;  0.0000000E+00;
 -1.8000001E-01;  9.9999998E-03; -2.3999999E-01;88;  0.0000000E+00;  0.0000000E+00;  0.0000000E+00;  1.0000000E+03;  4.0000001E-01;  0.0000000E+00;0;  0.0000000E+00;  0.0000000E+00;  0.0000000E+00;0;  0.0000000E+00;  1.0000000E+04;  0.0000000E+00;  0.0000000E+00;  1.0000000E+04;  0.0000000E+00;  1.0000000E+04;  0.0000000E+00;  0.0000000E+00;  0.0000000E+00;  0.0000000E+00;
 -1.8000001E-01;  9.9999998E-03; -2.2000000E-01;89;  0.0000000E+00;  0.0000000E+00;  0.0000000E+00;  1.0000000E+03;  4.0000001E-01;  0.0000000E+00;0;  0.0000000E+00;  0.0000000E+00;  0.0000000E+00;0;  0.0000000E+00;  1.0000000E+04;  0.0000000E+00;  0.0000000E+00;  1.0000000E+04;  0.0000000E+00;  1.0000000E+04;  0.0000000E+00;  0.0000000E+00;  0.0000000E+00;  0.0000000E+00;
 -1.8000001E-01;  9.9999998E-03; -2.0000000E-01;90;  0.0000000E+00;  0.0000000E+00;  0.0000000E+00;  1.0000000E+03;  4.0000001E-01;  0.0000000E+00;0;  0.0000000E+00;  0.0000000E+00;  0.0000000E+00;0;  0.0000000E+00;  1.0000000E+04;  0.0000000E+00;  0.0000000E+00;  1.0000000E+04;  0.0000000E+00;  1.0000000E+04;  0.0000000E+00;  0.0000000E+00;  0.0000000E+00;  0.0000000E+00;
 -1.6000000E-01;  9.9999998E-03; -3.4000000E-01;124;  0.0000000E+00;  0.0000000E+00;  0.0000000E+00;  1.0000000E+03;  4.0000001E-01;  0.0000000E+00;0;  0.0000000E+00;  0.0000000E+00;  0.0000000E+00;0;  0.0000000E+00;  1.0000000E+04;  0.0000000E+00;  0.0000000E+00;  1.0000000E+04;  0.0000000E+00;  1.0000000E+04;  0.0000000E+00;  0.0000000E+00;  0.0000000E+00;  0.0000000E+00;
 -1.6000000E-01;  9.9999998E-03; -3.1999999E-01;125;  0.0000000E+00;  0.0000000E+00;  0.0000000E+00;  1.0000000E+03;  4.0000001E-01;  0.0000000E+00;0;  0.0000000E+00;  0.0000000E+00;  0.0000000E+00;0; -3.7529915E-07;  1.0000000E+04;  0.0000000E+00;  0.0000000E+00;  1.0000000E+04;  0.0000000E+00;  1.0000000E+04; -3.4436468E-07;  0.0000000E+00; -3.0934476E-08;  5.0319202E-04;
 -1.6000000E-01;  9.9999998E-03; -3.0000001E-01;126;  0.0000000E+00;  0.0000000E+00;  0.0000000E+00;  1.0000000E+03;  4.0000001E-01;  0.0000000E+00;0;  0.0000000E+00;  0.0000000E+00;  0.0000000E+00;0; -2.3832063E-06;  1.0000000E+04;  0.0000000E+00;  0.0000000E+00;  1.0000000E+04;  0.0000000E+00;  1.0000000E+04; -2.2786735E-06;  0.0000000E+00; -1.0453279E-07;  1.5687372E-03;
 -1.6000000E-01;  9.9999998E-03; -2.8000000E-01;127;  0.0000000E+00;  0.0000000E+00;  0.0000000E+00;  1.0000000E+03;  4.0000001E-01;  0.0000000E+00;0;  0.0000000E+00;  0.0000000E+00;  0.0000000E+00;0; -5.6374206E-06;  1.0000000E+04;  0.0000000E+00;  0.0000000E+00;  1.0000000E+04;  0.0000000E+00;  1.0000000E+04; -5.5424839E-06;  0.0000000E+00; -9.4936851E-08;  9.0017734E-04;
 -1.6000000E-01;  9.9999998E-03; -2.5999999E-01;128;  0.0000000E+00;  0.0000000E+00;  0.0000000E+00;  1.0000000E+03;  4.0000001E-01;  0.0000000E+00;0;  0.0000000E+00;  0.0000000E+00;  0.0000000E+00;0; -8.4390231E-06;  1.0000000E+04;  0.0000000E+00;  0.0000000E+00;  1.0000000E+04;  0.0000000E+00;  1.0000000E+04; -8.4272542E-06;  0.0000000E+00; -1.1769290E-08;  1.1119947E-03;
 -1.6000000E-01;  9.9999998E-03; -2.3999999E-01;129;  0.0000000E+00;  0.0000000E+00;  0.0000000E+00;  1.0000000E+03;  4.0000001E-01;  0.0000000E+00;0;  0.0000000E+00;  0.0000000E+00;  0.0000000E+00;0; -1.0024958E-05;  1.0000000E+04;  0.0000000E+00;  0.0000000E+00;  1.0000000E+04;  0.0000000E+00;  1.0000000E+04; -1.0048003E-05;  0.0000000E+00;  2.3044995E-08;  1.9820451E-03;
 -1.6000000E-01;  9.9999998E-03; -2.2000000E-01;130;  0.0000000E+00;  0.0000000E+00;  0.0000000E+00;  1.0000000E+03;  4.0000001E-01;  0.0000000E+00;0;  0.0000000E+00;  0.0000000E+00;  0.0000000E+00;0; -1.1132469E-05;  1.0000000E+04;  0.0000000E+00;  0.0000000E+00;  1.0000000E+04;  0.0000000E+00;  1.0000000E+04; -1.1159847E-05;  0.0000000E+00;  2.7378899E-08;  2.2268451E-03;
 -1.6000000E-01;  9.9999998E-03; -2.0000000E-01;131;  0.0000000E+00;  0.0000000E+00;  0.0000000E+00;  1.0000000E+03;  4.0000001E-01;  0.0000000E+00;0;  0.0000000E+00;  0.0000000E+00;  0.0000000E+00;0; -1.1981213E-05;  1.0000000E+04;  0.0000000E+00;  0.0000000E+00;  1.0000000E+04;  0.0000000E+00;  1.0000000E+04; -1.2009251E-05;  0.0000000E+00;  2.8037924E-08;  2.3624168E-03;
 -1.4000000E-01;  9.9999998E-03; -3.4000000E-01;165;  0.0000000E+00;  0.0000000E+00;  0.0000000E+00;  1.0000000E+03;  4.0000001E-01;  0.0000000E+00;0;  0.0000000E+00;  0.0000000E+00;  0.0000000E+00;0; -1.8043680E-05;  1.0000000E+04;  0.0000000E+00;  0.0000000E+00;  1.0000000E+04;  0.0000000E+00;  1.0000000E+04; -1.5160644E-05;  0.0000000E+00; -2.8830364E-06;  4.9261220E-02;
 -1.4000000E-01;  9.9999998E-03; -3.1999999E-01;166;  0.0000000E+00;  0.0000000E+00;  0.0000000E+00;  1.0000000E+03;  4.0000001E-01;  0.0000000E+00;0;  0.0000000E+00;  0.0000000E+00;  0.0000000E+00;0; -5.8516605E-05;  1.0000000E+04;  0.0000000E+00;  0.0000000E+00;  1.0000000E+04;  0.0000000E+00;  1.0000000E+04; -5.2272200E-05;  0.0000000E+00; -6.2444069E-06;  1.0450992E-01;
 -1.4000000E-01;  9.9999998E-03; -3.0000001E-01;167;  0.0000000E+00;  0.0000000E+00;  0.0000000E+00;  1.0000001E+03;  4.0000001E-01;  9.8762624E-02;0;  0.0000000E+00;  0.0000000E+00;  0.0000000E+00;0; -1.2457266E-04;  1.0000000E+04;  0.0000000E+00;  0.0000000E+00;  1.0000000E+04;  0.0000000E+00;  1.0000000E+04; -1.1646442E-04;  0.0000000E+00; -8.1082362E-06;  1.2720454E-01;
 -1.4000000E-01;  9.9999998E-03; -2.8000000E-01;168;  0.0000000E+00;  0.0000000E+00;  0.0000000E+00;  1.0000003E+03;  4.0000001E-01;  2.9628786E-01;0;  0.0000000E+00;  0.0000000E+00;  0.0000000E+00;0; -2.0610190E-04;  1.0000000E+04;  0.0000000E+00;  0.0000000E+00;  1.0000000E+04;  0.0000000E+00;  1.0000000E+04; -1.9903999E-04;  0.0000000E+00; -7.0619085E-06;  9.3938477E-02;
 -1.4000000E-01;  9.9999998E-03; -2.5999999E-01;169;  0.0000000E+00;  0.0000000E+00;  0.0000000E+00;  1.0000005E+03;  4.0000001E-01;  3.9505050E-01;0;  0.0000000E+00;  0.0000000E+00;  0.0000000E+00;0; -2.8665087E-04;  1.0000000E+04;  0.0000000E+00;  0.0000000E+00;  1.0000000E+04;  0.0000000E+00;  1.0000000E+04; -2.8312553E-04;  0.0000000E+00; -3.5253495E-06;  1.6699376E-02;
 -1.4000000E-01;  9.9999998E-03; -2.3999999E-01;170;  0.0000000E+00;  0.0000000E+00;  0.0000000E+00;  1.0000006E+03;  4.0000001E-01;  4.9381313E-01;0;  0.0000000E+00;  0.0000000E+00;  0.0000000E+00;0; -3.5269238E-04;  1.0000000E+04;  0.0000000E+00;  0.0000000E+00;  1.0000000E+04;  0.0000000E+00;  1.0000000E+04; -3.5320749E-04;  0.0000000E+00;  5.1511182E-07;  6.6904299E-02;
 -1.4000000E-01;  9.9999998E-03; -2.2000000E-01;171;  0.0000000E+00;  0.0000000E+00;  0.0000000E+00;  1.0000007E+03;  4.0000001E-01;  5.9257573E-01;0;  0.0000000E+00;  0.0000000E+00;  0.0000000E+00;0; -3.9978363E-04;  1.0000000E+04;  0.0000000E+00;  0.0000000E+00;  1.0000000E+04;  0.0000000E+00;  1.0000000E+04; -4.0266916E-04;  0.0000000E+00;  2.8855377E-06;  1.1703774E-01;
 -1.4000000E-01;  9.9999998E-03; -2.0000000E-01;172;  0.0000000E+00;  0.0000000E+00;  0.0000000E+00;  1.0000008E+03;  4.0000001E-01;  6.9133836E-01;0;  0.0000000E+00;  0.0000000E+00;  0.0000000E+00;0; -4.3220649E-04;  1.0000000E+04;  0.0000000E+00;  0.0000000E+00;  1.0000000E+04;  0.0000000E+00;  1.0000000E+04; -4.3556371E-04;  0.0000000E+00;  3.3572164E-06;  1.3014488E-01;
 -1.2000000E-01;  9.9999998E-03; -3.4000000E-01;206;  0.0000000E+00;  0.0000000E+00;  0.0000000E+00;  1.0000004E+03;  4.0000001E-01;  2.9628786E-01;0;  0.0000000E+00;  0.0000000E+00;  0.0000000E+00;0; -2.2168069E-04;  1.0000000E+04;  0.0000000E+00;  0.0000000E+00;  1.0000000E+04;  0.0000000E+00;  1.0000000E+04; -1.8062982E-04;  0.0000000E+00; -4.1050866E-05;  7.0842940E-01;
 -1.2000000E-01;  9.9999998E-03; -3.1999999E-01;207;  0.0000000E+00;  0.0000000E+00;  0.0000000E+00;  1.0000009E+03;  4.0000001E-01;  6.9133836E-01;0;  0.0000000E+00;  0.0000000E+00;  0.0000000E+00;0; -4.6889856E-04;  1.0000000E+04;  0.0000000E+00;  0.0000000E+00;  1.0000000E+04;  0.0000000E+00;  1.0000000E+04; -4.1033639E-04;  0.0000000E+00; -5.8562175E-05;  9.8389339E-01;
 -1.2000000E-01;  9.9999998E-03; -3.0000001E-01;208;  0.0000000E+00;  0.0000000E+00;  0.0000000E+00;  1.0000016E+03;  4.0000001E-01;  1.2839141E+00;0;  0.0000000E+00;  0.0000000E+00;  0.0000000E+00;0; -8.0760580E-04;  1.0000000E+04;  0.0000000E+00;  0.0000000E+00;  1.0000000E+04;  0.0000000E+00;  1.0000000E+04; -7.4461912E-04;  0.0000000E+00; -6.2986670E-05;  1.0030614E+00;
 -1.2000000E-01;  9.9999998E-03; -2.8000000E-01;209;  0.0000000E+00;  0.0000000E+00;  0.0000000E+00;  1.0000023E+03;  4.0000001E-01;  1.8764899E+00;0;  0.0000000E+00;  0.0000000E+00;  0.0000000E+00;0; -1.1987854E-03;  1.0000000E+04;  0.0000000E+00;  0.0000000E+00;  1.0000000E+04;  0.0000000E+00;  1.0000000E+04; -1.1471059E-03;  0.0000000E+00; -5.1679461E-05;  7.2965497E-01;
 -1.2000000E-01;  9.9999998E-03; -2.5999999E-01;210;  0.0000000E+00;  0.0000000E+00;  0.0000000E+00;  1.0000030E+03;  4.0000001E-01;  2.4690657E+00;0;  0.0000000E+00;  0.0000000E+00;  0.0000000E+00;0; -1.5844663E-03;  1.0000000E+04;  0.0000000E+00;  0.0000000E+00;  1.0000000E+04;  0.0000000E+00;  1.0000000E+04; -1.5564503E-03;  0.0000000E+00; -2.8016060E-05;  2.3478997E-01;
 -1.2000000E-01;  9.9999998E-03; -2.3999999E-01;211;  0.0000000E+00;  0.0000000E+00;  0.0000000E+00;  1.0000037E+03;  4.0000001E-01;  3.0616415E+00;0;  0.0000000E+00;  0.0000000E+00;  0.0000000E+00;0; -1.9163890E-03;  1.0000000E+04;  0.0000000E+00;  0.0000000E+00;  1.0000000E+04;  0.0000000E+00;  1.0000000E+04; -1.9153804E-03;  0.0000000E+00; -1.0086228E-06;  3.0992880E-01;
 -1.2000000E-01;  9.9999998E-03; -2.2000000E-01;212;  0.0000000E+00;  0.0000000E+00;  0.0000000E+00;  1.0000042E+03;  4.0000001E-01;  3.4566917E+00;0;  0.0000000E+00;  0.0000000E+00;  0.0000000E+00;0; -2.1750557E-03;  1.0000000E+04;  0.0000000E+00;  0.0000000E+00;  1.0000000E+04;  0.0000000E+00;  1.0000000E+04; -2.1945317E-03;  0.0000000E+00;  1.9476092E-05;  7.2131979E-01;
 -1.2000000E-01;  9.9999998E-03; -2.0000000E-01;213;  0.0000000E+00;  0.0000000E+00;  0.0000000E+00;  1.0000045E+03;  4.0000001E-01;  3.7529798E+00;0;  0.0000000E+00;  0.0000000E+00;  0.0000000E+00;0; -2.3647922E-03;  1.0000000E+04;  0.0000000E+00;  0.0000000E+00;  1.0000000E+04;  0.0000000E+00;  1.0000000E+04; -2.3941072E-03;  0.0000000E+00;  2.9314991E-05;  9.2503506E-01;
 -1.0000000E-01;  9.9999998E-03; -3.4000000E-01;247;  0.0000000E+00;  0.0000000E+00;  0.0000000E+00;  1.0000020E+03;  4.0000001E-01;  1.5802020E+00;0;  0.0000000E+00;  0.0000000E+00;  0.0000000E+00;0; -1.0023320E-03;  1.0000000E+04;  0.0000000E+00;  0.0000000E+00;  1.0000000E+04;  0.0000000E+00;  1.0000000E+04; -7.9475302E-04;  0.0000000E+00; -2.0757894E-04;  3.5954466E+00;
 -1.0000000E-01;  9.9999998E-03; -3.1999999E-01;248;  0.0000000E+00;  0.0000000E+00;  0.0000000E+00;  1.0000035E+03;  4.0000001E-01;  2.8641162E+00;0;  0.0000000E+00;  0.0000000E+00;  0.0000000E+00;0; -1.7999031E-03;  1.0000000E+04;  0.0000000E+00;  0.0000000E+00;  1.0000000E+04;  0.0000000E+00;  1.0000000E+04; -1.5465899E-03;  0.0000000E+00; -2.5331319E-04;  4.2826905E+00;
 -1.0000000E-01;  9.9999998E-03; -3.0000001E-01;249;  0.0000000E+00;  0.0000000E+00;  0.0000000E+00;  1.0000055E+03;  4.0000001E-01;  4.5430808E+00;0;  0.0000000E+00;  0.0000000E+00;  0.0000000E+00;0; -2.8259156E-03;  1.0000000E+04;  0.0000000E+00;  0.0000000E+00;  1.0000000E+04;  0.0000000E+00;  1.0000000E+04; -2.5745817E-03;  0.0000000E+00; -2.5133402E-04;  4.0607300E+00;
 -1.0000000E-01;  9.9999998E-03; -2.8000000E-01;250;  0.0000000E+00;  0.0000000E+00;  0.0000000E+00;  1.0000078E+03;  4.0000001E-01;  6.5183330E+00;0;  0.0000000E+00;  0.0000000E+00;  0.0000000E+00;0; -3.9769220E-03;  1.0000000E+04;  0.0000000E+00;  0.0000000E+00;  1.0000000E+04;  0.0000000E+00;  1.0000000E+04; -3.7777510E-03;  0.0000000E+00; -1.9917118E-04;  2.9031413E+00;
 -1.0000000E-01;  9.9999998E-03; -2.5999999E-01;251;  0.0000000E+00;  0.0000000E+00;  0.0000000E+00;  1.0000101E+03;  4.0000001E-01;  8.2960606E+00;0;  0.0000000E+00;  0.0000000E+00;  0.0000000E+00;0; -5.1027043E-03;  1.0000000E+04;  0.0000000E+00;  0.0000000E+00;  1.0000000E+04;  0.0000000E+00;  1.0000000E+04; -4.9941964E-03;  0.0000000E+00; -1.0850815E-04;  1.0509456E+00;
 -1.0000000E-01;  9.9999998E-03; -2.3999999E-01;252;  0.0000000E+00;  0.0000000E+00;  0.0000000E+00;  1.0000120E+03;  4.0000001E-01;  9.9750252E+00;0;  0.0000000E+00;  0.0000000E+00;  0.0000000E+00;0; -6.0833166E-03;  1.0000000E+04;  0.0000000E+00;  0.0000000E+00;  1.0000000E+04;  0.0000000E+00;  1.0000000E+04; -6.0760812E-03;  0.0000000E+00; -7.2353646E-06;  9.6084273E-01;
 -1.0000000E-01;  9.9999998E-03; -2.2000000E-01;253;  0.0000000E+00;  0.0000000E+00;  0.0000000E+00;  1.0000134E+03;  4.0000001E-01;  1.1160176E+01;0;  0.0000000E+00;  0.0000000E+00;  0.0000000E+00;0; -6.8704137E-03;  1.0000000E+04;  0.0000000E+00;  0.0000000E+00;  1.0000000E+04;  0.0000000E+00;  1.0000000E+04; -6.9438326E-03;  0.0000000E+00;  7.3419120E-05;  2.5501761E+00;
 -1.0000000E-01;  9.9999998E-03; -2.0000000E-01;254;  0.0000000E+00;  0.0000000E+00;  0.0000000E+00;  1.0000146E+03;  4.0000001E-01;  1.2147802E+01;0;  0.0000000E+00;  0.0000000E+00;  0.0000000E+00;0; -7.4695596E-03;  1.0000000E+04;  0.0000000E+00;  0.0000000E+00;  1.0000000E+04;  0.0000000E+00;  1.0000000E+04; -7.5883423E-03;  0.0000000E+00;  1.1878255E-04;  3.4496722E+00;
 -7.9999998E-02;  9.9999998E-03; -3.4000000E-01;288;  0.0000000E+00;  0.0000000E+00;  0.0000000E+00;  1.0000057E+03;  4.0000001E-01;  4.7406058E+00;0;  0.0000000E+00;  0.0000000E+00;  0.0000000E+00;0; -2.8975033E-03;  1.0000000E+04;  0.0000000E+00;  0.0000000E+00;  1.0000000E+04;  0.0000000E+00;  1.0000000E+04; -2.2422583E-03;  0.0000000E+00; -6.5524509E-04;  1.1421639E+01;
 -7.9999998E-02;  9.9999998E-03; -3.1999999E-01;289;  0.0000000E+00;  0.0000000E+00;  0.0000000E+00;  1.0000095E+03;  4.0000001E-01;  7.9010100E+00;0;  0.0000000E+00;  0.0000000E+00;  0.0000000E+00;0; -4.7914702E-03;  1.0000000E+04;  0.0000000E+00;  0.0000000E+00;  1.0000000E+04;  0.0000000E+00;  1.0000000E+04; -4.0500863E-03;  0.0000000E+00; -7.4138382E-04;  1.2642091E+01;
 -7.9999998E-02;  9.9999998E-03; -3.0000001E-01;290;  0.0000000E+00;  0.0000000E+00;  0.0000000E+00;  1.0000142E+03;  4.0000001E-01;  1.1752752E+01;0;  0.0000000E+00;  0.0000000E+00;  0.0000000E+00;0; -7.1553267E-03;  1.0000000E+04;  0.0000000E+00;  0.0000000E+00;  1.0000000E+04;  0.0000000E+00;  1.0000000E+04; -6.4498587E-03;  0.0000000E+00; -7.0546789E-04;  1.1539150E+01;
 -7.9999998E-02;  9.9999998E-03; -2.8000000E-01;291;  0.0000000E+00;  0.0000000E+00;  0.0000000E+00;  1.0000192E+03;  4.0000001E-01;  1.5900783E+01;0;  0.0000000E+00;  0.0000000E+00;  0.0000000E+00;0; -9.7603183E-03;  1.0000000E+04;  0.0000000E+00;  0.0000000E+00;  1.0000000E+04;  0.0000000E+00;  1.0000000E+04; -9.2131263E-03;  0.0000000E+00; -5.4719206E-04;  8.1490784E+00;
 -7.9999998E-02;  9.9999998E-03; -2.5999999E-01;292;  0.0000000E+00;  0.0000000E+00;  0.0000000E+00;  1.0000244E+03;  4.0000001E-01;  2.0147575E+01;0;  0.0000000E+00;  0.0000000E+00;  0.0000000E+00;0; -1.2286499E-02;  1.0000000E+04;  0.0000000E+00;  0.0000000E+00;  1.0000000E+04;  0.0000000E+00;  1.0000000E+04; -1.1990413E-02;  0.0000000E+00; -2.9608596E-04;  3.0807135E+00;
 -7.9999998E-02;  9.9999998E-03; -2.3999999E-01;293;  0.0000000E+00;  0.0000000E+00;  0.0000000E+00;  1.0000286E+03;  4.0000001E-01;  2.3703030E+01;0;  0.0000000E+00;  0.0000000E+00;  0.0000000E+00;0; -1.4488525E-02;  1.0000000E+04;  0.0000000E+00;  0.0000000E+00;  1.0000000E+04;  0.0000000E+00;  1.0000000E+04; -1.4468402E-02;  0.0000000E+00; -2.0123389E-05;  2.3575525E+00;
 -7.9999998E-02;  9.9999998E-03; -2.2000000E-01;294;  0.0000000E+00;  0.0000000E+00;  0.0000000E+00;  1.0000320E+03;  4.0000001E-01;  2.6468384E+01;0;  0.0000000E+00;  0.0000000E+00;  0.0000000E+00;0; -1.6274935E-02;  1.0000000E+04;  0.0000000E+00;  0.0000000E+00;  1.0000000E+04;  0.0000000E+00;  1.0000000E+04; -1.6478660E-02;  0.0000000E+00;  2.0372507E-04;  6.7247372E+00;
 -7.9999998E-02;  9.9999998E-03; -2.0000000E-01;295;  0.0000000E+00;  0.0000000E+00;  0.0000000E+00;  1.0000347E+03;  4.0000001E-01;  2.8739923E+01;0;  0.0000000E+00;  0.0000000E+00;  0.0000000E+00;0; -1.7659171E-02;  1.0000000E+04;  0.0000000E+00;  0.0000000E+00;  1.0000000E+04;  0.0000000E+00;  1.0000000E+04; -1.7996101E-02;  0.0000000E+00;  3.3692949E-04;  9.3146677E+00;
 -5.9999999E-02;  9.9999998E-03; -3.4000000E-01;329;  0.0000000E+00;  0.0000000E+00;  0.0000000E+00;  1.0000128E+03;  4.0000001E-01;  1.0567601E+01;0;  0.0000000E+00;  0.0000000E+00;  0.0000000E+00;0; -6.3741454E-03;  1.0000000E+04;  0.0000000E+00;  0.0000000E+00;  1.0000000E+04;  0.0000000E+00;  1.0000000E+04; -4.8119398E-03;  0.0000000E+00; -1.5622057E-03;  2.7442932E+01;
 -5.9999999E-02;  9.9999998E-03; -3.1999999E-01;330;  0.0000000E+00;  0.0000000E+00;  0.0000000E+00;  1.0000200E+03;  4.0000001E-01;  1.6493359E+01;0;  0.0000000E+00;  0.0000000E+00;  0.0000000E+00;0; -1.0043561E-02;  1.0000000E+04;  0.0000000E+00;  0.0000000E+00;  1.0000000E+04;  0.0000000E+00;  1.0000000E+04; -8.3463313E-03;  0.0000000E+00; -1.6972298E-03;  2.9207405E+01;
 -5.9999999E-02;  9.9999998E-03; -3.0000001E-01;331;  0.0000000E+00;  0.0000000E+00;  0.0000000E+00;  1.0000290E+03;  4.0000001E-01;  2.3999317E+01;0;  0.0000000E+00;  0.0000000E+00;  0.0000000E+00;0; -1.4542749E-02;  1.0000000E+04;  0.0000000E+00;  0.0000000E+00;  1.0000000E+04;  0.0000000E+00;  1.0000000E+04; -1.2965714E-02;  0.0000000E+00; -1.5770353E-03;  2.6103004E+01;
 -5.9999999E-02;  9.9999998E-03; -2.8000000E-01;332;  0.0000000E+00;  0.0000000E+00;  0.0000000E+00;  1.0000386E+03;  4.0000001E-01;  3.1999090E+01;0;  0.0000000E+00;  0.0000000E+00;  0.0000000E+00;0; -1.9436877E-02;  1.0000000E+04;  0.0000000E+00;  0.0000000E+00;  1.0000000E+04;  0.0000000E+00;  1.0000000E+04; -1.8232306E-02;  0.0000000E+00; -1.2045709E-03;  1.8270161E+01;
 -5.9999999E-02;  9.9999998E-03; -2.5999999E-01;333;  0.0000000E+00;  0.0000000E+00;  0.0000000E+00;  1.0000479E+03;  4.0000001E-01;  3.9603813E+01;0;  0.0000000E+00;  0.0000000E+00;  0.0000000E+00;0; -2.4131738E-02;  1.0000000E+04;  0.0000000E+00;  0.0000000E+00;  1.0000000E+04;  0.0000000E+00;  1.0000000E+04; -2.3488188E-02;  0.0000000E+00; -6.4354873E-04;  7.0197539E+00;
 -5.9999999E-02;  9.9999998E-03; -2.3999999E-01;334;  0.0000000E+00;  0.0000000E+00;  0.0000000E+00;  1.0000559E+03;  4.0000001E-01;  4.6319672E+01;0;  0.0000000E+00;  0.0000000E+00;  0.0000000E+00;0; -2.8200226E-02;  1.0000000E+04;  0.0000000E+00;  0.0000000E+00;  1.0000000E+04;  0.0000000E+00;  1.0000000E+04; -2.8163064E-02;  0.0000000E+00; -3.7161946E-05;  4.8836670E+00;
 -5.9999999E-02;  9.9999998E-03; -2.2000000E-01;335;  0.0000000E+00;  0.0000000E+00;  0.0000000E+00;  1.0000624E+03;  4.0000001E-01;  5.1751614E+01;0;  0.0000000E+00;  0.0000000E+00;  0.0000000E+00;0; -3.1507153E-02;  1.0000000E+04;  0.0000000E+00;  0.0000000E+00;  1.0000000E+04;  0.0000000E+00;  1.0000000E+04; -3.1963807E-02;  0.0000000E+00;  4.5665292E-04;  1.4467893E+01;
 -5.9999999E-02;  9.9999998E-03; -2.0000000E-01;336;  0.0000000E+00;  0.0000000E+00;  0.0000000E+00;  1.0000672E+03;  4.0000001E-01;  5.5702122E+01;0;  0.0000000E+00;  0.0000000E+00;  0.0000000E+00;0; -3.4091357E-02;  1.0000000E+04;  0.0000000E+00;  0.0000000E+00;  1.0000000E+04;  0.0000000E+00;  1.0000000E+04; -3.4849908E-02;  0.0000000E+00;  7.5855287E-04;  2.0270376E+01;
 -3.9999999E-02;  9.9999998E-03; -3.4000000E-01;370;  0.0000000E+00;  0.0000000E+00;  0.0000000E+00;  1.0000231E+03;  4.0000001E-01;  1.9159948E+01;0;  0.0000000E+00;  0.0000000E+00;  0.0000000E+00;0; -1.1537806E-02;  1.0000000E+04;  0.0000000E+00;  0.0000000E+00;  1.0000000E+04;  0.0000000E+00;  1.0000000E+04; -8.4717954E-03;  0.0000000E+00; -3.0660105E-03;  5.4346630E+01;
 -3.9999999E-02;  9.9999998E-03; -3.1999999E-01;371;  0.0000000E+00;  0.0000000E+00;  0.0000000E+00;  1.0000352E+03;  4.0000001E-01;  2.9134974E+01;0;  0.0000000E+00;  0.0000000E+00;  0.0000000E+00;0; -1.7626232E-02;  1.0000000E+04;  0.0000000E+00;  0.0000000E+00;  1.0000000E+04;  0.0000000E+00;  1.0000000E+04; -1.4367679E-02;  0.0000000E+00; -3.2585519E-03;  5.6652992E+01;
 -3.9999999E-02;  9.9999998E-03; -3.0000001E-01;372;  0.0000000E+00;  0.0000000E+00;  0.0000000E+00;  1.0000500E+03;  4.0000001E-01;  4.1381538E+01;0;  0.0000000E+00;  0.0000000E+00;  0.0000000E+00;0; -2.4998045E-02;  1.0000000E+04;  0.0000000E+00;  0.0000000E+00;  1.0000000E+04;  0.0000000E+00;  1.0000000E+04; -2.2012392E-02;  0.0000000E+00; -2.9856532E-03;  5.0044025E+01;
 -3.9999999E-02;  9.9999998E-03; -2.8000000E-01;373;  0.0000000E+00;  0.0000000E+00;  0.0000000E+00;  1.0000656E+03;  4.0000001E-01;  5.4319443E+01;0;  0.0000000E+00;  0.0000000E+00;  0.0000000E+00;0; -3.2909028E-02;  1.0000000E+04;  0.0000000E+00;  0.0000000E+00;  1.0000000E+04;  0.0000000E+00;  1.0000000E+04; -3.0659985E-02;  0.0000000E+00; -2.2490444E-03;  3.4715244E+01;
 -3.9999999E-02;  9.9999998E-03; -2.5999999E-01;374;  0.0000000E+00;  0.0000000E+00;  0.0000000E+00;  1.0000805E+03;  4.0000001E-01;  6.6664772E+01;0;  0.0000000E+00;  0.0000000E+00;  0.0000000E+00;0; -4.0382560E-02;  1.0000000E+04;  0.0000000E+00;  0.0000000E+00;  1.0000000E+04;  0.0000000E+00;  1.0000000E+04; -3.9205484E-02;  0.0000000E+00; -1.1770760E-03;  1.3289531E+01;
 -3.9999999E-02;  9.9999998E-03; -2.3999999E-01;375;  0.0000000E+00;  0.0000000E+00;  0.0000000E+00;  1.0000930E+03;  4.0000001E-01;  7.7034843E+01;0;  0.0000000E+00;  0.0000000E+00;  0.0000000E+00;0; -4.6792291E-02;  1.0000000E+04;  0.0000000E+00;  0.0000000E+00;  1.0000000E+04;  0.0000000E+00;  1.0000000E+04; -4.6748202E-02;  0.0000000E+00; -4.4087486E-05;  8.9302464E+00;
 -3.9999999E-02;  9.9999998E-03; -2.2000000E-01;376;  0.0000000E+00;  0.0000000E+00;  0.0000000E+00;  1.0001031E+03;  4.0000001E-01;  8.5429672E+01;0;  0.0000000E+00;  0.0000000E+00;  0.0000000E+00;0; -5.1990230E-02;  1.0000000E+04;  0.0000000E+00;  0.0000000E+00;  1.0000000E+04;  0.0000000E+00;  1.0000000E+04; -5.2862015E-02;  0.0000000E+00;  8.7178563E-04;  2.6674528E+01;
 -3.9999999E-02;  9.9999998E-03; -2.0000000E-01;377;  0.0000000E+00;  0.0000000E+00;  0.0000000E+00;  1.0001111E+03;  4.0000001E-01;  9.2046768E+01;0;  0.0000000E+00;  0.0000000E+00;  0.0000000E+00;0; -5.6066584E-02;  1.0000000E+04;  0.0000000E+00;  0.0000000E+00;  1.0000000E+04;  0.0000000E+00;  1.0000000E+04; -5.7504628E-02;  0.0000000E+00;  1.4380445E-03;  3.7481270E+01;
 -2.0000000E-02;  9.9999998E-03; -3.4000000E-01;411;  0.0000000E+00;  0.0000000E+00;  0.0000000E+00;  1.0000362E+03;  4.0000001E-01;  3.0023838E+01;0;  0.0000000E+00;  0.0000000E+00;  0.0000000E+00;0; -1.7992372E-02;  1.0000000E+04;  0.0000000E+00;  0.0000000E+00;  1.0000000E+04;  0.0000000E+00;  1.0000000E+04; -1.2814088E-02;  0.0000000E+00; -5.1782834E-03;  9.2766998E+01;
 -2.0000000E-02;  9.9999998E-03; -3.1999999E-01;412;  0.0000000E+00;  0.0000000E+00;  0.0000000E+00;  1.0000543E+03;  4.0000001E-01;  4.5035755E+01;0;  0.0000000E+00;  0.0000000E+00;  0.0000000E+00;0; -2.6897274E-02;  1.0000000E+04;  0.0000000E+00;  0.0000000E+00;  1.0000000E+04;  0.0000000E+00;  1.0000000E+04; -2.1457953E-02;  0.0000000E+00; -5.4393201E-03;  9.5675797E+01;
 -2.0000000E-02;  9.9999998E-03; -3.0000001E-01;413;  0.0000000E+00;  0.0000000E+00;  0.0000000E+00;  1.0000757E+03;  4.0000001E-01;  6.2714268E+01;0;  0.0000000E+00;  0.0000000E+00;  0.0000000E+00;0; -3.7522942E-02;  1.0000000E+04;  0.0000000E+00;  0.0000000E+00;  1.0000000E+04;  0.0000000E+00;  1.0000000E+04; -3.2586429E-02;  0.0000000E+00; -4.9365140E-03;  8.3874077E+01;
 -2.0000000E-02;  9.9999998E-03; -2.8000000E-01;414;  0.0000000E+00;  0.0000000E+00;  0.0000000E+00;  1.0000980E+03;  4.0000001E-01;  8.1182877E+01;0;  0.0000000E+00;  0.0000000E+00;  0.0000000E+00;0; -4.8716374E-02;  1.0000000E+04;  0.0000000E+00;  0.0000000E+00;  1.0000000E+04;  0.0000000E+00;  1.0000000E+04; -4.5057669E-02;  0.0000000E+00; -3.6587047E-03;  5.7442833E+01;
 -2.0000000E-02;  9.9999998E-03; -2.5999999E-01;415;  0.0000000E+00;  0.0000000E+00;  0.0000000E+00;  1.0001186E+03;  4.0000001E-01;  9.8268814E+01;0;  0.0000000E+00;  0.0000000E+00;  0.0000000E+00;0; -5.9071742E-02;  1.0000000E+04;  0.0000000E+00;  0.0000000E+00;  1.0000000E+04;  0.0000000E+00;  1.0000000E+04; -5.7214458E-02;  0.0000000E+00; -1.8572857E-03;  2.1451862E+01;
 -2.0000000E-02;  9.9999998E-03; -2.3999999E-01;416;  0.0000000E+00;  0.0000000E+00;  0.0000000E+00;  1.0001359E+03;  4.0000001E-01;  1.1258939E+02;0;  0.0000000E+00;  0.0000000E+00;  0.0000000E+00;0; -6.7854926E-02;  1.0000000E+04;  0.0000000E+00;  0.0000000E+00;  1.0000000E+04;  0.0000000E+00;  1.0000000E+04; -6.7841418E-02;  0.0000000E+00; -1.3506708E-05;  1.4793705E+01;
 -2.0000000E-02;  9.9999998E-03; -2.2000000E-01;417;  0.0000000E+00;  0.0000000E+00;  0.0000000E+00;  1.0001499E+03;  4.0000001E-01;  1.2414462E+02;0;  0.0000000E+00;  0.0000000E+00;  0.0000000E+00;0; -7.4952021E-02;  1.0000000E+04;  0.0000000E+00;  0.0000000E+00;  1.0000000E+04;  0.0000000E+00;  1.0000000E+04; -7.6407470E-02;  0.0000000E+00;  1.4554452E-03;  4.3300369E+01;
 -2.0000000E-02;  9.9999998E-03; -2.0000000E-01;418;  0.0000000E+00;  0.0000000E+00;  0.0000000E+00;  1.0001607E+03;  4.0000001E-01;  1.3313202E+02;0;  0.0000000E+00;  0.0000000E+00;  0.0000000E+00;0; -8.0519423E-02;  1.0000000E+04;  0.0000000E+00;  0.0000000E+00;  1.0000000E+04;  0.0000000E+00;  1.0000000E+04; -8.2885519E-02;  0.0000000E+00;  2.3660946E-03;  6.0614456E+01;
  0.0000000E+00;  9.9999998E-03; -3.4000000E-01;452;  0.0000000E+00;  0.0000000E+00;  0.0000000E+00;  1.0000507E+03;  4.0000001E-01;  4.1974113E+01;0;  0.0000000E+00;  0.0000000E+00;  0.0000000E+00;0; -2.4890017E-02;  1.0000000E+04;  0.0000000E+00;  0.0000000E+00;  1.0000000E+04;  0.0000000E+00;  1.0000000E+04; -1.7181473E-02;  0.0000000E+00; -7.7085434E-03;  1.3987175E+02;
  0.0000000E+00;  9.9999998E-03; -3.1999999E-01;453;  0.0000000E+00;  0.0000000E+00;  0.0000000E+00;  1.0000745E+03;  4.0000001E-01;  6.1726639E+01;0;  0.0000000E+00;  0.0000000E+00;  0.0000000E+00;0; -3.6575980E-02;  1.0000000E+04;  0.0000000E+00;  0.0000000E+00;  1.0000000E+04;  0.0000000E+00;  1.0000000E+04; -2.8537560E-02;  0.0000000E+00; -8.0384193E-03;  1.4331981E+02;
  0.0000000E+00;  9.9999998E-03; -3.0000001E-01;454;  0.0000000E+00;  0.0000000E+00;  0.0000000E+00;  1.0001020E+03;  4.0000001E-01;  8.4540810E+01;0;  0.0000000E+00;  0.0000000E+00;  0.0000000E+00;0; -5.0168369E-02;  1.0000000E+04;  0.0000000E+00;  0.0000000E+00;  1.0000000E+04;  0.0000000E+00;  1.0000000E+04; -4.2967118E-02;  0.0000000E+00; -7.2012511E-03;  1.2417008E+02;
  2.0000000E-02;  9.9999998E-03; -3.4000000E-01;464;  0.0000000E+00;  0.0000000E+00;  0.0000000E+00;  1.0000645E+03;  4.0000001E-01;  5.3430580E+01;0;  0.0000000E+00;  0.0000000E+00;  0.0000000E+00;0; -3.1284817E-02;  1.0000000E+04;  0.0000000E+00;  0.0000000E+00;  1.0000000E+04;  0.0000000E+00;  1.0000000E+04; -2.1023545E-02;  0.0000000E+00; -1.0261272E-02;  1.8915173E+02;
  2.0000000E-02;  9.9999998E-03; -3.1999999E-01;465;  0.0000000E+00;  0.0000000E+00;  0.0000000E+00;  1.0000934E+03;  4.0000001E-01;  7.7429893E+01;0;  0.0000000E+00;  0.0000000E+00;  0.0000000E+00;0; -4.5296453E-02;  1.0000000E+04;  0.0000000E+00;  0.0000000E+00;  1.0000000E+04;  0.0000000E+00;  1.0000000E+04; -3.4675039E-02;  0.0000000E+00; -1.0621415E-02;  1.9246016E+02;
  3.9999999E-02;  9.9999998E-03; -3.4000000E-01;474;  0.0000000E+00;  0.0000000E+00;  0.0000000E+00;  1.0000770E+03;  4.0000001E-01;  6.3800655E+01;0;  0.0000000E+00;  0.0000000E+00;  0.0000000E+00;0; -3.6683738E-02;  1.0000000E+04;  0.0000000E+00;  0.0000000E+00;  1.0000000E+04;  0.0000000E+00;  1.0000000E+04; -2.4286753E-02;  0.0000000E+00; -1.2396984E-02;  2.3310172E+02;
  3.9999999E-02;  9.9999998E-03; -3.1999999E-01;475;  0.0000000E+00;  0.0000000E+00;  0.0000000E+00;  1.0001104E+03;  4.0000001E-01;  9.1454193E+01;0;  0.0000000E+00;  0.0000000E+00;  0.0000000E+00;0; -5.2534305E-02;  1.0000000E+04;  0.0000000E+00;  0.0000000E+00;  1.0000000E+04;  0.0000000E+00;  1.0000000E+04; -3.9849468E-02;  0.0000000E+00; -1.2684839E-02;  2.3445619E+02;
  5.9999999E-02;  9.9999998E-03; -3.4000000E-01;484;  0.0000000E+00;  0.0000000E+00;  0.0000000E+00;  1.0000886E+03;  4.0000001E-01;  7.3380630E+01;0;  0.0000000E+00;  0.0000000E+00;  0.0000000E+00;0; -4.1306909E-02;  1.0000000E+04;  0.0000000E+00;  0.0000000E+00;  1.0000000E+04;  0.0000000E+00;  1.0000000E+04; -2.7421705E-02;  0.0000000E+00; -1.3885203E-02;  2.6768021E+02;
  5.9999999E-02;  9.9999998E-03; -3.1999999E-01;485;  0.0000000E+00;  0.0000000E+00;  0.0000000E+00;  1.0001263E+03;  4.0000001E-01;  1.0468839E+02;0;  0.0000000E+00;  0.0000000E+00;  0.0000000E+00;0; -5.8859743E-02;  1.0000000E+04;  0.0000000E+00;  0.0000000E+00;  1.0000000E+04;  0.0000000E+00;  1.0000000E+04; -4.4836260E-02;  0.0000000E+00; -1.4023484E-02;  2.6564746E+02;
  7.9999998E-02;  9.9999998E-03; -3.4000000E-01;494;  0.0000000E+00;  0.0000000E+00;  0.0000000E+00;  1.0001015E+03;  4.0000001E-01;  8.4046989E+01;0;  0.0000000E+00;  0.0000000E+00;  0.0000000E+00;0; -4.6083424E-02;  1.0000000E+04;  0.0000000E+00;  0.0000000E+00;  1.0000000E+04;  0.0000000E+00;  1.0000000E+04; -3.1304833E-02;  0.0000000E+00; -1.4778593E-02;  2.9477441E+02;
  7.9999998E-02;  9.9999998E-03; -3.1999999E-01;495;  0.0000000E+00;  0.0000000E+00;  0.0000000E+00;  1.0001443E+03;  4.0000001E-01;  1.1950278E+02;0;  0.0000000E+00;  0.0000000E+00;  0.0000000E+00;0; -6.5552562E-02;  1.0000000E+04;  0.0000000E+00;  0.0000000E+00;  1.0000000E+04;  0.0000000E+00;  1.0000000E+04; -5.0823003E-02;  0.0000000E+00; -1.4729558E-02;  2.8832761E+02;
  1.0000000E-01;  9.9999998E-03; -3.4000000E-01;504;  0.0000000E+00;  0.0000000E+00;  0.0000000E+00;  1.0001189E+03;  4.0000001E-01;  9.8466339E+01;0;  0.0000000E+00;  0.0000000E+00;  0.0000000E+00;0; -5.2502405E-02;  1.0000000E+04;  0.0000000E+00;  0.0000000E+00;  1.0000000E+04;  0.0000000E+00;  1.0000000E+04; -3.7138142E-02;  0.0000000E+00; -1.5364263E-02;  3.4084677E+02;
  1.0000000E-01;  9.9999998E-03; -3.1999999E-01;505;  0.0000000E+00;  0.0000000E+00;  0.0000000E+00;  1.0001689E+03;  4.0000001E-01;  1.3994664E+02;0;  0.0000000E+00;  0.0000000E+00;  0.0000000E+00;0; -7.4530587E-02;  1.0000000E+04;  0.0000000E+00;  0.0000000E+00;  1.0000000E+04;  0.0000000E+00;  1.0000000E+04; -5.9405681E-02;  0.0000000E+00; -1.5124904E-02;  3.4151224E+02;
  1.2000000E-01;  9.9999998E-03; -3.4000000E-01;514;  0.0000000E+00;  0.0000000E+00;  0.0000000E+00;  1.0001455E+03;  4.0000001E-01;  1.2058916E+02;0;  0.0000000E+00;  0.0000000E+00;  0.0000000E+00;0; -6.2424608E-02;  1.0000000E+04;  0.0000000E+00;  0.0000000E+00;  1.0000000E+04;  0.0000000E+00;  1.0000000E+04; -4.6275999E-02;  0.0000000E+00; -1.6148610E-02;  5.4854755E+02;
  1.2000000E-01;  9.9999998E-03; -3.1999999E-01;515;  0.0000000E+00;  0.0000000E+00;  0.0000000E+00;  1.0002049E+03;  4.0000001E-01;  1.6977295E+02;0;  0.0000000E+00;  0.0000000E+00;  0.0000000E+00;0; -8.8040866E-02;  1.0000000E+04;  0.0000000E+00;  0.0000000E+00;  1.0000000E+04;  0.0000000E+00;  1.0000000E+04; -7.2296806E-02;  0.0000000E+00; -1.5744058E-02;  6.7092743E+02;
  1.4000000E-01;  9.9999998E-03; -3.4000000E-01;524;  0.0000000E+00;  0.0000000E+00;  0.0000000E+00;  1.0001868E+03;  4.0000001E-01;  1.5476103E+02;0;  0.0000000E+00;  0.0000000E+00;  0.0000000E+00;0; -7.8001082E-02;  1.0000000E+04;  0.0000000E+00;  0.0000000E+00;  1.0000000E+04;  0.0000000E+00;  1.0000000E+04; -6.0101539E-02;  0.0000000E+00; -1.7899539E-02;  1.2021609E+03;
  1.4000000E-01;  9.9999998E-03; -3.1999999E-01;525;  0.0000000E+00;  0.0000000E+00;  0.0000000E+00;  1.0002593E+03;  4.0000001E-01;  2.1480870E+02;0;  0.0000000E+00;  0.0000000E+00;  0.0000000E+00;0; -1.0844938E-01;  1.0000000E+04;  0.0000000E+00;  0.0000000E+00;  1.0000000E+04;  0.0000000E+00;  1.0000000E+04; -9.1082640E-02;  0.0000000E+00; -1.7366745E-02;  1.7046610E+03;
  1.6000000E-01;  9.9999998E-03; -3.4000000E-01;534;  0.0000000E+00;  0.0000000E+00;  0.0000000E+00;  1.0002482E+03;  4.0000001E-01;  2.0562378E+02;0;  0.0000000E+00;  0.0000000E+00;  0.0000000E+00;0; -1.0100259E-01;  1.0000000E+04;  0.0000000E+00;  0.0000000E+00;  1.0000000E+04;  0.0000000E+00;  1.0000000E+04; -7.9239383E-02;  0.0000000E+00; -2.1763206E-02;  2.5815322E+03;
  1.6000000E-01;  9.9999998E-03; -3.1999999E-01;535;  0.0000000E+00;  0.0000000E+00;  0.0000000E+00;  1.0003375E+03;  4.0000001E-01;  2.7959698E+02;0;  0.0000000E+00;  0.0000000E+00;  0.0000000E+00;0; -1.3753270E-01;  1.0000000E+04;  0.0000000E+00;  0.0000000E+00;  1.0000000E+04;  0.0000000E+00;  1.0000000E+04; -1.1639046E-01;  0.0000000E+00; -2.1142235E-02;  3.9033530E+03;
  1.8000001E-01;  9.9999998E-03; -3.4000000E-01;544;  0.0000000E+00;  0.0000000E+00;  0.0000000E+00;  1.0003306E+03;  4.0000001E-01;  2.7386874E+02;0;  0.0000000E+00;  0.0000000E+00;  0.0000000E+00;0; -1.3105953E-01;  1.0000000E+04;  0.0000000E+00;  0.0000000E+00;  1.0000000E+04;  0.0000000E+00;  1.0000000E+04; -1.0161064E-01;  0.0000000E+00; -2.9448889E-02;  4.7543252E+03;
  1.8000001E-01;  9.9999998E-03; -3.1999999E-01;545;  0.0000000E+00;  0.0000000E+00;  0.0000000E+00;  1.0004401E+03;  4.0000001E-01;  3.6463162E+02;0;  0.0000000E+00;  0.0000000E+00;  0.0000000E+00;0; -1.7487806E-01;  1.0000000E+04;  0.0000000E+00;  0.0000000E+00;  1.0000000E+04;  0.0000000E+00;  1.0000000E+04; -1.4603794E-01;  0.0000000E+00; -2.8840121E-02;  7.5629653E+03;
  2.0000000E-01;  9.9999998E-03; -3.4000000E-01;553;  0.0000000E+00;  0.0000000E+00;  0.0000000E+00;  1.0004279E+03;  4.0000001E-01;  3.5455783E+02;0;  0.0000000E+00;  0.0000000E+00;  0.0000000E+00;0; -1.6556156E-01;  1.0000000E+04;  0.0000000E+00;  0.0000000E+00;  1.0000000E+04;  0.0000000E+00;  1.0000000E+04; -1.2231509E-01;  0.0000000E+00; -4.3246478E-02;  7.1292163E+03;
  2.0000000E-01;  9.9999998E-03; -3.1999999E-01;554;  0.0000000E+00;  0.0000000E+00;  0.0000000E+00;  1.0005615E+03;  4.0000001E-01;  4.6517197E+02;0;  0.0000000E+00;  0.0000000E+00;  0.0000000E+00;0; -2.1758726E-01;  1.0000000E+04;  0.0000000E+00;  0.0000000E+00;  1.0000000E+04;  0.0000000E+00;  1.0000000E+04; -1.7460629E-01;  0.0000000E+00; -4.2980973E-02;  1.2043308E+04;
 -2.2000000E-01;  9.9999998E-03; -1.8000001E-01;10;  0.0000000E+00;  0.0000000E+00;  0.0000000E+00;  1.0000000E+03;  4.0000001E-01;  0.0000000E+00;0;  0.0000000E+00;  0.0000000E+00;  0.0000000E+00;0;  0.0000000E+00;  1.0000000E+04;  0.0000000E+00;  0.0000000E+00;  1.0000000E+04;  0.0000000E+00;  1.0000000E+04;  0.0000000E+00;  0.0000000E+00;  0.0000000E+00;  0.0000000E+00;
 -2.2000000E-01;  9.9999998E-03; -1.6000000E-01;11;  0.0000000E+00;  0.0000000E+00;  0.0000000E+00;  1.0000000E+03;  4.0000001E-01;  0.0000000E+00;0;  0.0000000E+00;  0.0000000E+00;  0.0000000E+00;0;  0.0000000E+00;  1.0000000E+04;  0.0000000E+00;  0.0000000E+00;  1.0000000E+04;  0.0000000E+00;  1.0000000E+04;  0.0000000E+00;  0.0000000E+00;  0.0000000E+00;  0.0000000E+00;
 -2.2000000E-01;  9.9999998E-03; -1.4000000E-01;12;  0.0000000E+00;  0.0000000E+00;  0.0000000E+00;  1.0000000E+03;  4.0000001E-01;  0.0000000E+00;0;  0.0000000E+00;  0.0000000E+00;  0.0000000E+00;0;  0.0000000E+00;  1.0000000E+04;  0.0000000E+00;  0.0000000E+00;  1.0000000E+04;  0.0000000E+00;  1.0000000E+04;  0.0000000E+00;  0.0000000E+00;  0.0000000E+00;  0.0000000E+00;
 -2.2000000E-01;  9.9999998E-03; -1.2000000E-01;13;  0.0000000E+00;  0.0000000E+00;  0.0000000E+00;  1.0000000E+03;  4.0000001E-01;  0.0000000E+00;0;  0.0000000E+00;  0.0000000E+00;  0.0000000E+00;0;  0.0000000E+00;  1.0000000E+04;  0.0000000E+00;  0.0000000E+00;  1.0000000E+04;  0.0000000E+00;  1.0000000E+04;  0.0000000E+00;  0.0000000E+00;  0.0000000E+00;  0.0000000E+00;
 -2.2000000E-01;  9.9999998E-03; -1.0000000E-01;14;  0.0000000E+00;  0.0000000E+00;  0.0000000E+00;  1.0000000E+03;  4.0000001E-01;  0.0000000E+00;0;  0.0000000E+00;  0.0000000E+00;  0.0000000E+00;0;  0.0000000E+00;  1.0000000E+04;  0.0000000E+00;  0.0000000E+00;  1.0000000E+04;  0.0000000E+00;  1.0000000E+04;  0.0000000E+00;  0.0000000E+00;  0.0000000E+00;  0.0000000E+00;
 -2.2000000E-01;  9.9999998E-03; -7.9999998E-02;15;  0.0000000E+00;  0.0000000E+00;  0.0000000E+00;  1.0000000E+03;  4.0000001E-01;  0.0000000E+00;0;  0.0000000E+00;  0.0000000E+00;  0.0000000E+00;0;  0.0000000E+00;  1.0000000E+04;  0.0000000E+00;  0.0000000E+00;  1.0000000E+04;  0.0000000E+00;  1.0000000E+04;  0.0000000E+00;  0.0000000E+00;  0.0000000E+00;  0.0000000E+00;
 -2.2000000E-01;  9.9999998E-03; -5.9999999E-02;16;  0.0000000E+00;  0.0000000E+00;  0.0000000E+00;  1.0000000E+03;  4.0000001E-01;  0.0000000E+00;0;  0.0000000E+00;  0.0000000E+00;  0.0000000E+00;0;  0.0000000E+00;  1.0000000E+04;  0.0000000E+00;  0.0000000E+00;  1.0000000E+04;  0.0000000E+00;  1.0000000E+04;  0.0000000E+00;  0.0000000E+00;  0.0000000E+00;  0.0000000E+00;
 -2.2000000E-01;  9.9999998E-03; -3.9999999E-02;17;  0.0000000E+00;  0.0000000E+00;  0.0000000E+00;  1.0000000E+03;  4.0000001E-01;  0.0000000E+00;0;  0.0000000E+00;  0.0000000E+00;  0.0000000E+00;0;  0.0000000E+00;  1.0000000E+04;  0.0000000E+00;  0.0000000E+00;  1.0000000E+04;  0.0000000E+00;  1.0000000E+04;  0.0000000E+00;  0.0000000E+00;  0.0000000E+00;  0.0000000E+00;
 -2.2000000E-01;  9.9999998E-03; -2.0000000E-02;18;  0.0000000E+00;  0.0000000E+00;  0.0000000E+00;  1.0000000E+03;  4.0000001E-01;  0.0000000E+00;0;  0.0000000E+00;  0.0000000E+00;  0.0000000E+00;0;  0.0000000E+00;  1.0000000E+04;  0.0000000E+00;  0.0000000E+00;  1.0000000E+04;  0.0000000E+00;  1.0000000E+04;  0.0000000E+00;  0.0000000E+00;  0.0000000E+00;  0.0000000E+00;
 -2.0000000E-01;  9.9999998E-03; -1.8000001E-01;50;  0.0000000E+00;  0.0000000E+00;  0.0000000E+00;  1.0000000E+03;  4.0000001E-01;  0.0000000E+00;0;  0.0000000E+00;  0.0000000E+00;  0.0000000E+00;0;  0.0000000E+00;  1.0000000E+04;  0.0000000E+00;  0.0000000E+00;  1.0000000E+04;  0.0000000E+00;  1.0000000E+04;  0.0000000E+00;  0.0000000E+00;  0.0000000E+00;  0.0000000E+00;
 -2.0000000E-01;  9.9999998E-03; -1.6000000E-01;51;  0.0000000E+00;  0.0000000E+00;  0.0000000E+00;  1.0000000E+03;  4.0000001E-01;  0.0000000E+00;0;  0.0000000E+00;  0.0000000E+00;  0.0000000E+00;0;  0.0000000E+00;  1.0000000E+04;  0.0000000E+00;  0.0000000E+00;  1.0000000E+04;  0.0000000E+00;  1.0000000E+04;  0.0000000E+00;  0.0000000E+00;  0.0000000E+00;  0.0000000E+00;
 -2.0000000E-01;  9.9999998E-03; -1.4000000E-01;52;  0.0000000E+00;  0.0000000E+00;  0.0000000E+00;  1.0000000E+03;  4.0000001E-01;  0.0000000E+00;0;  0.0000000E+00;  0.0000000E+00;  0.0000000E+00;0;  0.0000000E+00;  1.0000000E+04;  0.0000000E+00;  0.0000000E+00;  1.0000000E+04;  0.0000000E+00;  1.0000000E+04;  0.0000000E+00;  0.0000000E+00;  0.0000000E+00;  0.0000000E+00;
 -2.0000000E-01;  9.9999998E-03; -1.2000000E-01;53;  0.0000000E+00;  0.0000000E+00;  0.0000000E+00;  1.0000000E+03;  4.0000001E-01;  0.0000000E+00;0;  0.0000000E+00;  0.0000000E+00;  0.0000000E+00;0;  0.0000000E+00;  1.0000000E+04;  0.0000000E+00;  0.0000000E+00;  1.0000000E+04;  0.0000000E+00;  1.0000000E+04;  0.0000000E+00;  0.0000000E+00;  0.0000000E+00;  0.0000000E+00;
 -2.0000000E-01;  9.9999998E-03; -1.0000000E-01;54;  0.0000000E+00;  0.0000000E+00;  0.0000000E+00;  1.0000000E+03;  4.0000001E-01;  0.0000000E+00;0;  0.0000000E+00;  0.0000000E+00;  0.0000000E+00;0;  0.0000000E+00;  1.0000000E+04;  0.0000000E+00;  0.0000000E+00;  1.0000000E+04;  0.0000000E+00;  1.0000000E+04;  0.0000000E+00;  0.0000000E+00;  0.0000000E+00;  0.0000000E+00;
 -2.0000000E-01;  9.9999998E-03; -7.9999998E-02;55;  0.0000000E+00;  0.0000000E+00;  0.0000000E+00;  1.0000000E+03;  4.0000001E-01;  0.0000000E+00;0;  0.0000000E+00;  0.0000000E+00;  0.0000000E+00;0;  0.0000000E+00;  1.0000000E+04;  0.0000000E+00;  0.0000000E+00;  1.0000000E+04;  0.0000000E+00;  1.0000000E+04;  0.0000000E+00;  0.0000000E+00;  0.0000000E+00;  0.0000000E+00;
 -2.0000000E-01;  9.9999998E-03; -5.9999999E-02;56;  0.0000000E+00;  0.0000000E+00;  0.0000000E+00;  1.0000000E+03;  4.0000001E-01;  0.0000000E+00;0;  0.0000000E+00;  0.0000000E+00;  0.0000000E+00;0;  0.0000000E+00;  1.0000000E+04;  0.0000000E+00;  0.0000000E+00;  1.0000000E+04;  0.0000000E+00;  1.0000000E+04;  0.0000000E+00;  0.0000000E+00;  0.0000000E+00;  0.0000000E+00;
 -2.0000000E-01;  9.9999998E-03; -3.9999999E-02;57;  0.0000000E+00;  0.0000000E+00;  0.0000000E+00;  1.0000000E+03;  4.0000001E-01;  0.0000000E+00;0;  0.0000000E+00;  0.0000000E+00;  0.0000000E+00;0;  0.0000000E+00;  1.0000000E+04;  0.0000000E+00;  0.0000000E+00;  1.0000000E+04;  0.0000000E+00;  1.0000000E+04;  0.0000000E+00;  0.0000000E+00;  0.0000000E+00;  0.0000000E+00;
 -2.0000000E-01;  9.9999998E-03; -2.0000000E-02;58;  0.0000000E+00;  0.0000000E+00;  0.0000000E+00;  1.0000000E+03;  4.0000001E-01;  0.0000000E+00;0;  0.0000000E+00;  0.0000000E+00;  0.0000000E+00;0;  0.0000000E+00;  1.0000000E+04;  0.0000000E+00;  0.0000000E+00;  1.0000000E+04;  0.0000000E+00;  1.0000000E+04;  0.0000000E+00;  0.0000000E+00;  0.0000000E+00;  0.0000000E+00;
 -1.8000001E-01;  9.9999998E-03; -1.8000001E-01;91;  0.0000000E+00;  0.0000000E+00;  0.0000000E+00;  1.0000000E+03;  4.0000001E-01;  0.0000000E+00;0;  0.0000000E+00;  0.0000000E+00;  0.0000000E+00;0;  0.0000000E+00;  1.0000000E+04;  0.0000000E+00;  0.0000000E+00;  1.0000000E+04;  0.0000000E+00;  1.0000000E+04;  0.0000000E+00;  0.0000000E+00;  0.0000000E+00;  0.0000000E+00;
 -1.8000001E-01;  9.9999998E-03; -1.6000000E-01;92;  0.0000000E+00;  0.0000000E+00;  0.0000000E+00;  1.0000000E+03;  4.0000001E-01;  0.0000000E+00;0;  0.0000000E+00;  0.0000000E+00;  0.0000000E+00;0;  0.0000000E+00;  1.0000000E+04;  0.0000000E+00;  0.0000000E+00;  1.0000000E+04;  0.0000000E+00;  1.0000000E+04;  0.0000000E+00;  0.0000000E+00;  0.0000000E+00;  0.0000000E+00;
 -1.8000001E-01;  9.9999998E-03; -1.4000000E-01;93;  0.0000000E+00;  0.0000000E+00;  0.0000000E+00;  1.0000000E+03;  4.0000001E-01;  0.0000000E+00;0;  0.0000000E+00;  0.0000000E+00;  0.0000000E+00;0;  0.0000000E+00;  1.0000000E+04;  0.0000000E+00;  0.0000000E+00;  1.0000000E+04;  0.0000000E+00;  1.0000000E+04;  0.0000000E+00;  0.0000000E+00;  0.0000000E+00;  0.0000000E+00;
 -1.8000001E-01;  9.9999998E-03; -1.2000000E-01;94;  0.0000000E+00;  0.0000000E+00;  0.0000000E+00;  1.0000000E+03;  4.0000001E-01;  0.0000000E+00;0;  0.0000000E+00;  0.0000000E+00;  0.0000000E+00;0;  0.0000000E+00;  1.0000000E+04;  0.0000000E+00;  0.0000000E+00;  1.0000000E+04;  0.0000000E+00;  1.0000000E+04;  0.0000000E+00;  0.0000000E+00;  0.0000000E+00;  0.0000000E+00;
 -1.8000001E-01;  9.9999998E-03; -1.0000000E-01;95;  0.0000000E+00;  0.0000000E+00;  0.0000000E+00;  1.0000000E+03;  4.0000001E-01;  0.0000000E+00;0;  0.0000000E+00;  0.0000000E+00;  0.0000000E+00;0;  0.0000000E+00;  1.0000000E+04;  0.0000000E+00;  0.0000000E+00;  1.0000000E+04;  0.0000000E+00;  1.0000000E+04;  0.0000000E+00;  0.0000000E+00;  0.0000000E+00;  0.0000000E+00;
 -1.8000001E-01;  9.9999998E-03; -7.9999998E-02;96;  0.0000000E+00;  0.0000000E+00;  0.0000000E+00;  1.0000000E+03;  4.0000001E-01;  0.0000000E+00;0;  0.0000000E+00;  0.0000000E+00;  0.0000000E+00;0;  0.0000000E+00;  1.0000000E+04;  0.0000000E+00;  0.0000000E+00;  1.0000000E+04;  0.0000000E+00;  1.0000000E+04;  0.0000000E+00;  0.0000000E+00;  0.0000000E+00;  0.0000000E+00;
 -1.8000001E-01;  9.9999998E-03; -5.9999999E-02;97;  0.0000000E+00;  0.0000000E+00;  0.0000000E+00;  1.0000000E+03;  4.0000001E-01;  0.0000000E+00;0;  0.0000000E+00;  0.0000000E+00;  0.0000000E+00;0;  0.0000000E+00;  1.0000000E+04;  0.0000000E+00;  0.0000000E+00;  1.0000000E+04;  0.0000000E+00;  1.0000000E+04;  0.0000000E+00;  0.0000000E+00;  0.0000000E+00;  0.0000000E+00;
 -1.8000001E-01;  9.9999998E-03; -3.9999999E-02;98;  0.0000000E+00;  0.0000000E+00;  0.0000000E+00;  1.0000000E+03;  4.0000001E-01;  0.0000000E+00;0;  0.0000000E+00;  0.0000000E+00;  0.0000000E+00;0;  0.0000000E+00;  1.0000000E+04;  0.0000000E+00;  0.0000000E+00;  1.0000000E+04;  0.0000000E+00;  1.0000000E+04;  0.0000000E+00;  0.0000000E+00;  0.0000000E+00;  0.0000000E+00;
 -1.8000001E-01;  9.9999998E-03; -2.0000000E-02;99;  0.0000000E+00;  0.0000000E+00;  0.0000000E+00;  1.0000000E+03;  4.0000001E-01;  0.0000000E+00;0;  0.0000000E+00;  0.0000000E+00;  0.0000000E+00;0;  0.0000000E+00;  1.0000000E+04;  0.0000000E+00;  0.0000000E+00;  1.0000000E+04;  0.0000000E+00;  1.0000000E+04;  0.0000000E+00;  0.0000000E+00;  0.0000000E+00;  0.0000000E+00;
 -1.6000000E-01;  9.9999998E-03; -1.8000001E-01;132;  0.0000000E+00;  0.0000000E+00;  0.0000000E+00;  1.0000000E+03;  4.0000001E-01;  0.0000000E+00;0;  0.0000000E+00;  0.0000000E+00;  0.0000000E+00;0; -1.2596263E-05;  1.0000000E+04;  0.0000000E+00;  0.0000000E+00;  1.0000000E+04;  0.0000000E+00;  1.0000000E+04; -1.2622916E-05;  0.0000000E+00;  2.6652721E-08;  2.4194578E-03;
 -1.6000000E-01;  9.9999998E-03; -1.6000000E-01;133;  0.0000000E+00;  0.0000000E+00;  0.0000000E+00;  1.0000000E+03;  4.0000001E-01;  0.0000000E+00;0;  0.0000000E+00;  0.0000000E+00;  0.0000000E+00;0; -1.3016923E-05;  1.0000000E+04;  0.0000000E+00;  0.0000000E+00;  1.0000000E+04;  0.0000000E+00;  1.0000000E+04; -1.3041053E-05;  0.0000000E+00;  2.4129546E-08;  2.4221723E-03;
 -1.6000000E-01;  9.9999998E-03; -1.4000000E-01;134;  0.0000000E+00;  0.0000000E+00;  0.0000000E+00;  1.0000000E+03;  4.0000001E-01;  0.0000000E+00;0;  0.0000000E+00;  0.0000000E+00;  0.0000000E+00;0; -1.3285420E-05;  1.0000000E+04;  0.0000000E+00;  0.0000000E+00;  1.0000000E+04;  0.0000000E+00;  1.0000000E+04; -1.3306485E-05;  0.0000000E+00;  2.1064713E-08;  2.3918618E-03;
 -1.6000000E-01;  9.9999998E-03; -1.2000000E-01;135;  0.0000000E+00;  0.0000000E+00;  0.0000000E+00;  1.0000000E+03;  4.0000001E-01;  0.0000000E+00;0;  0.0000000E+00;  0.0000000E+00;  0.0000000E+00;0; -1.3441633E-05;  1.0000000E+04;  0.0000000E+00;  0.0000000E+00;  1.0000000E+04;  0.0000000E+00;  1.0000000E+04; -1.3459803E-05;  0.0000000E+00;  1.8169835E-08;  2.3476279E-03;
 -1.6000000E-01;  9.9999998E-03; -1.0000000E-01;136;  0.0000000E+00;  0.0000000E+00;  0.0000000E+00;  1.0000000E+03;  4.0000001E-01;  0.0000000E+00;0;  0.0000000E+00;  0.0000000E+00;  0.0000000E+00;0; -1.3520822E-05;  1.0000000E+04;  0.0000000E+00;  0.0000000E+00;  1.0000000E+04;  0.0000000E+00;  1.0000000E+04; -1.3536312E-05;  0.0000000E+00;  1.5489995E-08;  2.2965081E-03;
 -1.6000000E-01;  9.9999998E-03; -7.9999998E-02;137;  0.0000000E+00;  0.0000000E+00;  0.0000000E+00;  1.0000000E+03;  4.0000001E-01;  0.0000000E+00;0;  0.0000000E+00;  0.0000000E+00;  0.0000000E+00;0; -1.3551287E-05;  1.0000000E+04;  0.0000000E+00;  0.0000000E+00;  1.0000000E+04;  0.0000000E+00;  1.0000000E+04; -1.3564328E-05;  0.0000000E+00;  1.3040078E-08;  2.2453163E-03;
 -1.6000000E-01;  9.9999998E-03; -5.9999999E-02;138;  0.0000000E+00;  0.0000000E+00;  0.0000000E+00;  1.0000000E+03;  4.0000001E-01;  0.0000000E+00;0;  0.0000000E+00;  0.0000000E+00;  0.0000000E+00;0; -1.3554481E-05;  1.0000000E+04;  0.0000000E+00;  0.0000000E+00;  1.0000000E+04;  0.0000000E+00;  1.0000000E+04; -1.3565497E-05;  0.0000000E+00;  1.1016446E-08;  2.2001665E-03;
 -1.6000000E-01;  9.9999998E-03; -3.9999999E-02;139;  0.0000000E+00;  0.0000000E+00;  0.0000000E+00;  1.0000000E+03;  4.0000001E-01;  0.0000000E+00;0;  0.0000000E+00;  0.0000000E+00;  0.0000000E+00;0; -1.3546207E-05;  1.0000000E+04;  0.0000000E+00;  0.0000000E+00;  1.0000000E+04;  0.0000000E+00;  1.0000000E+04; -1.3555697E-05;  0.0000000E+00;  9.4896482E-09;  2.1647390E-03;
 -1.6000000E-01;  9.9999998E-03; -2.0000000E-02;140;  0.0000000E+00;  0.0000000E+00;  0.0000000E+00;  1.0000000E+03;  4.0000001E-01;  0.0000000E+00;0;  0.0000000E+00;  0.0000000E+00;  0.0000000E+00;0; -1.3537171E-05;  1.0000000E+04;  0.0000000E+00;  0.0000000E+00;  1.0000000E+04;  0.0000000E+00;  1.0000000E+04; -1.3545714E-05;  0.0000000E+00;  8.5429761E-09;  2.1424002E-03;
 -1.4000000E-01;  9.9999998E-03; -1.8000001E-01;173;  0.0000000E+00;  0.0000000E+00;  0.0000000E+00;  1.0000009E+03;  4.0000001E-01;  6.9133836E-01;0;  0.0000000E+00;  0.0000000E+00;  0.0000000E+00;0; -4.5587428E-04;  1.0000000E+04;  0.0000000E+00;  0.0000000E+00;  1.0000000E+04;  0.0000000E+00;  1.0000000E+04; -4.5913347E-04;  0.0000000E+00;  3.2591820E-06;  1.3110977E-01;
 -1.4000000E-01;  9.9999998E-03; -1.6000000E-01;174;  0.0000000E+00;  0.0000000E+00;  0.0000000E+00;  1.0000009E+03;  4.0000001E-01;  6.9133836E-01;0;  0.0000000E+00;  0.0000000E+00;  0.0000000E+00;0; -4.7262132E-04;  1.0000000E+04;  0.0000000E+00;  0.0000000E+00;  1.0000000E+04;  0.0000000E+00;  1.0000000E+04; -4.7561491E-04;  0.0000000E+00;  2.9935936E-06;  1.2757841E-01;
 -1.4000000E-01;  9.9999998E-03; -1.4000000E-01;175;  0.0000000E+00;  0.0000000E+00;  0.0000000E+00;  1.0000009E+03;  4.0000001E-01;  6.9133836E-01;0;  0.0000000E+00;  0.0000000E+00;  0.0000000E+00;0; -4.8378081E-04;  1.0000000E+04;  0.0000000E+00;  0.0000000E+00;  1.0000000E+04;  0.0000000E+00;  1.0000000E+04; -4.8643589E-04;  0.0000000E+00;  2.6550833E-06;  1.2164676E-01;
 -1.4000000E-01;  9.9999998E-03; -1.2000000E-01;176;  0.0000000E+00;  0.0000000E+00;  0.0000000E+00;  1.0000009E+03;  4.0000001E-01;  7.9010099E-01;0;  0.0000000E+00;  0.0000000E+00;  0.0000000E+00;0; -4.9070385E-04;  1.0000000E+04;  0.0000000E+00;  0.0000000E+00;  1.0000000E+04;  0.0000000E+00;  1.0000000E+04; -4.9300614E-04;  0.0000000E+00;  2.3022994E-06;  1.1479317E-01;
 -1.4000000E-01;  9.9999998E-03; -1.0000000E-01;177;  0.0000000E+00;  0.0000000E+00;  0.0000000E+00;  1.0000009E+03;  4.0000001E-01;  7.9010099E-01;0;  0.0000000E+00;  0.0000000E+00;  0.0000000E+00;0; -4.9461046E-04;  1.0000000E+04;  0.0000000E+00;  0.0000000E+00;  1.0000000E+04;  0.0000000E+00;  1.0000000E+04; -4.9657898E-04;  0.0000000E+00;  1.9685453E-06;  1.0795103E-01;
 -1.4000000E-01;  9.9999998E-03; -7.9999998E-02;178;  0.0000000E+00;  0.0000000E+00;  0.0000000E+00;  1.0000009E+03;  4.0000001E-01;  7.9010099E-01;0;  0.0000000E+00;  0.0000000E+00;  0.0000000E+00;0; -4.9652182E-04;  1.0000000E+04;  0.0000000E+00;  0.0000000E+00;  1.0000000E+04;  0.0000000E+00;  1.0000000E+04; -4.9819448E-04;  0.0000000E+00;  1.6726583E-06;  1.0170138E-01;
 -1.4000000E-01;  9.9999998E-03; -5.9999999E-02;179;  0.0000000E+00;  0.0000000E+00;  0.0000000E+00;  1.0000009E+03;  4.0000001E-01;  7.9010099E-01;0;  0.0000000E+00;  0.0000000E+00;  0.0000000E+00;0; -4.9724343E-04;  1.0000000E+04;  0.0000000E+00;  0.0000000E+00;  1.0000000E+04;  0.0000000E+00;  1.0000000E+04; -4.9866916E-04;  0.0000000E+00;  1.4257522E-06;  9.6416742E-02;
 -1.4000000E-01;  9.9999998E-03; -3.9999999E-02;180;  0.0000000E+00;  0.0000000E+00;  0.0000000E+00;  1.0000009E+03;  4.0000001E-01;  7.9010099E-01;0;  0.0000000E+00;  0.0000000E+00;  0.0000000E+00;0; -4.9736281E-04;  1.0000000E+04;  0.0000000E+00;  0.0000000E+00;  1.0000000E+04;  0.0000000E+00;  1.0000000E+04; -4.9860275E-04;  0.0000000E+00;  1.2399529E-06;  9.2416942E-02;
 -1.4000000E-01;  9.9999998E-03; -2.0000000E-02;181;  0.0000000E+00;  0.0000000E+00;  0.0000000E+00;  1.0000009E+03;  4.0000001E-01;  7.9010099E-01;0;  0.0000000E+00;  0.0000000E+00;  0.0000000E+00;0; -4.9728033E-04;  1.0000000E+04;  0.0000000E+00;  0.0000000E+00;  1.0000000E+04;  0.0000000E+00;  1.0000000E+04; -4.9840525E-04;  0.0000000E+00;  1.1249329E-06;  8.9928359E-02;
 -1.2000000E-01;  9.9999998E-03; -1.8000001E-01;214;  0.0000000E+00;  0.0000000E+00;  0.0000000E+00;  1.0000049E+03;  4.0000001E-01;  4.0492678E+00;0;  0.0000000E+00;  0.0000000E+00;  0.0000000E+00;0; -2.5003420E-03;  1.0000000E+04;  0.0000000E+00;  0.0000000E+00;  1.0000000E+04;  0.0000000E+00;  1.0000000E+04; -2.5308034E-03;  0.0000000E+00;  3.0461451E-05;  9.5893735E-01;
 -1.2000000E-01;  9.9999998E-03; -1.6000000E-01;215;  0.0000000E+00;  0.0000000E+00;  0.0000000E+00;  1.0000049E+03;  4.0000001E-01;  4.0492678E+00;0;  0.0000000E+00;  0.0000000E+00;  0.0000000E+00;0; -2.5968414E-03;  1.0000000E+04;  0.0000000E+00;  0.0000000E+00;  1.0000000E+04;  0.0000000E+00;  1.0000000E+04; -2.6252607E-03;  0.0000000E+00;  2.8419219E-05;  9.2562819E-01;
 -1.2000000E-01;  9.9999998E-03; -1.4000000E-01;216;  0.0000000E+00;  0.0000000E+00;  0.0000000E+00;  1.0000051E+03;  4.0000001E-01;  4.1480303E+00;0;  0.0000000E+00;  0.0000000E+00;  0.0000000E+00;0; -2.6627854E-03;  1.0000000E+04;  0.0000000E+00;  0.0000000E+00;  1.0000000E+04;  0.0000000E+00;  1.0000000E+04; -2.6882626E-03;  0.0000000E+00;  2.5477315E-05;  8.6923730E-01;
 -1.2000000E-01;  9.9999998E-03; -1.2000000E-01;217;  0.0000000E+00;  0.0000000E+00;  0.0000000E+00;  1.0000052E+03;  4.0000001E-01;  4.3455553E+00;0;  0.0000000E+00;  0.0000000E+00;  0.0000000E+00;0; -2.7051007E-03;  1.0000000E+04;  0.0000000E+00;  0.0000000E+00;  1.0000000E+04;  0.0000000E+00;  1.0000000E+04; -2.7273681E-03;  0.0000000E+00;  2.2267399E-05;  8.0390120E-01;
 -1.2000000E-01;  9.9999998E-03; -1.0000000E-01;218;  0.0000000E+00;  0.0000000E+00;  0.0000000E+00;  1.0000052E+03;  4.0000001E-01;  4.3455553E+00;0;  0.0000000E+00;  0.0000000E+00;  0.0000000E+00;0; -2.7302518E-03;  1.0000000E+04;  0.0000000E+00;  0.0000000E+00;  1.0000000E+04;  0.0000000E+00;  1.0000000E+04; -2.7494167E-03;  0.0000000E+00;  1.9164978E-05;  7.3880392E-01;
 -1.2000000E-01;  9.9999998E-03; -7.9999998E-02;219;  0.0000000E+00;  0.0000000E+00;  0.0000000E+00;  1.0000052E+03;  4.0000001E-01;  4.3455553E+00;0;  0.0000000E+00;  0.0000000E+00;  0.0000000E+00;0; -2.7437559E-03;  1.0000000E+04;  0.0000000E+00;  0.0000000E+00;  1.0000000E+04;  0.0000000E+00;  1.0000000E+04; -2.7601453E-03;  0.0000000E+00;  1.6389438E-05;  6.7965585E-01;
 -1.2000000E-01;  9.9999998E-03; -5.9999999E-02;220;  0.0000000E+00;  0.0000000E+00;  0.0000000E+00;  1.0000052E+03;  4.0000001E-01;  4.3455553E+00;0;  0.0000000E+00;  0.0000000E+00;  0.0000000E+00;0; -2.7500044E-03;  1.0000000E+04;  0.0000000E+00;  0.0000000E+00;  1.0000000E+04;  0.0000000E+00;  1.0000000E+04; -2.7640895E-03;  0.0000000E+00;  1.4085129E-05;  6.3019162E-01;
 -1.2000000E-01;  9.9999998E-03; -3.9999999E-02;221;  0.0000000E+00;  0.0000000E+00;  0.0000000E+00;  1.0000052E+03;  4.0000001E-01;  4.3455553E+00;0;  0.0000000E+00;  0.0000000E+00;  0.0000000E+00;0; -2.7522661E-03;  1.0000000E+04;  0.0000000E+00;  0.0000000E+00;  1.0000000E+04;  0.0000000E+00;  1.0000000E+04; -2.7646215E-03;  0.0000000E+00;  1.2355428E-05;  5.9298772E-01;
 -1.2000000E-01;  9.9999998E-03; -2.0000000E-02;222;  0.0000000E+00;  0.0000000E+00;  0.0000000E+00;  1.0000052E+03;  4.0000001E-01;  4.3455553E+00;0;  0.0000000E+00;  0.0000000E+00;  0.0000000E+00;0; -2.7527674E-03;  1.0000000E+04;  0.0000000E+00;  0.0000000E+00;  1.0000000E+04;  0.0000000E+00;  1.0000000E+04; -2.7640495E-03;  0.0000000E+00;  1.1282024E-05;  5.6990767E-01;
 -1.0000000E-01;  9.9999998E-03; -1.8000001E-01;255;  0.0000000E+00;  0.0000000E+00;  0.0000000E+00;  1.0000153E+03;  4.0000001E-01;  1.2740378E+01;0;  0.0000000E+00;  0.0000000E+00;  0.0000000E+00;0; -7.9096686E-03;  1.0000000E+04;  0.0000000E+00;  0.0000000E+00;  1.0000000E+04;  0.0000000E+00;  1.0000000E+04; -8.0422275E-03;  0.0000000E+00;  1.3255909E-04;  3.7328825E+00;
 -1.0000000E-01;  9.9999998E-03; -1.6000000E-01;256;  0.0000000E+00;  0.0000000E+00;  0.0000000E+00;  1.0000160E+03;  4.0000001E-01;  1.3234192E+01;0;  0.0000000E+00;  0.0000000E+00;  0.0000000E+00;0; -8.2243551E-03;  1.0000000E+04;  0.0000000E+00;  0.0000000E+00;  1.0000000E+04;  0.0000000E+00;  1.0000000E+04; -8.3514331E-03;  0.0000000E+00;  1.2707798E-04;  3.6329122E+00;
 -1.0000000E-01;  9.9999998E-03; -1.4000000E-01;257;  0.0000000E+00;  0.0000000E+00;  0.0000000E+00;  1.0000164E+03;  4.0000001E-01;  1.3530479E+01;0;  0.0000000E+00;  0.0000000E+00;  0.0000000E+00;0; -8.4423721E-03;  1.0000000E+04;  0.0000000E+00;  0.0000000E+00;  1.0000000E+04;  0.0000000E+00;  1.0000000E+04; -8.5575264E-03;  0.0000000E+00;  1.1515399E-04;  3.3921359E+00;
 -1.0000000E-01;  9.9999998E-03; -1.2000000E-01;258;  0.0000000E+00;  0.0000000E+00;  0.0000000E+00;  1.0000164E+03;  4.0000001E-01;  1.3629242E+01;0;  0.0000000E+00;  0.0000000E+00;  0.0000000E+00;0; -8.5854400E-03;  1.0000000E+04;  0.0000000E+00;  0.0000000E+00;  1.0000000E+04;  0.0000000E+00;  1.0000000E+04; -8.6868862E-03;  0.0000000E+00;  1.0144604E-04;  3.1049790E+00;
 -1.0000000E-01;  9.9999998E-03; -1.0000000E-01;259;  0.0000000E+00;  0.0000000E+00;  0.0000000E+00;  1.0000168E+03;  4.0000001E-01;  1.3925530E+01;0;  0.0000000E+00;  0.0000000E+00;  0.0000000E+00;0; -8.6732376E-03;  1.0000000E+04;  0.0000000E+00;  0.0000000E+00;  1.0000000E+04;  0.0000000E+00;  1.0000000E+04; -8.7611359E-03;  0.0000000E+00;  8.7897963E-05;  2.8156211E+00;
 -1.0000000E-01;  9.9999998E-03; -7.9999998E-02;260;  0.0000000E+00;  0.0000000E+00;  0.0000000E+00;  1.0000170E+03;  4.0000001E-01;  1.4024293E+01;0;  0.0000000E+00;  0.0000000E+00;  0.0000000E+00;0; -8.7228371E-03;  1.0000000E+04;  0.0000000E+00;  0.0000000E+00;  1.0000000E+04;  0.0000000E+00;  1.0000000E+04; -8.7985098E-03;  0.0000000E+00;  7.5672346E-05;  2.5519559E+00;
 -1.0000000E-01;  9.9999998E-03; -5.9999999E-02;261;  0.0000000E+00;  0.0000000E+00;  0.0000000E+00;  1.0000170E+03;  4.0000001E-01;  1.4024293E+01;0;  0.0000000E+00;  0.0000000E+00;  0.0000000E+00;0; -8.7479800E-03;  1.0000000E+04;  0.0000000E+00;  0.0000000E+00;  1.0000000E+04;  0.0000000E+00;  1.0000000E+04; -8.8134715E-03;  0.0000000E+00;  6.5491986E-05;  2.3315837E+00;
 -1.0000000E-01;  9.9999998E-03; -3.9999999E-02;262;  0.0000000E+00;  0.0000000E+00;  0.0000000E+00;  1.0000170E+03;  4.0000001E-01;  1.4024293E+01;0;  0.0000000E+00;  0.0000000E+00;  0.0000000E+00;0; -8.7589622E-03;  1.0000000E+04;  0.0000000E+00;  0.0000000E+00;  1.0000000E+04;  0.0000000E+00;  1.0000000E+04; -8.8168215E-03;  0.0000000E+00;  5.7859092E-05;  2.1662533E+00;
 -1.0000000E-01;  9.9999998E-03; -2.0000000E-02;263;  0.0000000E+00;  0.0000000E+00;  0.0000000E+00;  1.0000170E+03;  4.0000001E-01;  1.4024293E+01;0;  0.0000000E+00;  0.0000000E+00;  0.0000000E+00;0; -8.7628365E-03;  1.0000000E+04;  0.0000000E+00;  0.0000000E+00;  1.0000000E+04;  0.0000000E+00;  1.0000000E+04; -8.8159647E-03;  0.0000000E+00;  5.3128118E-05;  2.0638759E+00;
 -7.9999998E-02;  9.9999998E-03; -1.8000001E-01;296;  0.0000000E+00;  0.0000000E+00;  0.0000000E+00;  1.0000366E+03;  4.0000001E-01;  3.0320126E+01;0;  0.0000000E+00;  0.0000000E+00;  0.0000000E+00;0; -1.8696317E-02;  1.0000000E+04;  0.0000000E+00;  0.0000000E+00;  1.0000000E+04;  0.0000000E+00;  1.0000000E+04; -1.9082654E-02;  0.0000000E+00;  3.8633758E-04;  1.0267422E+01;
 -7.9999998E-02;  9.9999998E-03; -1.6000000E-01;297;  0.0000000E+00;  0.0000000E+00;  0.0000000E+00;  1.0000381E+03;  4.0000001E-01;  3.1604040E+01;0;  0.0000000E+00;  0.0000000E+00;  0.0000000E+00;0; -1.9448830E-02;  1.0000000E+04;  0.0000000E+00;  0.0000000E+00;  1.0000000E+04;  0.0000000E+00;  1.0000000E+04; -1.9829616E-02;  0.0000000E+00;  3.8078570E-04;  1.0132167E+01;
 -7.9999998E-02;  9.9999998E-03; -1.4000000E-01;298;  0.0000000E+00;  0.0000000E+00;  0.0000000E+00;  1.0000389E+03;  4.0000001E-01;  3.2295380E+01;0;  0.0000000E+00;  0.0000000E+00;  0.0000000E+00;0; -1.9975029E-02;  1.0000000E+04;  0.0000000E+00;  0.0000000E+00;  1.0000000E+04;  0.0000000E+00;  1.0000000E+04; -2.0324033E-02;  0.0000000E+00;  3.4900324E-04;  9.4585276E+00;
 -7.9999998E-02;  9.9999998E-03; -1.2000000E-01;299;  0.0000000E+00;  0.0000000E+00;  0.0000000E+00;  1.0000396E+03;  4.0000001E-01;  3.2789192E+01;0;  0.0000000E+00;  0.0000000E+00;  0.0000000E+00;0; -2.0325331E-02;  1.0000000E+04;  0.0000000E+00;  0.0000000E+00;  1.0000000E+04;  0.0000000E+00;  1.0000000E+04; -2.0635216E-02;  0.0000000E+00;  3.0988458E-04;  8.6165495E+00;
 -7.9999998E-02;  9.9999998E-03; -1.0000000E-01;300;  0.0000000E+00;  0.0000000E+00;  0.0000000E+00;  1.0000402E+03;  4.0000001E-01;  3.3283005E+01;0;  0.0000000E+00;  0.0000000E+00;  0.0000000E+00;0; -2.0544685E-02;  1.0000000E+04;  0.0000000E+00;  0.0000000E+00;  1.0000000E+04;  0.0000000E+00;  1.0000000E+04; -2.0814966E-02;  0.0000000E+00;  2.7028113E-04;  7.7549834E+00;
 -7.9999998E-02;  9.9999998E-03; -7.9999998E-02;301;  0.0000000E+00;  0.0000000E+00;  0.0000000E+00;  1.0000403E+03;  4.0000001E-01;  3.3381767E+01;0;  0.0000000E+00;  0.0000000E+00;  0.0000000E+00;0; -2.0672385E-02;  1.0000000E+04;  0.0000000E+00;  0.0000000E+00;  1.0000000E+04;  0.0000000E+00;  1.0000000E+04; -2.0906541E-02;  0.0000000E+00;  2.3415709E-04;  6.9647827E+00;
 -7.9999998E-02;  9.9999998E-03; -5.9999999E-02;302;  0.0000000E+00;  0.0000000E+00;  0.0000000E+00;  1.0000404E+03;  4.0000001E-01;  3.3480530E+01;0;  0.0000000E+00;  0.0000000E+00;  0.0000000E+00;0; -2.0740330E-02;  1.0000000E+04;  0.0000000E+00;  0.0000000E+00;  1.0000000E+04;  0.0000000E+00;  1.0000000E+04; -2.0944286E-02;  0.0000000E+00;  2.0395505E-04;  6.3030639E+00;
 -7.9999998E-02;  9.9999998E-03; -3.9999999E-02;303;  0.0000000E+00;  0.0000000E+00;  0.0000000E+00;  1.0000405E+03;  4.0000001E-01;  3.3480530E+01;0;  0.0000000E+00;  0.0000000E+00;  0.0000000E+00;0; -2.0772543E-02;  1.0000000E+04;  0.0000000E+00;  0.0000000E+00;  1.0000000E+04;  0.0000000E+00;  1.0000000E+04; -2.0953823E-02;  0.0000000E+00;  1.8128054E-04;  5.8065963E+00;
 -7.9999998E-02;  9.9999998E-03; -2.0000000E-02;304;  0.0000000E+00;  0.0000000E+00;  0.0000000E+00;  1.0000405E+03;  4.0000001E-01;  3.3480530E+01;0;  0.0000000E+00;  0.0000000E+00;  0.0000000E+00;0; -2.0785492E-02;  1.0000000E+04;  0.0000000E+00;  0.0000000E+00;  1.0000000E+04;  0.0000000E+00;  1.0000000E+04; -2.0952722E-02;  0.0000000E+00;  1.6722985E-04;  5.4993591E+00;
 -5.9999999E-02;  9.9999998E-03; -1.8000001E-01;337;  0.0000000E+00;  0.0000000E+00;  0.0000000E+00;  1.0000710E+03;  4.0000001E-01;  5.8862522E+01;0;  0.0000000E+00;  0.0000000E+00;  0.0000000E+00;0; -3.6051199E-02;  1.0000000E+04;  0.0000000E+00;  0.0000000E+00;  1.0000000E+04;  0.0000000E+00;  1.0000000E+04; -3.6931127E-02;  0.0000000E+00;  8.7992894E-04;  2.2532976E+01;
 -5.9999999E-02;  9.9999998E-03; -1.6000000E-01;338;  0.0000000E+00;  0.0000000E+00;  0.0000000E+00;  1.0000737E+03;  4.0000001E-01;  6.1035301E+01;0;  0.0000000E+00;  0.0000000E+00;  0.0000000E+00;0; -3.7490565E-02;  1.0000000E+04;  0.0000000E+00;  0.0000000E+00;  1.0000000E+04;  0.0000000E+00;  1.0000000E+04; -3.8370386E-02;  0.0000000E+00;  8.7981875E-04;  2.2389328E+01;
 -5.9999999E-02;  9.9999998E-03; -1.4000000E-01;339;  0.0000000E+00;  0.0000000E+00;  0.0000000E+00;  1.0000755E+03;  4.0000001E-01;  6.2516743E+01;0;  0.0000000E+00;  0.0000000E+00;  0.0000000E+00;0; -3.8506266E-02;  1.0000000E+04;  0.0000000E+00;  0.0000000E+00;  1.0000000E+04;  0.0000000E+00;  1.0000000E+04; -3.9322574E-02;  0.0000000E+00;  8.1630732E-04;  2.0960831E+01;
 -5.9999999E-02;  9.9999998E-03; -1.2000000E-01;340;  0.0000000E+00;  0.0000000E+00;  0.0000000E+00;  1.0000770E+03;  4.0000001E-01;  6.3800655E+01;0;  0.0000000E+00;  0.0000000E+00;  0.0000000E+00;0; -3.9188754E-02;  1.0000000E+04;  0.0000000E+00;  0.0000000E+00;  1.0000000E+04;  0.0000000E+00;  1.0000000E+04; -3.9918993E-02;  0.0000000E+00;  7.3023874E-04;  1.9051620E+01;
 -5.9999999E-02;  9.9999998E-03; -1.0000000E-01;341;  0.0000000E+00;  0.0000000E+00;  0.0000000E+00;  1.0000775E+03;  4.0000001E-01;  6.4195709E+01;0;  0.0000000E+00;  0.0000000E+00;  0.0000000E+00;0; -3.9621495E-02;  1.0000000E+04;  0.0000000E+00;  0.0000000E+00;  1.0000000E+04;  0.0000000E+00;  1.0000000E+04; -4.0262513E-02;  0.0000000E+00;  6.4101687E-04;  1.7068403E+01;
 -5.9999999E-02;  9.9999998E-03; -7.9999998E-02;342;  0.0000000E+00;  0.0000000E+00;  0.0000000E+00;  1.0000778E+03;  4.0000001E-01;  6.4491997E+01;0;  0.0000000E+00;  0.0000000E+00;  0.0000000E+00;0; -3.9878163E-02;  1.0000000E+04;  0.0000000E+00;  0.0000000E+00;  1.0000000E+04;  0.0000000E+00;  1.0000000E+04; -4.0436849E-02;  0.0000000E+00;  5.5868458E-04;  1.5235950E+01;
 -5.9999999E-02;  9.9999998E-03; -5.9999999E-02;343;  0.0000000E+00;  0.0000000E+00;  0.0000000E+00;  1.0000782E+03;  4.0000001E-01;  6.4788284E+01;0;  0.0000000E+00;  0.0000000E+00;  0.0000000E+00;0; -4.0018588E-02;  1.0000000E+04;  0.0000000E+00;  0.0000000E+00;  1.0000000E+04;  0.0000000E+00;  1.0000000E+04; -4.0508073E-02;  0.0000000E+00;  4.8948557E-04;  1.3696616E+01;
 -5.9999999E-02;  9.9999998E-03; -3.9999999E-02;344;  0.0000000E+00;  0.0000000E+00;  0.0000000E+00;  1.0000782E+03;  4.0000001E-01;  6.4788284E+01;0;  0.0000000E+00;  0.0000000E+00;  0.0000000E+00;0; -4.0088065E-02;  1.0000000E+04;  0.0000000E+00;  0.0000000E+00;  1.0000000E+04;  0.0000000E+00;  1.0000000E+04; -4.0525492E-02;  0.0000000E+00;  4.3742705E-04;  1.2540567E+01;
 -5.9999999E-02;  9.9999998E-03; -2.0000000E-02;345;  0.0000000E+00;  0.0000000E+00;  0.0000000E+00;  1.0000782E+03;  4.0000001E-01;  6.4788284E+01;0;  0.0000000E+00;  0.0000000E+00;  0.0000000E+00;0; -4.0117718E-02;  1.0000000E+04;  0.0000000E+00;  0.0000000E+00;  1.0000000E+04;  0.0000000E+00;  1.0000000E+04; -4.0522862E-02;  0.0000000E+00;  4.0514569E-04;  1.1825079E+01;
 -3.9999999E-02;  9.9999998E-03; -1.8000001E-01;378;  0.0000000E+00;  0.0000000E+00;  0.0000000E+00;  1.0001169E+03;  4.0000001E-01;  9.6886131E+01;0;  0.0000000E+00;  0.0000000E+00;  0.0000000E+00;0; -5.9180051E-02;  1.0000000E+04;  0.0000000E+00;  0.0000000E+00;  1.0000000E+04;  0.0000000E+00;  1.0000000E+04; -6.0855497E-02;  0.0000000E+00;  1.6754461E-03;  4.1796062E+01;
 -3.9999999E-02;  9.9999998E-03; -1.6000000E-01;379;  0.0000000E+00;  0.0000000E+00;  0.0000000E+00;  1.0001213E+03;  4.0000001E-01;  1.0054035E+02;0;  0.0000000E+00;  0.0000000E+00;  0.0000000E+00;0; -6.1486121E-02;  1.0000000E+04;  0.0000000E+00;  0.0000000E+00;  1.0000000E+04;  0.0000000E+00;  1.0000000E+04; -6.3173592E-02;  0.0000000E+00;  1.6874708E-03;  4.1629814E+01;
 -3.9999999E-02;  9.9999998E-03; -1.4000000E-01;380;  0.0000000E+00;  0.0000000E+00;  0.0000000E+00;  1.0001243E+03;  4.0000001E-01;  1.0300941E+02;0;  0.0000000E+00;  0.0000000E+00;  0.0000000E+00;0; -6.3124552E-02;  1.0000000E+04;  0.0000000E+00;  0.0000000E+00;  1.0000000E+04;  0.0000000E+00;  1.0000000E+04; -6.4704448E-02;  0.0000000E+00;  1.5798931E-03;  3.9043079E+01;
 -3.9999999E-02;  9.9999998E-03; -1.2000000E-01;381;  0.0000000E+00;  0.0000000E+00;  0.0000000E+00;  1.0001264E+03;  4.0000001E-01;  1.0468839E+02;0;  0.0000000E+00;  0.0000000E+00;  0.0000000E+00;0; -6.4232342E-02;  1.0000000E+04;  0.0000000E+00;  0.0000000E+00;  1.0000000E+04;  0.0000000E+00;  1.0000000E+04; -6.5655433E-02;  0.0000000E+00;  1.4230887E-03;  3.5439819E+01;
 -3.9999999E-02;  9.9999998E-03; -1.0000000E-01;382;  0.0000000E+00;  0.0000000E+00;  0.0000000E+00;  1.0001278E+03;  4.0000001E-01;  1.0587354E+02;0;  0.0000000E+00;  0.0000000E+00;  0.0000000E+00;0; -6.4939968E-02;  1.0000000E+04;  0.0000000E+00;  0.0000000E+00;  1.0000000E+04;  0.0000000E+00;  1.0000000E+04; -6.6196874E-02;  0.0000000E+00;  1.2569043E-03;  3.1648729E+01;
 -3.9999999E-02;  9.9999998E-03; -7.9999998E-02;383;  0.0000000E+00;  0.0000000E+00;  0.0000000E+00;  1.0001284E+03;  4.0000001E-01;  1.0636735E+02;0;  0.0000000E+00;  0.0000000E+00;  0.0000000E+00;0; -6.5364376E-02;  1.0000000E+04;  0.0000000E+00;  0.0000000E+00;  1.0000000E+04;  0.0000000E+00;  1.0000000E+04; -6.6466168E-02;  0.0000000E+00;  1.1017913E-03;  2.8122009E+01;
 -3.9999999E-02;  9.9999998E-03; -5.9999999E-02;384;  0.0000000E+00;  0.0000000E+00;  0.0000000E+00;  1.0001287E+03;  4.0000001E-01;  1.0666364E+02;0;  0.0000000E+00;  0.0000000E+00;  0.0000000E+00;0; -6.5600492E-02;  1.0000000E+04;  0.0000000E+00;  0.0000000E+00;  1.0000000E+04;  0.0000000E+00;  1.0000000E+04; -6.6571176E-02;  0.0000000E+00;  9.7068102E-04;  2.5149691E+01;
 -3.9999999E-02;  9.9999998E-03; -3.9999999E-02;385;  0.0000000E+00;  0.0000000E+00;  0.0000000E+00;  1.0001288E+03;  4.0000001E-01;  1.0676240E+02;0;  0.0000000E+00;  0.0000000E+00;  0.0000000E+00;0; -6.5720230E-02;  1.0000000E+04;  0.0000000E+00;  0.0000000E+00;  1.0000000E+04;  0.0000000E+00;  1.0000000E+04; -6.6592015E-02;  0.0000000E+00;  8.7178487E-04;  2.2914341E+01;
 -3.9999999E-02;  9.9999998E-03; -2.0000000E-02;386;  0.0000000E+00;  0.0000000E+00;  0.0000000E+00;  1.0001290E+03;  4.0000001E-01;  1.0686116E+02;0;  0.0000000E+00;  0.0000000E+00;  0.0000000E+00;0; -6.5773010E-02;  1.0000000E+04;  0.0000000E+00;  0.0000000E+00;  1.0000000E+04;  0.0000000E+00;  1.0000000E+04; -6.6583402E-02;  0.0000000E+00;  8.1039418E-04;  2.1530281E+01;
 -2.0000000E-02;  9.9999998E-03; -1.8000001E-01;419;  0.0000000E+00;  0.0000000E+00;  0.0000000E+00;  1.0001689E+03;  4.0000001E-01;  1.3994664E+02;0;  0.0000000E+00;  0.0000000E+00;  0.0000000E+00;0; -8.4784381E-02;  1.0000000E+04;  0.0000000E+00;  0.0000000E+00;  1.0000000E+04;  0.0000000E+00;  1.0000000E+04; -8.7541498E-02;  0.0000000E+00;  2.7571176E-03;  6.7561546E+01;
 -2.0000000E-02;  9.9999998E-03; -1.6000000E-01;420;  0.0000000E+00;  0.0000000E+00;  0.0000000E+00;  1.0001747E+03;  4.0000001E-01;  1.4478601E+02;0;  0.0000000E+00;  0.0000000E+00;  0.0000000E+00;0; -8.7958612E-02;  1.0000000E+04;  0.0000000E+00;  0.0000000E+00;  1.0000000E+04;  0.0000000E+00;  1.0000000E+04; -9.0746760E-02;  0.0000000E+00;  2.7881509E-03;  6.7294220E+01;
 -2.0000000E-02;  9.9999998E-03; -1.4000000E-01;421;  0.0000000E+00;  0.0000000E+00;  0.0000000E+00;  1.0001788E+03;  4.0000001E-01;  1.4814394E+02;0;  0.0000000E+00;  0.0000000E+00;  0.0000000E+00;0; -9.0223163E-02;  1.0000000E+04;  0.0000000E+00;  0.0000000E+00;  1.0000000E+04;  0.0000000E+00;  1.0000000E+04; -9.2849985E-02;  0.0000000E+00;  2.6268186E-03;  6.3122059E+01;
 -2.0000000E-02;  9.9999998E-03; -1.2000000E-01;422;  0.0000000E+00;  0.0000000E+00;  0.0000000E+00;  1.0001816E+03;  4.0000001E-01;  1.5041548E+02;0;  0.0000000E+00;  0.0000000E+00;  0.0000000E+00;0; -9.1758564E-02;  1.0000000E+04;  0.0000000E+00;  0.0000000E+00;  1.0000000E+04;  0.0000000E+00;  1.0000000E+04; -9.4140366E-02;  0.0000000E+00;  2.3818042E-03;  5.7244682E+01;
 -2.0000000E-02;  9.9999998E-03; -1.0000000E-01;423;  0.0000000E+00;  0.0000000E+00;  0.0000000E+00;  1.0001834E+03;  4.0000001E-01;  1.5199568E+02;0;  0.0000000E+00;  0.0000000E+00;  0.0000000E+00;0; -9.2743047E-02;  1.0000000E+04;  0.0000000E+00;  0.0000000E+00;  1.0000000E+04;  0.0000000E+00;  1.0000000E+04; -9.4859548E-02;  0.0000000E+00;  2.1165018E-03;  5.0994701E+01;
 -2.0000000E-02;  9.9999998E-03; -7.9999998E-02;424;  0.0000000E+00;  0.0000000E+00;  0.0000000E+00;  1.0001844E+03;  4.0000001E-01;  1.5278578E+02;0;  0.0000000E+00;  0.0000000E+00;  0.0000000E+00;0; -9.3337163E-02;  1.0000000E+04;  0.0000000E+00;  0.0000000E+00;  1.0000000E+04;  0.0000000E+00;  1.0000000E+04; -9.5203273E-02;  0.0000000E+00;  1.8661085E-03;  4.5147079E+01;
 -2.0000000E-02;  9.9999998E-03; -5.9999999E-02;425;  0.0000000E+00;  0.0000000E+00;  0.0000000E+00;  1.0001849E+03;  4.0000001E-01;  1.5318083E+02;0;  0.0000000E+00;  0.0000000E+00;  0.0000000E+00;0; -9.3670994E-02;  1.0000000E+04;  0.0000000E+00;  0.0000000E+00;  1.0000000E+04;  0.0000000E+00;  1.0000000E+04; -9.5324226E-02;  0.0000000E+00;  1.6532318E-03;  4.0203655E+01;
 -2.0000000E-02;  9.9999998E-03; -3.9999999E-02;426;  0.0000000E+00;  0.0000000E+00;  0.0000000E+00;  1.0001851E+03;  4.0000001E-01;  1.5337836E+02;0;  0.0000000E+00;  0.0000000E+00;  0.0000000E+00;0; -9.3842767E-02;  1.0000000E+04;  0.0000000E+00;  0.0000000E+00;  1.0000000E+04;  0.0000000E+00;  1.0000000E+04; -9.5334955E-02;  0.0000000E+00;  1.4921875E-03;  3.6480549E+01;
 -2.0000000E-02;  9.9999998E-03; -2.0000000E-02;427;  0.0000000E+00;  0.0000000E+00;  0.0000000E+00;  1.0001852E+03;  4.0000001E-01;  1.5347711E+02;0;  0.0000000E+00;  0.0000000E+00;  0.0000000E+00;0; -9.3919776E-02;  1.0000000E+04;  0.0000000E+00;  0.0000000E+00;  1.0000000E+04;  0.0000000E+00;  1.0000000E+04; -9.5311858E-02;  0.0000000E+00;  1.3920848E-03;  3.4174030E+01;
 -2.2000000E-01;  9.9999998E-03;  0.0000000E+00;19;  0.0000000E+00;  0.0000000E+00;  0.0000000E+00;  1.0000000E+03;  4.0000001E-01;  0.0000000E+00;0;  0.0000000E+00;  0.0000000E+00;  0.0000000E+00;0;  0.0000000E+00;  1.0000000E+04;  0.0000000E+00;  0.0000000E+00;  1.0000000E+04;  0.0000000E+00;  1.0000000E+04;  0.0000000E+00;  0.0000000E+00;  0.0000000E+00;  0.0000000E+00;
 -2.2000000E-01;  9.9999998E-03;  2.0000000E-02;20;  0.0000000E+00;  0.0000000E+00;  0.0000000E+00;  1.0000000E+03;  4.0000001E-01;  0.0000000E+00;0;  0.0000000E+00;  0.0000000E+00;  0.0000000E+00;0;  0.0000000E+00;  1.0000000E+04;  0.0000000E+00;  0.0000000E+00;  1.0000000E+04;  0.0000000E+00;  1.0000000E+04;  0.0000000E+00;  0.0000000E+00;  0.0000000E+00;  0.0000000E+00;
 -2.2000000E-01;  9.9999998E-03;  3.9999999E-02;21;  0.0000000E+00;  0.0000000E+00;  0.0000000E+00;  1.0000000E+03;  4.0000001E-01;  0.0000000E+00;0;  0.0000000E+00;  0.0000000E+00;  0.0000000E+00;0;  0.0000000E+00;  1.0000000E+04;  0.0000000E+00;  0.0000000E+00;  1.0000000E+04;  0.0000000E+00;  1.0000000E+04;  0.0000000E+00;  0.0000000E+00;  0.0000000E+00;  0.0000000E+00;
 -2.2000000E-01;  9.9999998E-03;  5.9999999E-02;22;  0.0000000E+00;  0.0000000E+00;  0.0000000E+00;  1.0000000E+03;  4.0000001E-01;  0.0000000E+00;0;  0.0000000E+00;  0.0000000E+00;  0.0000000E+00;0;  0.0000000E+00;  1.0000000E+04;  0.0000000E+00;  0.0000000E+00;  1.0000000E+04;  0.0000000E+00;  1.0000000E+04;  0.0000000E+00;  0.0000000E+00;  0.0000000E+00;  0.0000000E+00;
 -2.2000000E-01;  9.9999998E-03;  7.9999998E-02;23;  0.0000000E+00;  0.0000000E+00;  0.0000000E+00;  1.0000000E+03;  4.0000001E-01;  0.0000000E+00;0;  0.0000000E+00;  0.0000000E+00;  0.0000000E+00;0;  0.0000000E+00;  1.0000000E+04;  0.0000000E+00;  0.0000000E+00;  1.0000000E+04;  0.0000000E+00;  1.0000000E+04;  0.0000000E+00;  0.0000000E+00;  0.0000000E+00;  0.0000000E+00;
 -2.2000000E-01;  9.9999998E-03;  1.0000000E-01;24;  0.0000000E+00;  0.0000000E+00;  0.0000000E+00;  1.0000000E+03;  4.0000001E-01;  0.0000000E+00;0;  0.0000000E+00;  0.0000000E+00;  0.0000000E+00;0;  0.0000000E+00;  1.0000000E+04;  0.0000000E+00;  0.0000000E+00;  1.0000000E+04;  0.0000000E+00;  1.0000000E+04;  0.0000000E+00;  0.0000000E+00;  0.0000000E+00;  0.0000000E+00;
 -2.2000000E-01;  9.9999998E-03;  1.2000000E-01;25;  0.0000000E+00;  0.0000000E+00;  0.0000000E+00;  1.0000000E+03;  4.0000001E-01;  0.0000000E+00;0;  0.0000000E+00;  0.0000000E+00;  0.0000000E+00;0;  0.0000000E+00;  1.0000000E+04;  0.0000000E+00;  0.0000000E+00;  1.0000000E+04;  0.0000000E+00;  1.0000000E+04;  0.0000000E+00;  0.0000000E+00;  0.0000000E+00;  0.0000000E+00;
 -2.2000000E-01;  9.9999998E-03;  1.4000000E-01;26;  0.0000000E+00;  0.0000000E+00;  0.0000000E+00;  1.0000000E+03;  4.0000001E-01;  0.0000000E+00;0;  0.0000000E+00;  0.0000000E+00;  0.0000000E+00;0;  0.0000000E+00;  1.0000000E+04;  0.0000000E+00;  0.0000000E+00;  1.0000000E+04;  0.0000000E+00;  1.0000000E+04;  0.0000000E+00;  0.0000000E+00;  0.0000000E+00;  0.0000000E+00;
 -2.0000000E-01;  9.9999998E-03;  0.0000000E+00;59;  0.0000000E+00;  0.0000000E+00;  0.0000000E+00;  1.0000000E+03;  4.0000001E-01;  0.0000000E+00;0;  0.0000000E+00;  0.0000000E+00;  0.0000000E+00;0;  0.0000000E+00;  1.0000000E+04;  0.0000000E+00;  0.0000000E+00;  1.0000000E+04;  0.0000000E+00;  1.0000000E+04;  0.0000000E+00;  0.0000000E+00;  0.0000000E+00;  0.0000000E+00;
 -2.0000000E-01;  9.9999998E-03;  2.0000000E-02;60;  0.0000000E+00;  0.0000000E+00;  0.0000000E+00;  1.0000000E+03;  4.0000001E-01;  0.0000000E+00;0;  0.0000000E+00;  0.0000000E+00;  0.0000000E+00;0;  0.0000000E+00;  1.0000000E+04;  0.0000000E+00;  0.0000000E+00;  1.0000000E+04;  0.0000000E+00;  1.0000000E+04;  0.0000000E+00;  0.0000000E+00;  0.0000000E+00;  0.0000000E+00;
 -2.0000000E-01;  9.9999998E-03;  3.9999999E-02;61;  0.0000000E+00;  0.0000000E+00;  0.0000000E+00;  1.0000000E+03;  4.0000001E-01;  0.0000000E+00;0;  0.0000000E+00;  0.0000000E+00;  0.0000000E+00;0;  0.0000000E+00;  1.0000000E+04;  0.0000000E+00;  0.0000000E+00;  1.0000000E+04;  0.0000000E+00;  1.0000000E+04;  0.0000000E+00;  0.0000000E+00;  0.0000000E+00;  0.0000000E+00;
 -2.0000000E-01;  9.9999998E-03;  5.9999999E-02;62;  0.0000000E+00;  0.0000000E+00;  0.0000000E+00;  1.0000000E+03;  4.0000001E-01;  0.0000000E+00;0;  0.0000000E+00;  0.0000000E+00;  0.0000000E+00;0;  0.0000000E+00;  1.0000000E+04;  0.0000000E+00;  0.0000000E+00;  1.0000000E+04;  0.0000000E+00;  1.0000000E+04;  0.0000000E+00;  0.0000000E+00;  0.0000000E+00;  0.0000000E+00;
 -2.0000000E-01;  9.9999998E-03;  7.9999998E-02;63;  0.0000000E+00;  0.0000000E+00;  0.0000000E+00;  1.0000000E+03;  4.0000001E-01;  0.0000000E+00;0;  0.0000000E+00;  0.0000000E+00;  0.0000000E+00;0;  0.0000000E+00;  1.0000000E+04;  0.0000000E+00;  0.0000000E+00;  1.0000000E+04;  0.0000000E+00;  1.0000000E+04;  0.0000000E+00;  0.0000000E+00;  0.0000000E+00;  0.0000000E+00;
 -2.0000000E-01;  9.9999998E-03;  1.0000000E-01;64;  0.0000000E+00;  0.0000000E+00;  0.0000000E+00;  1.0000000E+03;  4.0000001E-01;  0.0000000E+00;0;  0.0000000E+00;  0.0000000E+00;  0.0000000E+00;0;  0.0000000E+00;  1.0000000E+04;  0.0000000E+00;  0.0000000E+00;  1.0000000E+04;  0.0000000E+00;  1.0000000E+04;  0.0000000E+00;  0.0000000E+00;  0.0000000E+00;  0.0000000E+00;
 -2.0000000E-01;  9.9999998E-03;  1.2000000E-01;65;  0.0000000E+00;  0.0000000E+00;  0.0000000E+00;  1.0000000E+03;  4.0000001E-01;  0.0000000E+00;0;  0.0000000E+00;  0.0000000E+00;  0.0000000E+00;0;  0.0000000E+00;  1.0000000E+04;  0.0000000E+00;  0.0000000E+00;  1.0000000E+04;  0.0000000E+00;  1.0000000E+04;  0.0000000E+00;  0.0000000E+00;  0.0000000E+00;  0.0000000E+00;
 -2.0000000E-01;  9.9999998E-03;  1.4000000E-01;66;  0.0000000E+00;  0.0000000E+00;  0.0000000E+00;  1.0000000E+03;  4.0000001E-01;  0.0000000E+00;0;  0.0000000E+00;  0.0000000E+00;  0.0000000E+00;0;  0.0000000E+00;  1.0000000E+04;  0.0000000E+00;  0.0000000E+00;  1.0000000E+04;  0.0000000E+00;  1.0000000E+04;  0.0000000E+00;  0.0000000E+00;  0.0000000E+00;  0.0000000E+00;
 -1.8000001E-01;  9.9999998E-03;  0.0000000E+00;100;  0.0000000E+00;  0.0000000E+00;  0.0000000E+00;  1.0000000E+03;  4.0000001E-01;  0.0000000E+00;0;  0.0000000E+00;  0.0000000E+00;  0.0000000E+00;0;  0.0000000E+00;  1.0000000E+04;  0.0000000E+00;  0.0000000E+00;  1.0000000E+04;  0.0000000E+00;  1.0000000E+04;  0.0000000E+00;  0.0000000E+00;  0.0000000E+00;  0.0000000E+00;
 -1.8000001E-01;  9.9999998E-03;  2.0000000E-02;101;  0.0000000E+00;  0.0000000E+00;  0.0000000E+00;  1.0000000E+03;  4.0000001E-01;  0.0000000E+00;0;  0.0000000E+00;  0.0000000E+00;  0.0000000E+00;0;  0.0000000E+00;  1.0000000E+04;  0.0000000E+00;  0.0000000E+00;  1.0000000E+04;  0.0000000E+00;  1.0000000E+04;  0.0000000E+00;  0.0000000E+00;  0.0000000E+00;  0.0000000E+00;
 -1.8000001E-01;  9.9999998E-03;  3.9999999E-02;102;  0.0000000E+00;  0.0000000E+00;  0.0000000E+00;  1.0000000E+03;  4.0000001E-01;  0.0000000E+00;0;  0.0000000E+00;  0.0000000E+00;  0.0000000E+00;0;  0.0000000E+00;  1.0000000E+04;  0.0000000E+00;  0.0000000E+00;  1.0000000E+04;  0.0000000E+00;  1.0000000E+04;  0.0000000E+00;  0.0000000E+00;  0.0000000E+00;  0.0000000E+00;
 -1.8000001E-01;  9.9999998E-03;  5.9999999E-02;103;  0.0000000E+00;  0.0000000E+00;  0.0000000E+00;  1.0000000E+03;  4.0000001E-01;  0.0000000E+00;0;  0.0000000E+00;  0.0000000E+00;  0.0000000E+00;0;  0.0000000E+00;  1.0000000E+04;  0.0000000E+00;  0.0000000E+00;  1.0000000E+04;  0.0000000E+00;  1.0000000E+04;  0.0000000E+00;  0.0000000E+00;  0.0000000E+00;  0.0000000E+00;
 -1.8000001E-01;  9.9999998E-03;  7.9999998E-02;104;  0.0000000E+00;  0.0000000E+00;  0.0000000E+00;  1.0000000E+03;  4.0000001E-01;  0.0000000E+00;0;  0.0000000E+00;  0.0000000E+00;  0.0000000E+00;0;  0.0000000E+00;  1.0000000E+04;  0.0000000E+00;  0.0000000E+00;  1.0000000E+04;  0.0000000E+00;  1.0000000E+04;  0.0000000E+00;  0.0000000E+00;  0.0000000E+00;  0.0000000E+00;
 -1.8000001E-01;  9.9999998E-03;  1.0000000E-01;105;  0.0000000E+00;  0.0000000E+00;  0.0000000E+00;  1.0000000E+03;  4.0000001E-01;  0.0000000E+00;0;  0.0000000E+00;  0.0000000E+00;  0.0000000E+00;0;  0.0000000E+00;  1.0000000E+04;  0.0000000E+00;  0.0000000E+00;  1.0000000E+04;  0.0000000E+00;  1.0000000E+04;  0.0000000E+00;  0.0000000E+00;  0.0000000E+00;  0.0000000E+00;
 -1.8000001E-01;  9.9999998E-03;  1.2000000E-01;106;  0.0000000E+00;  0.0000000E+00;  0.0000000E+00;  1.0000000E+03;  4.0000001E-01;  0.0000000E+00;0;  0.0000000E+00;  0.0000000E+00;  0.0000000E+00;0;  0.0000000E+00;  1.0000000E+04;  0.0000000E+00;  0.0000000E+00;  1.0000000E+04;  0.0000000E+00;  1.0000000E+04;  0.0000000E+00;  0.0000000E+00;  0.0000000E+00;  0.0000000E+00;
 -1.8000001E-01;  9.9999998E-03;  1.4000000E-01;107;  0.0000000E+00;  0.0000000E+00;  0.0000000E+00;  1.0000000E+03;  4.0000001E-01;  0.0000000E+00;0;  0.0000000E+00;  0.0000000E+00;  0.0000000E+00;0;  0.0000000E+00;  1.0000000E+04;  0.0000000E+00;  0.0000000E+00;  1.0000000E+04;  0.0000000E+00;  1.0000000E+04;  0.0000000E+00;  0.0000000E+00;  0.0000000E+00;  0.0000000E+00;
 -1.6000000E-01;  9.9999998E-03;  0.0000000E+00;141;  0.0000000E+00;  0.0000000E+00;  0.0000000E+00;  1.0000000E+03;  4.0000001E-01;  0.0000000E+00;0;  0.0000000E+00;  0.0000000E+00;  0.0000000E+00;0; -1.3533471E-05;  1.0000000E+04;  0.0000000E+00;  0.0000000E+00;  1.0000000E+04;  0.0000000E+00;  1.0000000E+04; -1.3541700E-05;  0.0000000E+00;  8.2294846E-09;  2.1347753E-03;
 -1.6000000E-01;  9.9999998E-03;  2.0000000E-02;142;  0.0000000E+00;  0.0000000E+00;  0.0000000E+00;  1.0000000E+03;  4.0000001E-01;  0.0000000E+00;0;  0.0000000E+00;  0.0000000E+00;  0.0000000E+00;0; -1.3537173E-05;  1.0000000E+04;  0.0000000E+00;  0.0000000E+00;  1.0000000E+04;  0.0000000E+00;  1.0000000E+04; -1.3545716E-05;  0.0000000E+00;  8.5429583E-09;  2.1424002E-03;
 -1.6000000E-01;  9.9999998E-03;  3.9999999E-02;143;  0.0000000E+00;  0.0000000E+00;  0.0000000E+00;  1.0000000E+03;  4.0000001E-01;  0.0000000E+00;0;  0.0000000E+00;  0.0000000E+00;  0.0000000E+00;0; -1.3546203E-05;  1.0000000E+04;  0.0000000E+00;  0.0000000E+00;  1.0000000E+04;  0.0000000E+00;  1.0000000E+04; -1.3555693E-05;  0.0000000E+00;  9.4896304E-09;  2.1647387E-03;
 -1.6000000E-01;  9.9999998E-03;  5.9999999E-02;144;  0.0000000E+00;  0.0000000E+00;  0.0000000E+00;  1.0000000E+03;  4.0000001E-01;  0.0000000E+00;0;  0.0000000E+00;  0.0000000E+00;  0.0000000E+00;0; -1.3554479E-05;  1.0000000E+04;  0.0000000E+00;  0.0000000E+00;  1.0000000E+04;  0.0000000E+00;  1.0000000E+04; -1.3565495E-05;  0.0000000E+00;  1.1016457E-08;  2.2001662E-03;
 -1.6000000E-01;  9.9999998E-03;  7.9999998E-02;145;  0.0000000E+00;  0.0000000E+00;  0.0000000E+00;  1.0000000E+03;  4.0000001E-01;  0.0000000E+00;0;  0.0000000E+00;  0.0000000E+00;  0.0000000E+00;0; -1.3551289E-05;  1.0000000E+04;  0.0000000E+00;  0.0000000E+00;  1.0000000E+04;  0.0000000E+00;  1.0000000E+04; -1.3564329E-05;  0.0000000E+00;  1.3040102E-08;  2.2453163E-03;
 -1.6000000E-01;  9.9999998E-03;  1.0000000E-01;146;  0.0000000E+00;  0.0000000E+00;  0.0000000E+00;  1.0000000E+03;  4.0000001E-01;  0.0000000E+00;0;  0.0000000E+00;  0.0000000E+00;  0.0000000E+00;0; -1.3520826E-05;  1.0000000E+04;  0.0000000E+00;  0.0000000E+00;  1.0000000E+04;  0.0000000E+00;  1.0000000E+04; -1.3536315E-05;  0.0000000E+00;  1.5490031E-08;  2.2965085E-03;
 -1.6000000E-01;  9.9999998E-03;  1.2000000E-01;147;  0.0000000E+00;  0.0000000E+00;  0.0000000E+00;  1.0000000E+03;  4.0000001E-01;  0.0000000E+00;0;  0.0000000E+00;  0.0000000E+00;  0.0000000E+00;0; -1.3441639E-05;  1.0000000E+04;  0.0000000E+00;  0.0000000E+00;  1.0000000E+04;  0.0000000E+00;  1.0000000E+04; -1.3459809E-05;  0.0000000E+00;  1.8169841E-08;  2.3476284E-03;
 -1.6000000E-01;  9.9999998E-03;  1.4000000E-01;148;  0.0000000E+00;  0.0000000E+00;  0.0000000E+00;  1.0000000E+03;  4.0000001E-01;  0.0000000E+00;0;  0.0000000E+00;  0.0000000E+00;  0.0000000E+00;0; -1.3285421E-05;  1.0000000E+04;  0.0000000E+00;  0.0000000E+00;  1.0000000E+04;  0.0000000E+00;  1.0000000E+04; -1.3306486E-05;  0.0000000E+00;  2.1064709E-08;  2.3918613E-03;
 -1.4000000E-01;  9.9999998E-03;  0.0000000E+00;182;  0.0000000E+00;  0.0000000E+00;  0.0000000E+00;  1.0000009E+03;  4.0000001E-01;  7.9010099E-01;0;  0.0000000E+00;  0.0000000E+00;  0.0000000E+00;0; -4.9722771E-04;  1.0000000E+04;  0.0000000E+00;  0.0000000E+00;  1.0000000E+04;  0.0000000E+00;  1.0000000E+04; -4.9831363E-04;  0.0000000E+00;  1.0859097E-06;  8.9081593E-02;
 -1.4000000E-01;  9.9999998E-03;  2.0000000E-02;183;  0.0000000E+00;  0.0000000E+00;  0.0000000E+00;  1.0000009E+03;  4.0000001E-01;  7.9010099E-01;0;  0.0000000E+00;  0.0000000E+00;  0.0000000E+00;0; -4.9728050E-04;  1.0000000E+04;  0.0000000E+00;  0.0000000E+00;  1.0000000E+04;  0.0000000E+00;  1.0000000E+04; -4.9840542E-04;  0.0000000E+00;  1.1249319E-06;  8.9928359E-02;
 -1.4000000E-01;  9.9999998E-03;  3.9999999E-02;184;  0.0000000E+00;  0.0000000E+00;  0.0000000E+00;  1.0000009E+03;  4.0000001E-01;  7.9010099E-01;0;  0.0000000E+00;  0.0000000E+00;  0.0000000E+00;0; -4.9736275E-04;  1.0000000E+04;  0.0000000E+00;  0.0000000E+00;  1.0000000E+04;  0.0000000E+00;  1.0000000E+04; -4.9860269E-04;  0.0000000E+00;  1.2399523E-06;  9.2416935E-02;
 -1.4000000E-01;  9.9999998E-03;  5.9999999E-02;185;  0.0000000E+00;  0.0000000E+00;  0.0000000E+00;  1.0000009E+03;  4.0000001E-01;  7.9010099E-01;0;  0.0000000E+00;  0.0000000E+00;  0.0000000E+00;0; -4.9724343E-04;  1.0000000E+04;  0.0000000E+00;  0.0000000E+00;  1.0000000E+04;  0.0000000E+00;  1.0000000E+04; -4.9866916E-04;  0.0000000E+00;  1.4257525E-06;  9.6416764E-02;
 -1.4000000E-01;  9.9999998E-03;  7.9999998E-02;186;  0.0000000E+00;  0.0000000E+00;  0.0000000E+00;  1.0000009E+03;  4.0000001E-01;  7.9010099E-01;0;  0.0000000E+00;  0.0000000E+00;  0.0000000E+00;0; -4.9652177E-04;  1.0000000E+04;  0.0000000E+00;  0.0000000E+00;  1.0000000E+04;  0.0000000E+00;  1.0000000E+04; -4.9819442E-04;  0.0000000E+00;  1.6726600E-06;  1.0170142E-01;
 -1.4000000E-01;  9.9999998E-03;  1.0000000E-01;187;  0.0000000E+00;  0.0000000E+00;  0.0000000E+00;  1.0000009E+03;  4.0000001E-01;  7.9010099E-01;0;  0.0000000E+00;  0.0000000E+00;  0.0000000E+00;0; -4.9461034E-04;  1.0000000E+04;  0.0000000E+00;  0.0000000E+00;  1.0000000E+04;  0.0000000E+00;  1.0000000E+04; -4.9657887E-04;  0.0000000E+00;  1.9685467E-06;  1.0795106E-01;
 -1.4000000E-01;  9.9999998E-03;  1.2000000E-01;188;  0.0000000E+00;  0.0000000E+00;  0.0000000E+00;  1.0000009E+03;  4.0000001E-01;  7.9010099E-01;0;  0.0000000E+00;  0.0000000E+00;  0.0000000E+00;0; -4.9070385E-04;  1.0000000E+04;  0.0000000E+00;  0.0000000E+00;  1.0000000E+04;  0.0000000E+00;  1.0000000E+04; -4.9300614E-04;  0.0000000E+00;  2.3023013E-06;  1.1479317E-01;
 -1.4000000E-01;  9.9999998E-03;  1.4000000E-01;189;  0.0000000E+00;  0.0000000E+00;  0.0000000E+00;  1.0000009E+03;  4.0000001E-01;  6.9133836E-01;0;  0.0000000E+00;  0.0000000E+00;  0.0000000E+00;0; -4.8378095E-04;  1.0000000E+04;  0.0000000E+00;  0.0000000E+00;  1.0000000E+04;  0.0000000E+00;  1.0000000E+04; -4.8643604E-04;  0.0000000E+00;  2.6550856E-06;  1.2164676E-01;
 -1.2000000E-01;  9.9999998E-03;  0.0000000E+00;223;  0.0000000E+00;  0.0000000E+00;  0.0000000E+00;  1.0000052E+03;  4.0000001E-01;  4.3455553E+00;0;  0.0000000E+00;  0.0000000E+00;  0.0000000E+00;0; -2.7527923E-03;  1.0000000E+04;  0.0000000E+00;  0.0000000E+00;  1.0000000E+04;  0.0000000E+00;  1.0000000E+04; -2.7637109E-03;  0.0000000E+00;  1.0918564E-05;  5.6209421E-01;
 -1.2000000E-01;  9.9999998E-03;  2.0000000E-02;224;  0.0000000E+00;  0.0000000E+00;  0.0000000E+00;  1.0000052E+03;  4.0000001E-01;  4.3455553E+00;0;  0.0000000E+00;  0.0000000E+00;  0.0000000E+00;0; -2.7527669E-03;  1.0000000E+04;  0.0000000E+00;  0.0000000E+00;  1.0000000E+04;  0.0000000E+00;  1.0000000E+04; -2.7640490E-03;  0.0000000E+00;  1.1282023E-05;  5.6990767E-01;
 -1.2000000E-01;  9.9999998E-03;  3.9999999E-02;225;  0.0000000E+00;  0.0000000E+00;  0.0000000E+00;  1.0000052E+03;  4.0000001E-01;  4.3455553E+00;0;  0.0000000E+00;  0.0000000E+00;  0.0000000E+00;0; -2.7522666E-03;  1.0000000E+04;  0.0000000E+00;  0.0000000E+00;  1.0000000E+04;  0.0000000E+00;  1.0000000E+04; -2.7646220E-03;  0.0000000E+00;  1.2355432E-05;  5.9298784E-01;
 -1.2000000E-01;  9.9999998E-03;  5.9999999E-02;226;  0.0000000E+00;  0.0000000E+00;  0.0000000E+00;  1.0000052E+03;  4.0000001E-01;  4.3455553E+00;0;  0.0000000E+00;  0.0000000E+00;  0.0000000E+00;0; -2.7500049E-03;  1.0000000E+04;  0.0000000E+00;  0.0000000E+00;  1.0000000E+04;  0.0000000E+00;  1.0000000E+04; -2.7640900E-03;  0.0000000E+00;  1.4085140E-05;  6.3019180E-01;
 -1.2000000E-01;  9.9999998E-03;  7.9999998E-02;227;  0.0000000E+00;  0.0000000E+00;  0.0000000E+00;  1.0000052E+03;  4.0000001E-01;  4.3455553E+00;0;  0.0000000E+00;  0.0000000E+00;  0.0000000E+00;0; -2.7437557E-03;  1.0000000E+04;  0.0000000E+00;  0.0000000E+00;  1.0000000E+04;  0.0000000E+00;  1.0000000E+04; -2.7601451E-03;  0.0000000E+00;  1.6389449E-05;  6.7965591E-01;
 -1.2000000E-01;  9.9999998E-03;  1.0000000E-01;228;  0.0000000E+00;  0.0000000E+00;  0.0000000E+00;  1.0000052E+03;  4.0000001E-01;  4.3455553E+00;0;  0.0000000E+00;  0.0000000E+00;  0.0000000E+00;0; -2.7302520E-03;  1.0000000E+04;  0.0000000E+00;  0.0000000E+00;  1.0000000E+04;  0.0000000E+00;  1.0000000E+04; -2.7494170E-03;  0.0000000E+00;  1.9164989E-05;  7.3880404E-01;
 -1.2000000E-01;  9.9999998E-03;  1.2000000E-01;229;  0.0000000E+00;  0.0000000E+00;  0.0000000E+00;  1.0000052E+03;  4.0000001E-01;  4.3455553E+00;0;  0.0000000E+00;  0.0000000E+00;  0.0000000E+00;0; -2.7051002E-03;  1.0000000E+04;  0.0000000E+00;  0.0000000E+00;  1.0000000E+04;  0.0000000E+00;  1.0000000E+04; -2.7273677E-03;  0.0000000E+00;  2.2267415E-05;  8.0390137E-01;
 -1.2000000E-01;  9.9999998E-03;  1.4000000E-01;230;  0.0000000E+00;  0.0000000E+00;  0.0000000E+00;  1.0000051E+03;  4.0000001E-01;  4.1480303E+00;0;  0.0000000E+00;  0.0000000E+00;  0.0000000E+00;0; -2.6627863E-03;  1.0000000E+04;  0.0000000E+00;  0.0000000E+00;  1.0000000E+04;  0.0000000E+00;  1.0000000E+04; -2.6882635E-03;  0.0000000E+00;  2.5477324E-05;  8.6923748E-01;
 -1.0000000E-01;  9.9999998E-03;  0.0000000E+00;264;  0.0000000E+00;  0.0000000E+00;  0.0000000E+00;  1.0000170E+03;  4.0000001E-01;  1.4024293E+01;0;  0.0000000E+00;  0.0000000E+00;  0.0000000E+00;0; -8.7636821E-03;  1.0000000E+04;  0.0000000E+00;  0.0000000E+00;  1.0000000E+04;  0.0000000E+00;  1.0000000E+04; -8.8152066E-03;  0.0000000E+00;  5.1524661E-05;  2.0292199E+00;
 -1.0000000E-01;  9.9999998E-03;  2.0000000E-02;265;  0.0000000E+00;  0.0000000E+00;  0.0000000E+00;  1.0000170E+03;  4.0000001E-01;  1.4024293E+01;0;  0.0000000E+00;  0.0000000E+00;  0.0000000E+00;0; -8.7628355E-03;  1.0000000E+04;  0.0000000E+00;  0.0000000E+00;  1.0000000E+04;  0.0000000E+00;  1.0000000E+04; -8.8159638E-03;  0.0000000E+00;  5.3128140E-05;  2.0638759E+00;
 -1.0000000E-01;  9.9999998E-03;  3.9999999E-02;266;  0.0000000E+00;  0.0000000E+00;  0.0000000E+00;  1.0000170E+03;  4.0000001E-01;  1.4024293E+01;0;  0.0000000E+00;  0.0000000E+00;  0.0000000E+00;0; -8.7589622E-03;  1.0000000E+04;  0.0000000E+00;  0.0000000E+00;  1.0000000E+04;  0.0000000E+00;  1.0000000E+04; -8.8168215E-03;  0.0000000E+00;  5.7859121E-05;  2.1662538E+00;
 -1.0000000E-01;  9.9999998E-03;  5.9999999E-02;267;  0.0000000E+00;  0.0000000E+00;  0.0000000E+00;  1.0000170E+03;  4.0000001E-01;  1.4024293E+01;0;  0.0000000E+00;  0.0000000E+00;  0.0000000E+00;0; -8.7479791E-03;  1.0000000E+04;  0.0000000E+00;  0.0000000E+00;  1.0000000E+04;  0.0000000E+00;  1.0000000E+04; -8.8134715E-03;  0.0000000E+00;  6.5492051E-05;  2.3315842E+00;
 -1.0000000E-01;  9.9999998E-03;  7.9999998E-02;268;  0.0000000E+00;  0.0000000E+00;  0.0000000E+00;  1.0000170E+03;  4.0000001E-01;  1.4024293E+01;0;  0.0000000E+00;  0.0000000E+00;  0.0000000E+00;0; -8.7228371E-03;  1.0000000E+04;  0.0000000E+00;  0.0000000E+00;  1.0000000E+04;  0.0000000E+00;  1.0000000E+04; -8.7985098E-03;  0.0000000E+00;  7.5672389E-05;  2.5519569E+00;
 -1.0000000E-01;  9.9999998E-03;  1.0000000E-01;269;  0.0000000E+00;  0.0000000E+00;  0.0000000E+00;  1.0000168E+03;  4.0000001E-01;  1.3925530E+01;0;  0.0000000E+00;  0.0000000E+00;  0.0000000E+00;0; -8.6732386E-03;  1.0000000E+04;  0.0000000E+00;  0.0000000E+00;  1.0000000E+04;  0.0000000E+00;  1.0000000E+04; -8.7611368E-03;  0.0000000E+00;  8.7898043E-05;  2.8156219E+00;
 -1.0000000E-01;  9.9999998E-03;  1.2000000E-01;270;  0.0000000E+00;  0.0000000E+00;  0.0000000E+00;  1.0000164E+03;  4.0000001E-01;  1.3629242E+01;0;  0.0000000E+00;  0.0000000E+00;  0.0000000E+00;0; -8.5854409E-03;  1.0000000E+04;  0.0000000E+00;  0.0000000E+00;  1.0000000E+04;  0.0000000E+00;  1.0000000E+04; -8.6868871E-03;  0.0000000E+00;  1.0144609E-04;  3.1049798E+00;
 -1.0000000E-01;  9.9999998E-03;  1.4000000E-01;271;  0.0000000E+00;  0.0000000E+00;  0.0000000E+00;  1.0000164E+03;  4.0000001E-01;  1.3530479E+01;0;  0.0000000E+00;  0.0000000E+00;  0.0000000E+00;0; -8.4423721E-03;  1.0000000E+04;  0.0000000E+00;  0.0000000E+00;  1.0000000E+04;  0.0000000E+00;  1.0000000E+04; -8.5575264E-03;  0.0000000E+00;  1.1515406E-04;  3.3921363E+00;
 -7.9999998E-02;  9.9999998E-03;  0.0000000E+00;305;  0.0000000E+00;  0.0000000E+00;  0.0000000E+00;  1.0000405E+03;  4.0000001E-01;  3.3480530E+01;0;  0.0000000E+00;  0.0000000E+00;  0.0000000E+00;0; -2.0788766E-02;  1.0000000E+04;  0.0000000E+00;  0.0000000E+00;  1.0000000E+04;  0.0000000E+00;  1.0000000E+04; -2.0951238E-02;  0.0000000E+00;  1.6247020E-04;  5.3953800E+00;
 -7.9999998E-02;  9.9999998E-03;  2.0000000E-02;306;  0.0000000E+00;  0.0000000E+00;  0.0000000E+00;  1.0000405E+03;  4.0000001E-01;  3.3480530E+01;0;  0.0000000E+00;  0.0000000E+00;  0.0000000E+00;0; -2.0785488E-02;  1.0000000E+04;  0.0000000E+00;  0.0000000E+00;  1.0000000E+04;  0.0000000E+00;  1.0000000E+04; -2.0952718E-02;  0.0000000E+00;  1.6722991E-04;  5.4993591E+00;
 -7.9999998E-02;  9.9999998E-03;  3.9999999E-02;307;  0.0000000E+00;  0.0000000E+00;  0.0000000E+00;  1.0000405E+03;  4.0000001E-01;  3.3480530E+01;0;  0.0000000E+00;  0.0000000E+00;  0.0000000E+00;0; -2.0772547E-02;  1.0000000E+04;  0.0000000E+00;  0.0000000E+00;  1.0000000E+04;  0.0000000E+00;  1.0000000E+04; -2.0953827E-02;  0.0000000E+00;  1.8128060E-04;  5.8065968E+00;
 -7.9999998E-02;  9.9999998E-03;  5.9999999E-02;308;  0.0000000E+00;  0.0000000E+00;  0.0000000E+00;  1.0000404E+03;  4.0000001E-01;  3.3480530E+01;0;  0.0000000E+00;  0.0000000E+00;  0.0000000E+00;0; -2.0740326E-02;  1.0000000E+04;  0.0000000E+00;  0.0000000E+00;  1.0000000E+04;  0.0000000E+00;  1.0000000E+04; -2.0944282E-02;  0.0000000E+00;  2.0395519E-04;  6.3030653E+00;
 -7.9999998E-02;  9.9999998E-03;  7.9999998E-02;309;  0.0000000E+00;  0.0000000E+00;  0.0000000E+00;  1.0000403E+03;  4.0000001E-01;  3.3381767E+01;0;  0.0000000E+00;  0.0000000E+00;  0.0000000E+00;0; -2.0672383E-02;  1.0000000E+04;  0.0000000E+00;  0.0000000E+00;  1.0000000E+04;  0.0000000E+00;  1.0000000E+04; -2.0906540E-02;  0.0000000E+00;  2.3415728E-04;  6.9647841E+00;
 -7.9999998E-02;  9.9999998E-03;  1.0000000E-01;310;  0.0000000E+00;  0.0000000E+00;  0.0000000E+00;  1.0000402E+03;  4.0000001E-01;  3.3283005E+01;0;  0.0000000E+00;  0.0000000E+00;  0.0000000E+00;0; -2.0544684E-02;  1.0000000E+04;  0.0000000E+00;  0.0000000E+00;  1.0000000E+04;  0.0000000E+00;  1.0000000E+04; -2.0814965E-02;  0.0000000E+00;  2.7028137E-04;  7.7549877E+00;
 -7.9999998E-02;  9.9999998E-03;  1.2000000E-01;311;  0.0000000E+00;  0.0000000E+00;  0.0000000E+00;  1.0000396E+03;  4.0000001E-01;  3.2789192E+01;0;  0.0000000E+00;  0.0000000E+00;  0.0000000E+00;0; -2.0325327E-02;  1.0000000E+04;  0.0000000E+00;  0.0000000E+00;  1.0000000E+04;  0.0000000E+00;  1.0000000E+04; -2.0635212E-02;  0.0000000E+00;  3.0988487E-04;  8.6165524E+00;
 -7.9999998E-02;  9.9999998E-03;  1.4000000E-01;312;  0.0000000E+00;  0.0000000E+00;  0.0000000E+00;  1.0000389E+03;  4.0000001E-01;  3.2295380E+01;0;  0.0000000E+00;  0.0000000E+00;  0.0000000E+00;0; -1.9975021E-02;  1.0000000E+04;  0.0000000E+00;  0.0000000E+00;  1.0000000E+04;  0.0000000E+00;  1.0000000E+04; -2.0324025E-02;  0.0000000E+00;  3.4900327E-04;  9.4585285E+00;
 -5.9999999E-02;  9.9999998E-03;  0.0000000E+00;346;  0.0000000E+00;  0.0000000E+00;  0.0000000E+00;  1.0000782E+03;  4.0000001E-01;  6.4788284E+01;0;  0.0000000E+00;  0.0000000E+00;  0.0000000E+00;0; -4.0125672E-02;  1.0000000E+04;  0.0000000E+00;  0.0000000E+00;  1.0000000E+04;  0.0000000E+00;  1.0000000E+04; -4.0519878E-02;  0.0000000E+00;  3.9420731E-04;  1.1582925E+01;
 -5.9999999E-02;  9.9999998E-03;  2.0000000E-02;347;  0.0000000E+00;  0.0000000E+00;  0.0000000E+00;  1.0000782E+03;  4.0000001E-01;  6.4788284E+01;0;  0.0000000E+00;  0.0000000E+00;  0.0000000E+00;0; -4.0117729E-02;  1.0000000E+04;  0.0000000E+00;  0.0000000E+00;  1.0000000E+04;  0.0000000E+00;  1.0000000E+04; -4.0522877E-02;  0.0000000E+00;  4.0514598E-04;  1.1825080E+01;
 -5.9999999E-02;  9.9999998E-03;  3.9999999E-02;348;  0.0000000E+00;  0.0000000E+00;  0.0000000E+00;  1.0000782E+03;  4.0000001E-01;  6.4788284E+01;0;  0.0000000E+00;  0.0000000E+00;  0.0000000E+00;0; -4.0088091E-02;  1.0000000E+04;  0.0000000E+00;  0.0000000E+00;  1.0000000E+04;  0.0000000E+00;  1.0000000E+04; -4.0525518E-02;  0.0000000E+00;  4.3742752E-04;  1.2540569E+01;
 -5.9999999E-02;  9.9999998E-03;  5.9999999E-02;349;  0.0000000E+00;  0.0000000E+00;  0.0000000E+00;  1.0000782E+03;  4.0000001E-01;  6.4788284E+01;0;  0.0000000E+00;  0.0000000E+00;  0.0000000E+00;0; -4.0018607E-02;  1.0000000E+04;  0.0000000E+00;  0.0000000E+00;  1.0000000E+04;  0.0000000E+00;  1.0000000E+04; -4.0508091E-02;  0.0000000E+00;  4.8948615E-04;  1.3696618E+01;
 -5.9999999E-02;  9.9999998E-03;  7.9999998E-02;350;  0.0000000E+00;  0.0000000E+00;  0.0000000E+00;  1.0000778E+03;  4.0000001E-01;  6.4491997E+01;0;  0.0000000E+00;  0.0000000E+00;  0.0000000E+00;0; -3.9878171E-02;  1.0000000E+04;  0.0000000E+00;  0.0000000E+00;  1.0000000E+04;  0.0000000E+00;  1.0000000E+04; -4.0436856E-02;  0.0000000E+00;  5.5868516E-04;  1.5235955E+01;
 -5.9999999E-02;  9.9999998E-03;  1.0000000E-01;351;  0.0000000E+00;  0.0000000E+00;  0.0000000E+00;  1.0000775E+03;  4.0000001E-01;  6.4195709E+01;0;  0.0000000E+00;  0.0000000E+00;  0.0000000E+00;0; -3.9621517E-02;  1.0000000E+04;  0.0000000E+00;  0.0000000E+00;  1.0000000E+04;  0.0000000E+00;  1.0000000E+04; -4.0262535E-02;  0.0000000E+00;  6.4101745E-04;  1.7068407E+01;
 -5.9999999E-02;  9.9999998E-03;  1.2000000E-01;352;  0.0000000E+00;  0.0000000E+00;  0.0000000E+00;  1.0000770E+03;  4.0000001E-01;  6.3800655E+01;0;  0.0000000E+00;  0.0000000E+00;  0.0000000E+00;0; -3.9188746E-02;  1.0000000E+04;  0.0000000E+00;  0.0000000E+00;  1.0000000E+04;  0.0000000E+00;  1.0000000E+04; -3.9918985E-02;  0.0000000E+00;  7.3023885E-04;  1.9051624E+01;
 -5.9999999E-02;  9.9999998E-03;  1.4000000E-01;353;  0.0000000E+00;  0.0000000E+00;  0.0000000E+00;  1.0000755E+03;  4.0000001E-01;  6.2516743E+01;0;  0.0000000E+00;  0.0000000E+00;  0.0000000E+00;0; -3.8506277E-02;  1.0000000E+04;  0.0000000E+00;  0.0000000E+00;  1.0000000E+04;  0.0000000E+00;  1.0000000E+04; -3.9322585E-02;  0.0000000E+00;  8.1630744E-04;  2.0960833E+01;
 -3.9999999E-02;  9.9999998E-03;  0.0000000E+00;387;  0.0000000E+00;  0.0000000E+00;  0.0000000E+00;  1.0001290E+03;  4.0000001E-01;  1.0686116E+02;0;  0.0000000E+00;  0.0000000E+00;  0.0000000E+00;0; -6.5787457E-02;  1.0000000E+04;  0.0000000E+00;  0.0000000E+00;  1.0000000E+04;  0.0000000E+00;  1.0000000E+04; -6.6577040E-02;  0.0000000E+00;  7.8958599E-04;  2.1061852E+01;
 -3.9999999E-02;  9.9999998E-03;  2.0000000E-02;388;  0.0000000E+00;  0.0000000E+00;  0.0000000E+00;  1.0001290E+03;  4.0000001E-01;  1.0686116E+02;0;  0.0000000E+00;  0.0000000E+00;  0.0000000E+00;0; -6.5773010E-02;  1.0000000E+04;  0.0000000E+00;  0.0000000E+00;  1.0000000E+04;  0.0000000E+00;  1.0000000E+04; -6.6583402E-02;  0.0000000E+00;  8.1039476E-04;  2.1530289E+01;
 -3.9999999E-02;  9.9999998E-03;  3.9999999E-02;389;  0.0000000E+00;  0.0000000E+00;  0.0000000E+00;  1.0001288E+03;  4.0000001E-01;  1.0676240E+02;0;  0.0000000E+00;  0.0000000E+00;  0.0000000E+00;0; -6.5720230E-02;  1.0000000E+04;  0.0000000E+00;  0.0000000E+00;  1.0000000E+04;  0.0000000E+00;  1.0000000E+04; -6.6592015E-02;  0.0000000E+00;  8.7178539E-04;  2.2914347E+01;
 -3.9999999E-02;  9.9999998E-03;  5.9999999E-02;390;  0.0000000E+00;  0.0000000E+00;  0.0000000E+00;  1.0001287E+03;  4.0000001E-01;  1.0666364E+02;0;  0.0000000E+00;  0.0000000E+00;  0.0000000E+00;0; -6.5600485E-02;  1.0000000E+04;  0.0000000E+00;  0.0000000E+00;  1.0000000E+04;  0.0000000E+00;  1.0000000E+04; -6.6571169E-02;  0.0000000E+00;  9.7068172E-04;  2.5149696E+01;
 -3.9999999E-02;  9.9999998E-03;  7.9999998E-02;391;  0.0000000E+00;  0.0000000E+00;  0.0000000E+00;  1.0001284E+03;  4.0000001E-01;  1.0636735E+02;0;  0.0000000E+00;  0.0000000E+00;  0.0000000E+00;0; -6.5364376E-02;  1.0000000E+04;  0.0000000E+00;  0.0000000E+00;  1.0000000E+04;  0.0000000E+00;  1.0000000E+04; -6.6466168E-02;  0.0000000E+00;  1.1017923E-03;  2.8122021E+01;
 -3.9999999E-02;  9.9999998E-03;  1.0000000E-01;392;  0.0000000E+00;  0.0000000E+00;  0.0000000E+00;  1.0001278E+03;  4.0000001E-01;  1.0587354E+02;0;  0.0000000E+00;  0.0000000E+00;  0.0000000E+00;0; -6.4939961E-02;  1.0000000E+04;  0.0000000E+00;  0.0000000E+00;  1.0000000E+04;  0.0000000E+00;  1.0000000E+04; -6.6196866E-02;  0.0000000E+00;  1.2569055E-03;  3.1648731E+01;
 -3.9999999E-02;  9.9999998E-03;  1.2000000E-01;393;  0.0000000E+00;  0.0000000E+00;  0.0000000E+00;  1.0001264E+03;  4.0000001E-01;  1.0468839E+02;0;  0.0000000E+00;  0.0000000E+00;  0.0000000E+00;0; -6.4232334E-02;  1.0000000E+04;  0.0000000E+00;  0.0000000E+00;  1.0000000E+04;  0.0000000E+00;  1.0000000E+04; -6.5655425E-02;  0.0000000E+00;  1.4230894E-03;  3.5439827E+01;
 -3.9999999E-02;  9.9999998E-03;  1.4000000E-01;394;  0.0000000E+00;  0.0000000E+00;  0.0000000E+00;  1.0001243E+03;  4.0000001E-01;  1.0300941E+02;0;  0.0000000E+00;  0.0000000E+00;  0.0000000E+00;0; -6.3124567E-02;  1.0000000E+04;  0.0000000E+00;  0.0000000E+00;  1.0000000E+04;  0.0000000E+00;  1.0000000E+04; -6.4704463E-02;  0.0000000E+00;  1.5798932E-03;  3.9043091E+01;
 -2.0000000E-02;  9.9999998E-03;  0.0000000E+00;428;  0.0000000E+00;  0.0000000E+00;  0.0000000E+00;  1.0001852E+03;  4.0000001E-01;  1.5347711E+02;0;  0.0000000E+00;  0.0000000E+00;  0.0000000E+00;0; -9.3941249E-02;  1.0000000E+04;  0.0000000E+00;  0.0000000E+00;  1.0000000E+04;  0.0000000E+00;  1.0000000E+04; -9.5299393E-02;  0.0000000E+00;  1.3581438E-03;  3.3393341E+01;
 -2.0000000E-02;  9.9999998E-03;  2.0000000E-02;429;  0.0000000E+00;  0.0000000E+00;  0.0000000E+00;  1.0001852E+03;  4.0000001E-01;  1.5347711E+02;0;  0.0000000E+00;  0.0000000E+00;  0.0000000E+00;0; -9.3919791E-02;  1.0000000E+04;  0.0000000E+00;  0.0000000E+00;  1.0000000E+04;  0.0000000E+00;  1.0000000E+04; -9.5311880E-02;  0.0000000E+00;  1.3920852E-03;  3.4174038E+01;
 -2.0000000E-02;  9.9999998E-03;  3.9999999E-02;430;  0.0000000E+00;  0.0000000E+00;  0.0000000E+00;  1.0001851E+03;  4.0000001E-01;  1.5337836E+02;0;  0.0000000E+00;  0.0000000E+00;  0.0000000E+00;0; -9.3842760E-02;  1.0000000E+04;  0.0000000E+00;  0.0000000E+00;  1.0000000E+04;  0.0000000E+00;  1.0000000E+04; -9.5334947E-02;  0.0000000E+00;  1.4921888E-03;  3.6480553E+01;
 -2.0000000E-02;  9.9999998E-03;  5.9999999E-02;431;  0.0000000E+00;  0.0000000E+00;  0.0000000E+00;  1.0001849E+03;  4.0000001E-01;  1.5318083E+02;0;  0.0000000E+00;  0.0000000E+00;  0.0000000E+00;0; -9.3671016E-02;  1.0000000E+04;  0.0000000E+00;  0.0000000E+00;  1.0000000E+04;  0.0000000E+00;  1.0000000E+04; -9.5324248E-02;  0.0000000E+00;  1.6532332E-03;  4.0203663E+01;
 -2.0000000E-02;  9.9999998E-03;  7.9999998E-02;432;  0.0000000E+00;  0.0000000E+00;  0.0000000E+00;  1.0001844E+03;  4.0000001E-01;  1.5278578E+02;0;  0.0000000E+00;  0.0000000E+00;  0.0000000E+00;0; -9.3337148E-02;  1.0000000E+04;  0.0000000E+00;  0.0000000E+00;  1.0000000E+04;  0.0000000E+00;  1.0000000E+04; -9.5203258E-02;  0.0000000E+00;  1.8661094E-03;  4.5147083E+01;
 -2.0000000E-02;  9.9999998E-03;  1.0000000E-01;433;  0.0000000E+00;  0.0000000E+00;  0.0000000E+00;  1.0001834E+03;  4.0000001E-01;  1.5199568E+02;0;  0.0000000E+00;  0.0000000E+00;  0.0000000E+00;0; -9.2743054E-02;  1.0000000E+04;  0.0000000E+00;  0.0000000E+00;  1.0000000E+04;  0.0000000E+00;  1.0000000E+04; -9.4859555E-02;  0.0000000E+00;  2.1165032E-03;  5.0994717E+01;
 -2.0000000E-02;  9.9999998E-03;  1.2000000E-01;434;  0.0000000E+00;  0.0000000E+00;  0.0000000E+00;  1.0001816E+03;  4.0000001E-01;  1.5041548E+02;0;  0.0000000E+00;  0.0000000E+00;  0.0000000E+00;0; -9.1758557E-02;  1.0000000E+04;  0.0000000E+00;  0.0000000E+00;  1.0000000E+04;  0.0000000E+00;  1.0000000E+04; -9.4140366E-02;  0.0000000E+00;  2.3818056E-03;  5.7244690E+01;
 -2.0000000E-02;  9.9999998E-03;  1.4000000E-01;435;  0.0000000E+00;  0.0000000E+00;  0.0000000E+00;  1.0001788E+03;  4.0000001E-01;  1.4814394E+02;0;  0.0000000E+00;  0.0000000E+00;  0.0000000E+00;0; -9.0223201E-02;  1.0000000E+04;  0.0000000E+00;  0.0000000E+00;  1.0000000E+04;  0.0000000E+00;  1.0000000E+04; -9.2850022E-02;  0.0000000E+00;  2.6268193E-03;  6.3122074E+01;
 -2.2000000E-01;  9.9999998E-03;  1.6000000E-01;27;  0.0000000E+00;  0.0000000E+00;  0.0000000E+00;  1.0000000E+03;  4.0000001E-01;  0.0000000E+00;0;  0.0000000E+00;  0.0000000E+00;  0.0000000E+00;0;  0.0000000E+00;  1.0000000E+04;  0.0000000E+00;  0.0000000E+00;  1.0000000E+04;  0.0000000E+00;  1.0000000E+04;  0.0000000E+00;  0.0000000E+00;  0.0000000E+00;  0.0000000E+00;
 -2.2000000E-01;  9.9999998E-03;  1.8000001E-01;28;  0.0000000E+00;  0.0000000E+00;  0.0000000E+00;  1.0000000E+03;  4.0000001E-01;  0.0000000E+00;0;  0.0000000E+00;  0.0000000E+00;  0.0000000E+00;0;  0.0000000E+00;  1.0000000E+04;  0.0000000E+00;  0.0000000E+00;  1.0000000E+04;  0.0000000E+00;  1.0000000E+04;  0.0000000E+00;  0.0000000E+00;  0.0000000E+00;  0.0000000E+00;
 -2.2000000E-01;  9.9999998E-03;  2.0000000E-01;29;  0.0000000E+00;  0.0000000E+00;  0.0000000E+00;  1.0000000E+03;  4.0000001E-01;  0.0000000E+00;0;  0.0000000E+00;  0.0000000E+00;  0.0000000E+00;0;  0.0000000E+00;  1.0000000E+04;  0.0000000E+00;  0.0000000E+00;  1.0000000E+04;  0.0000000E+00;  1.0000000E+04;  0.0000000E+00;  0.0000000E+00;  0.0000000E+00;  0.0000000E+00;
 -2.2000000E-01;  9.9999998E-03;  2.2000000E-01;30;  0.0000000E+00;  0.0000000E+00;  0.0000000E+00;  1.0000000E+03;  4.0000001E-01;  0.0000000E+00;0;  0.0000000E+00;  0.0000000E+00;  0.0000000E+00;0;  0.0000000E+00;  1.0000000E+04;  0.0000000E+00;  0.0000000E+00;  1.0000000E+04;  0.0000000E+00;  1.0000000E+04;  0.0000000E+00;  0.0000000E+00;  0.0000000E+00;  0.0000000E+00;
 -2.2000000E-01;  9.9999998E-03;  2.3999999E-01;31;  0.0000000E+00;  0.0000000E+00;  0.0000000E+00;  1.0000000E+03;  4.0000001E-01;  0.0000000E+00;0;  0.0000000E+00;  0.0000000E+00;  0.0000000E+00;0;  0.0000000E+00;  1.0000000E+04;  0.0000000E+00;  0.0000000E+00;  1.0000000E+04;  0.0000000E+00;  1.0000000E+04;  0.0000000E+00;  0.0000000E+00;  0.0000000E+00;  0.0000000E+00;
 -2.2000000E-01;  9.9999998E-03;  2.5999999E-01;32;  0.0000000E+00;  0.0000000E+00;  0.0000000E+00;  1.0000000E+03;  4.0000001E-01;  0.0000000E+00;0;  0.0000000E+00;  0.0000000E+00;  0.0000000E+00;0;  0.0000000E+00;  1.0000000E+04;  0.0000000E+00;  0.0000000E+00;  1.0000000E+04;  0.0000000E+00;  1.0000000E+04;  0.0000000E+00;  0.0000000E+00;  0.0000000E+00;  0.0000000E+00;
 -2.2000000E-01;  9.9999998E-03;  2.8000000E-01;33;  0.0000000E+00;  0.0000000E+00;  0.0000000E+00;  1.0000000E+03;  4.0000001E-01;  0.0000000E+00;0;  0.0000000E+00;  0.0000000E+00;  0.0000000E+00;0;  0.0000000E+00;  1.0000000E+04;  0.0000000E+00;  0.0000000E+00;  1.0000000E+04;  0.0000000E+00;  1.0000000E+04;  0.0000000E+00;  0.0000000E+00;  0.0000000E+00;  0.0000000E+00;
 -2.2000000E-01;  9.9999998E-03;  3.0000001E-01;34;  0.0000000E+00;  0.0000000E+00;  0.0000000E+00;  1.0000000E+03;  4.0000001E-01;  0.0000000E+00;0;  0.0000000E+00;  0.0000000E+00;  0.0000000E+00;0;  0.0000000E+00;  1.0000000E+04;  0.0000000E+00;  0.0000000E+00;  1.0000000E+04;  0.0000000E+00;  1.0000000E+04;  0.0000000E+00;  0.0000000E+00;  0.0000000E+00;  0.0000000E+00;
 -2.2000000E-01;  9.9999998E-03;  3.1999999E-01;35;  0.0000000E+00;  0.0000000E+00;  0.0000000E+00;  1.0000000E+03;  4.0000001E-01;  0.0000000E+00;0;  0.0000000E+00;  0.0000000E+00;  0.0000000E+00;0;  0.0000000E+00;  1.0000000E+04;  0.0000000E+00;  0.0000000E+00;  1.0000000E+04;  0.0000000E+00;  1.0000000E+04;  0.0000000E+00;  0.0000000E+00;  0.0000000E+00;  0.0000000E+00;
 -2.0000000E-01;  9.9999998E-03;  1.6000000E-01;67;  0.0000000E+00;  0.0000000E+00;  0.0000000E+00;  1.0000000E+03;  4.0000001E-01;  0.0000000E+00;0;  0.0000000E+00;  0.0000000E+00;  0.0000000E+00;0;  0.0000000E+00;  1.0000000E+04;  0.0000000E+00;  0.0000000E+00;  1.0000000E+04;  0.0000000E+00;  1.0000000E+04;  0.0000000E+00;  0.0000000E+00;  0.0000000E+00;  0.0000000E+00;
 -2.0000000E-01;  9.9999998E-03;  1.8000001E-01;68;  0.0000000E+00;  0.0000000E+00;  0.0000000E+00;  1.0000000E+03;  4.0000001E-01;  0.0000000E+00;0;  0.0000000E+00;  0.0000000E+00;  0.0000000E+00;0;  0.0000000E+00;  1.0000000E+04;  0.0000000E+00;  0.0000000E+00;  1.0000000E+04;  0.0000000E+00;  1.0000000E+04;  0.0000000E+00;  0.0000000E+00;  0.0000000E+00;  0.0000000E+00;
 -2.0000000E-01;  9.9999998E-03;  2.0000000E-01;69;  0.0000000E+00;  0.0000000E+00;  0.0000000E+00;  1.0000000E+03;  4.0000001E-01;  0.0000000E+00;0;  0.0000000E+00;  0.0000000E+00;  0.0000000E+00;0;  0.0000000E+00;  1.0000000E+04;  0.0000000E+00;  0.0000000E+00;  1.0000000E+04;  0.0000000E+00;  1.0000000E+04;  0.0000000E+00;  0.0000000E+00;  0.0000000E+00;  0.0000000E+00;
 -2.0000000E-01;  9.9999998E-03;  2.2000000E-01;70;  0.0000000E+00;  0.0000000E+00;  0.0000000E+00;  1.0000000E+03;  4.0000001E-01;  0.0000000E+00;0;  0.0000000E+00;  0.0000000E+00;  0.0000000E+00;0;  0.0000000E+00;  1.0000000E+04;  0.0000000E+00;  0.0000000E+00;  1.0000000E+04;  0.0000000E+00;  1.0000000E+04;  0.0000000E+00;  0.0000000E+00;  0.0000000E+00;  0.0000000E+00;
 -2.0000000E-01;  9.9999998E-03;  2.3999999E-01;71;  0.0000000E+00;  0.0000000E+00;  0.0000000E+00;  1.0000000E+03;  4.0000001E-01;  0.0000000E+00;0;  0.0000000E+00;  0.0000000E+00;  0.0000000E+00;0;  0.0000000E+00;  1.0000000E+04;  0.0000000E+00;  0.0000000E+00;  1.0000000E+04;  0.0000000E+00;  1.0000000E+04;  0.0000000E+00;  0.0000000E+00;  0.0000000E+00;  0.0000000E+00;
 -2.0000000E-01;  9.9999998E-03;  2.5999999E-01;72;  0.0000000E+00;  0.0000000E+00;  0.0000000E+00;  1.0000000E+03;  4.0000001E-01;  0.0000000E+00;0;  0.0000000E+00;  0.0000000E+00;  0.0000000E+00;0;  0.0000000E+00;  1.0000000E+04;  0.0000000E+00;  0.0000000E+00;  1.0000000E+04;  0.0000000E+00;  1.0000000E+04;  0.0000000E+00;  0.0000000E+00;  0.0000000E+00;  0.0000000E+00;
 -2.0000000E-01;  9.9999998E-03;  2.8000000E-01;73;  0.0000000E+00;  0.0000000E+00;  0.0000000E+00;  1.0000000E+03;  4.0000001E-01;  0.0000000E+00;0;  0.0000000E+00;  0.0000000E+00;  0.0000000E+00;0;  0.0000000E+00;  1.0000000E+04;  0.0000000E+00;  0.0000000E+00;  1.0000000E+04;  0.0000000E+00;  1.0000000E+04;  0.0000000E+00;  0.0000000E+00;  0.0000000E+00;  0.0000000E+00;
 -2.0000000E-01;  9.9999998E-03;  3.0000001E-01;74;  0.0000000E+00;  0.0000000E+00;  0.0000000E+00;  1.0000000E+03;  4.0000001E-01;  0.0000000E+00;0;  0.0000000E+00;  0.0000000E+00;  0.0000000E+00;0;  0.0000000E+00;  1.0000000E+04;  0.0000000E+00;  0.0000000E+00;  1.0000000E+04;  0.0000000E+00;  1.0000000E+04;  0.0000000E+00;  0.0000000E+00;  0.0000000E+00;  0.0000000E+00;
 -2.0000000E-01;  9.9999998E-03;  3.1999999E-01;75;  0.0000000E+00;  0.0000000E+00;  0.0000000E+00;  1.0000000E+03;  4.0000001E-01;  0.0000000E+00;0;  0.0000000E+00;  0.0000000E+00;  0.0000000E+00;0;  0.0000000E+00;  1.0000000E+04;  0.0000000E+00;  0.0000000E+00;  1.0000000E+04;  0.0000000E+00;  1.0000000E+04;  0.0000000E+00;  0.0000000E+00;  0.0000000E+00;  0.0000000E+00;
 -1.8000001E-01;  9.9999998E-03;  1.6000000E-01;108;  0.0000000E+00;  0.0000000E+00;  0.0000000E+00;  1.0000000E+03;  4.0000001E-01;  0.0000000E+00;0;  0.0000000E+00;  0.0000000E+00;  0.0000000E+00;0;  0.0000000E+00;  1.0000000E+04;  0.0000000E+00;  0.0000000E+00;  1.0000000E+04;  0.0000000E+00;  1.0000000E+04;  0.0000000E+00;  0.0000000E+00;  0.0000000E+00;  0.0000000E+00;
 -1.8000001E-01;  9.9999998E-03;  1.8000001E-01;109;  0.0000000E+00;  0.0000000E+00;  0.0000000E+00;  1.0000000E+03;  4.0000001E-01;  0.0000000E+00;0;  0.0000000E+00;  0.0000000E+00;  0.0000000E+00;0;  0.0000000E+00;  1.0000000E+04;  0.0000000E+00;  0.0000000E+00;  1.0000000E+04;  0.0000000E+00;  1.0000000E+04;  0.0000000E+00;  0.0000000E+00;  0.0000000E+00;  0.0000000E+00;
 -1.8000001E-01;  9.9999998E-03;  2.0000000E-01;110;  0.0000000E+00;  0.0000000E+00;  0.0000000E+00;  1.0000000E+03;  4.0000001E-01;  0.0000000E+00;0;  0.0000000E+00;  0.0000000E+00;  0.0000000E+00;0;  0.0000000E+00;  1.0000000E+04;  0.0000000E+00;  0.0000000E+00;  1.0000000E+04;  0.0000000E+00;  1.0000000E+04;  0.0000000E+00;  0.0000000E+00;  0.0000000E+00;  0.0000000E+00;
 -1.8000001E-01;  9.9999998E-03;  2.2000000E-01;111;  0.0000000E+00;  0.0000000E+00;  0.0000000E+00;  1.0000000E+03;  4.0000001E-01;  0.0000000E+00;0;  0.0000000E+00;  0.0000000E+00;  0.0000000E+00;0;  0.0000000E+00;  1.0000000E+04;  0.0000000E+00;  0.0000000E+00;  1.0000000E+04;  0.0000000E+00;  1.0000000E+04;  0.0000000E+00;  0.0000000E+00;  0.0000000E+00;  0.0000000E+00;
 -1.8000001E-01;  9.9999998E-03;  2.3999999E-01;112;  0.0000000E+00;  0.0000000E+00;  0.0000000E+00;  1.0000000E+03;  4.0000001E-01;  0.0000000E+00;0;  0.0000000E+00;  0.0000000E+00;  0.0000000E+00;0;  0.0000000E+00;  1.0000000E+04;  0.0000000E+00;  0.0000000E+00;  1.0000000E+04;  0.0000000E+00;  1.0000000E+04;  0.0000000E+00;  0.0000000E+00;  0.0000000E+00;  0.0000000E+00;
 -1.8000001E-01;  9.9999998E-03;  2.5999999E-01;113;  0.0000000E+00;  0.0000000E+00;  0.0000000E+00;  1.0000000E+03;  4.0000001E-01;  0.0000000E+00;0;  0.0000000E+00;  0.0000000E+00;  0.0000000E+00;0;  0.0000000E+00;  1.0000000E+04;  0.0000000E+00;  0.0000000E+00;  1.0000000E+04;  0.0000000E+00;  1.0000000E+04;  0.0000000E+00;  0.0000000E+00;  0.0000000E+00;  0.0000000E+00;
 -1.8000001E-01;  9.9999998E-03;  2.8000000E-01;114;  0.0000000E+00;  0.0000000E+00;  0.0000000E+00;  1.0000000E+03;  4.0000001E-01;  0.0000000E+00;0;  0.0000000E+00;  0.0000000E+00;  0.0000000E+00;0;  0.0000000E+00;  1.0000000E+04;  0.0000000E+00;  0.0000000E+00;  1.0000000E+04;  0.0000000E+00;  1.0000000E+04;  0.0000000E+00;  0.0000000E+00;  0.0000000E+00;  0.0000000E+00;
 -1.8000001E-01;  9.9999998E-03;  3.0000001E-01;115;  0.0000000E+00;  0.0000000E+00;  0.0000000E+00;  1.0000000E+03;  4.0000001E-01;  0.0000000E+00;0;  0.0000000E+00;  0.0000000E+00;  0.0000000E+00;0;  0.0000000E+00;  1.0000000E+04;  0.0000000E+00;  0.0000000E+00;  1.0000000E+04;  0.0000000E+00;  1.0000000E+04;  0.0000000E+00;  0.0000000E+00;  0.0000000E+00;  0.0000000E+00;
 -1.8000001E-01;  9.9999998E-03;  3.1999999E-01;116;  0.0000000E+00;  0.0000000E+00;  0.0000000E+00;  1.0000000E+03;  4.0000001E-01;  0.0000000E+00;0;  0.0000000E+00;  0.0000000E+00;  0.0000000E+00;0;  0.0000000E+00;  1.0000000E+04;  0.0000000E+00;  0.0000000E+00;  1.0000000E+04;  0.0000000E+00;  1.0000000E+04;  0.0000000E+00;  0.0000000E+00;  0.0000000E+00;  0.0000000E+00;
 -1.6000000E-01;  9.9999998E-03;  1.6000000E-01;149;  0.0000000E+00;  0.0000000E+00;  0.0000000E+00;  1.0000000E+03;  4.0000001E-01;  0.0000000E+00;0;  0.0000000E+00;  0.0000000E+00;  0.0000000E+00;0; -1.3016923E-05;  1.0000000E+04;  0.0000000E+00;  0.0000000E+00;  1.0000000E+04;  0.0000000E+00;  1.0000000E+04; -1.3041053E-05;  0.0000000E+00;  2.4129580E-08;  2.4221723E-03;
 -1.6000000E-01;  9.9999998E-03;  1.8000001E-01;150;  0.0000000E+00;  0.0000000E+00;  0.0000000E+00;  1.0000000E+03;  4.0000001E-01;  0.0000000E+00;0;  0.0000000E+00;  0.0000000E+00;  0.0000000E+00;0; -1.2596261E-05;  1.0000000E+04;  0.0000000E+00;  0.0000000E+00;  1.0000000E+04;  0.0000000E+00;  1.0000000E+04; -1.2622913E-05;  0.0000000E+00;  2.6652756E-08;  2.4194582E-03;
 -1.6000000E-01;  9.9999998E-03;  2.0000000E-01;151;  0.0000000E+00;  0.0000000E+00;  0.0000000E+00;  1.0000000E+03;  4.0000001E-01;  0.0000000E+00;0;  0.0000000E+00;  0.0000000E+00;  0.0000000E+00;0; -1.1981218E-05;  1.0000000E+04;  0.0000000E+00;  0.0000000E+00;  1.0000000E+04;  0.0000000E+00;  1.0000000E+04; -1.2009255E-05;  0.0000000E+00;  2.8037908E-08;  2.3624173E-03;
 -1.6000000E-01;  9.9999998E-03;  2.2000000E-01;152;  0.0000000E+00;  0.0000000E+00;  0.0000000E+00;  1.0000000E+03;  4.0000001E-01;  0.0000000E+00;0;  0.0000000E+00;  0.0000000E+00;  0.0000000E+00;0; -1.1132463E-05;  1.0000000E+04;  0.0000000E+00;  0.0000000E+00;  1.0000000E+04;  0.0000000E+00;  1.0000000E+04; -1.1159841E-05;  0.0000000E+00;  2.7378862E-08;  2.2268449E-03;
 -1.6000000E-01;  9.9999998E-03;  2.3999999E-01;153;  0.0000000E+00;  0.0000000E+00;  0.0000000E+00;  1.0000000E+03;  4.0000001E-01;  0.0000000E+00;0;  0.0000000E+00;  0.0000000E+00;  0.0000000E+00;0; -1.0024958E-05;  1.0000000E+04;  0.0000000E+00;  0.0000000E+00;  1.0000000E+04;  0.0000000E+00;  1.0000000E+04; -1.0048003E-05;  0.0000000E+00;  2.3044997E-08;  1.9820449E-03;
 -1.6000000E-01;  9.9999998E-03;  2.5999999E-01;154;  0.0000000E+00;  0.0000000E+00;  0.0000000E+00;  1.0000000E+03;  4.0000001E-01;  0.0000000E+00;0;  0.0000000E+00;  0.0000000E+00;  0.0000000E+00;0; -8.4390222E-06;  1.0000000E+04;  0.0000000E+00;  0.0000000E+00;  1.0000000E+04;  0.0000000E+00;  1.0000000E+04; -8.4272533E-06;  0.0000000E+00; -1.1769281E-08;  1.1119947E-03;
 -1.6000000E-01;  9.9999998E-03;  2.8000000E-01;155;  0.0000000E+00;  0.0000000E+00;  0.0000000E+00;  1.0000000E+03;  4.0000001E-01;  0.0000000E+00;0;  0.0000000E+00;  0.0000000E+00;  0.0000000E+00;0; -5.6374247E-06;  1.0000000E+04;  0.0000000E+00;  0.0000000E+00;  1.0000000E+04;  0.0000000E+00;  1.0000000E+04; -5.5424880E-06;  0.0000000E+00; -9.4936865E-08;  9.0017647E-04;
 -1.6000000E-01;  9.9999998E-03;  3.0000001E-01;156;  0.0000000E+00;  0.0000000E+00;  0.0000000E+00;  1.0000000E+03;  4.0000001E-01;  0.0000000E+00;0;  0.0000000E+00;  0.0000000E+00;  0.0000000E+00;0; -2.3832074E-06;  1.0000000E+04;  0.0000000E+00;  0.0000000E+00;  1.0000000E+04;  0.0000000E+00;  1.0000000E+04; -2.2786746E-06;  0.0000000E+00; -1.0453277E-07;  1.5687369E-03;
 -1.6000000E-01;  9.9999998E-03;  3.1999999E-01;157;  0.0000000E+00;  0.0000000E+00;  0.0000000E+00;  1.0000000E+03;  4.0000001E-01;  0.0000000E+00;0;  0.0000000E+00;  0.0000000E+00;  0.0000000E+00;0; -3.7529921E-07;  1.0000000E+04;  0.0000000E+00;  0.0000000E+00;  1.0000000E+04;  0.0000000E+00;  1.0000000E+04; -3.4436474E-07;  0.0000000E+00; -3.0934480E-08;  5.0319196E-04;
 -1.4000000E-01;  9.9999998E-03;  1.6000000E-01;190;  0.0000000E+00;  0.0000000E+00;  0.0000000E+00;  1.0000009E+03;  4.0000001E-01;  6.9133836E-01;0;  0.0000000E+00;  0.0000000E+00;  0.0000000E+00;0; -4.7262132E-04;  1.0000000E+04;  0.0000000E+00;  0.0000000E+00;  1.0000000E+04;  0.0000000E+00;  1.0000000E+04; -4.7561491E-04;  0.0000000E+00;  2.9935950E-06;  1.2757838E-01;
 -1.4000000E-01;  9.9999998E-03;  1.8000001E-01;191;  0.0000000E+00;  0.0000000E+00;  0.0000000E+00;  1.0000009E+03;  4.0000001E-01;  6.9133836E-01;0;  0.0000000E+00;  0.0000000E+00;  0.0000000E+00;0; -4.5587440E-04;  1.0000000E+04;  0.0000000E+00;  0.0000000E+00;  1.0000000E+04;  0.0000000E+00;  1.0000000E+04; -4.5913359E-04;  0.0000000E+00;  3.2591827E-06;  1.3110977E-01;
 -1.4000000E-01;  9.9999998E-03;  2.0000000E-01;192;  0.0000000E+00;  0.0000000E+00;  0.0000000E+00;  1.0000008E+03;  4.0000001E-01;  6.9133836E-01;0;  0.0000000E+00;  0.0000000E+00;  0.0000000E+00;0; -4.3220638E-04;  1.0000000E+04;  0.0000000E+00;  0.0000000E+00;  1.0000000E+04;  0.0000000E+00;  1.0000000E+04; -4.3556359E-04;  0.0000000E+00;  3.3572148E-06;  1.3014489E-01;
 -1.4000000E-01;  9.9999998E-03;  2.2000000E-01;193;  0.0000000E+00;  0.0000000E+00;  0.0000000E+00;  1.0000007E+03;  4.0000001E-01;  5.9257573E-01;0;  0.0000000E+00;  0.0000000E+00;  0.0000000E+00;0; -3.9978357E-04;  1.0000000E+04;  0.0000000E+00;  0.0000000E+00;  1.0000000E+04;  0.0000000E+00;  1.0000000E+04; -4.0266910E-04;  0.0000000E+00;  2.8855359E-06;  1.1703774E-01;
 -1.4000000E-01;  9.9999998E-03;  2.3999999E-01;194;  0.0000000E+00;  0.0000000E+00;  0.0000000E+00;  1.0000006E+03;  4.0000001E-01;  4.9381313E-01;0;  0.0000000E+00;  0.0000000E+00;  0.0000000E+00;0; -3.5269230E-04;  1.0000000E+04;  0.0000000E+00;  0.0000000E+00;  1.0000000E+04;  0.0000000E+00;  1.0000000E+04; -3.5320740E-04;  0.0000000E+00;  5.1511068E-07;  6.6904292E-02;
 -1.4000000E-01;  9.9999998E-03;  2.5999999E-01;195;  0.0000000E+00;  0.0000000E+00;  0.0000000E+00;  1.0000005E+03;  4.0000001E-01;  3.9505050E-01;0;  0.0000000E+00;  0.0000000E+00;  0.0000000E+00;0; -2.8665081E-04;  1.0000000E+04;  0.0000000E+00;  0.0000000E+00;  1.0000000E+04;  0.0000000E+00;  1.0000000E+04; -2.8312547E-04;  0.0000000E+00; -3.5253493E-06;  1.6699385E-02;
 -1.4000000E-01;  9.9999998E-03;  2.8000000E-01;196;  0.0000000E+00;  0.0000000E+00;  0.0000000E+00;  1.0000003E+03;  4.0000001E-01;  2.9628786E-01;0;  0.0000000E+00;  0.0000000E+00;  0.0000000E+00;0; -2.0610195E-04;  1.0000000E+04;  0.0000000E+00;  0.0000000E+00;  1.0000000E+04;  0.0000000E+00;  1.0000000E+04; -1.9904003E-04;  0.0000000E+00; -7.0619089E-06;  9.3938492E-02;
 -1.4000000E-01;  9.9999998E-03;  3.0000001E-01;197;  0.0000000E+00;  0.0000000E+00;  0.0000000E+00;  1.0000001E+03;  4.0000001E-01;  9.8762624E-02;0;  0.0000000E+00;  0.0000000E+00;  0.0000000E+00;0; -1.2457269E-04;  1.0000000E+04;  0.0000000E+00;  0.0000000E+00;  1.0000000E+04;  0.0000000E+00;  1.0000000E+04; -1.1646446E-04;  0.0000000E+00; -8.1082362E-06;  1.2720452E-01;
 -1.4000000E-01;  9.9999998E-03;  3.1999999E-01;198;  0.0000000E+00;  0.0000000E+00;  0.0000000E+00;  1.0000000E+03;  4.0000001E-01;  0.0000000E+00;0;  0.0000000E+00;  0.0000000E+00;  0.0000000E+00;0; -5.8516605E-05;  1.0000000E+04;  0.0000000E+00;  0.0000000E+00;  1.0000000E+04;  0.0000000E+00;  1.0000000E+04; -5.2272200E-05;  0.0000000E+00; -6.2444055E-06;  1.0450990E-01;
 -1.2000000E-01;  9.9999998E-03;  1.6000000E-01;231;  0.0000000E+00;  0.0000000E+00;  0.0000000E+00;  1.0000049E+03;  4.0000001E-01;  4.0492678E+00;0;  0.0000000E+00;  0.0000000E+00;  0.0000000E+00;0; -2.5968419E-03;  1.0000000E+04;  0.0000000E+00;  0.0000000E+00;  1.0000000E+04;  0.0000000E+00;  1.0000000E+04; -2.6252612E-03;  0.0000000E+00;  2.8419228E-05;  9.2562819E-01;
 -1.2000000E-01;  9.9999998E-03;  1.8000001E-01;232;  0.0000000E+00;  0.0000000E+00;  0.0000000E+00;  1.0000049E+03;  4.0000001E-01;  4.0492678E+00;0;  0.0000000E+00;  0.0000000E+00;  0.0000000E+00;0; -2.5003427E-03;  1.0000000E+04;  0.0000000E+00;  0.0000000E+00;  1.0000000E+04;  0.0000000E+00;  1.0000000E+04; -2.5308041E-03;  0.0000000E+00;  3.0461450E-05;  9.5893753E-01;
 -1.2000000E-01;  9.9999998E-03;  2.0000000E-01;233;  0.0000000E+00;  0.0000000E+00;  0.0000000E+00;  1.0000045E+03;  4.0000001E-01;  3.7529798E+00;0;  0.0000000E+00;  0.0000000E+00;  0.0000000E+00;0; -2.3647931E-03;  1.0000000E+04;  0.0000000E+00;  0.0000000E+00;  1.0000000E+04;  0.0000000E+00;  1.0000000E+04; -2.3941081E-03;  0.0000000E+00;  2.9314971E-05;  9.2503506E-01;
 -1.2000000E-01;  9.9999998E-03;  2.2000000E-01;234;  0.0000000E+00;  0.0000000E+00;  0.0000000E+00;  1.0000042E+03;  4.0000001E-01;  3.4566917E+00;0;  0.0000000E+00;  0.0000000E+00;  0.0000000E+00;0; -2.1750554E-03;  1.0000000E+04;  0.0000000E+00;  0.0000000E+00;  1.0000000E+04;  0.0000000E+00;  1.0000000E+04; -2.1945315E-03;  0.0000000E+00;  1.9476076E-05;  7.2131985E-01;
 -1.2000000E-01;  9.9999998E-03;  2.3999999E-01;235;  0.0000000E+00;  0.0000000E+00;  0.0000000E+00;  1.0000037E+03;  4.0000001E-01;  3.0616415E+00;0;  0.0000000E+00;  0.0000000E+00;  0.0000000E+00;0; -1.9163887E-03;  1.0000000E+04;  0.0000000E+00;  0.0000000E+00;  1.0000000E+04;  0.0000000E+00;  1.0000000E+04; -1.9153801E-03;  0.0000000E+00; -1.0086310E-06;  3.0992875E-01;
 -1.2000000E-01;  9.9999998E-03;  2.5999999E-01;236;  0.0000000E+00;  0.0000000E+00;  0.0000000E+00;  1.0000030E+03;  4.0000001E-01;  2.4690657E+00;0;  0.0000000E+00;  0.0000000E+00;  0.0000000E+00;0; -1.5844662E-03;  1.0000000E+04;  0.0000000E+00;  0.0000000E+00;  1.0000000E+04;  0.0000000E+00;  1.0000000E+04; -1.5564502E-03;  0.0000000E+00; -2.8016069E-05;  2.3479018E-01;
 -1.2000000E-01;  9.9999998E-03;  2.8000000E-01;237;  0.0000000E+00;  0.0000000E+00;  0.0000000E+00;  1.0000023E+03;  4.0000001E-01;  1.8764899E+00;0;  0.0000000E+00;  0.0000000E+00;  0.0000000E+00;0; -1.1987851E-03;  1.0000000E+04;  0.0000000E+00;  0.0000000E+00;  1.0000000E+04;  0.0000000E+00;  1.0000000E+04; -1.1471057E-03;  0.0000000E+00; -5.1679461E-05;  7.2965509E-01;
 -1.2000000E-01;  9.9999998E-03;  3.0000001E-01;238;  0.0000000E+00;  0.0000000E+00;  0.0000000E+00;  1.0000016E+03;  4.0000001E-01;  1.2839141E+00;0;  0.0000000E+00;  0.0000000E+00;  0.0000000E+00;0; -8.0760592E-04;  1.0000000E+04;  0.0000000E+00;  0.0000000E+00;  1.0000000E+04;  0.0000000E+00;  1.0000000E+04; -7.4461923E-04;  0.0000000E+00; -6.2986677E-05;  1.0030614E+00;
 -1.2000000E-01;  9.9999998E-03;  3.1999999E-01;239;  0.0000000E+00;  0.0000000E+00;  0.0000000E+00;  1.0000009E+03;  4.0000001E-01;  6.9133836E-01;0;  0.0000000E+00;  0.0000000E+00;  0.0000000E+00;0; -4.6889877E-04;  1.0000000E+04;  0.0000000E+00;  0.0000000E+00;  1.0000000E+04;  0.0000000E+00;  1.0000000E+04; -4.1033656E-04;  0.0000000E+00; -5.8562197E-05;  9.8389333E-01;
 -1.0000000E-01;  9.9999998E-03;  1.6000000E-01;272;  0.0000000E+00;  0.0000000E+00;  0.0000000E+00;  1.0000160E+03;  4.0000001E-01;  1.3234192E+01;0;  0.0000000E+00;  0.0000000E+00;  0.0000000E+00;0; -8.2243579E-03;  1.0000000E+04;  0.0000000E+00;  0.0000000E+00;  1.0000000E+04;  0.0000000E+00;  1.0000000E+04; -8.3514359E-03;  0.0000000E+00;  1.2707796E-04;  3.6329129E+00;
 -1.0000000E-01;  9.9999998E-03;  1.8000001E-01;273;  0.0000000E+00;  0.0000000E+00;  0.0000000E+00;  1.0000153E+03;  4.0000001E-01;  1.2740378E+01;0;  0.0000000E+00;  0.0000000E+00;  0.0000000E+00;0; -7.9096677E-03;  1.0000000E+04;  0.0000000E+00;  0.0000000E+00;  1.0000000E+04;  0.0000000E+00;  1.0000000E+04; -8.0422265E-03;  0.0000000E+00;  1.3255906E-04;  3.7328825E+00;
 -1.0000000E-01;  9.9999998E-03;  2.0000000E-01;274;  0.0000000E+00;  0.0000000E+00;  0.0000000E+00;  1.0000146E+03;  4.0000001E-01;  1.2147802E+01;0;  0.0000000E+00;  0.0000000E+00;  0.0000000E+00;0; -7.4695582E-03;  1.0000000E+04;  0.0000000E+00;  0.0000000E+00;  1.0000000E+04;  0.0000000E+00;  1.0000000E+04; -7.5883409E-03;  0.0000000E+00;  1.1878255E-04;  3.4496720E+00;
 -1.0000000E-01;  9.9999998E-03;  2.2000000E-01;275;  0.0000000E+00;  0.0000000E+00;  0.0000000E+00;  1.0000134E+03;  4.0000001E-01;  1.1160176E+01;0;  0.0000000E+00;  0.0000000E+00;  0.0000000E+00;0; -6.8704127E-03;  1.0000000E+04;  0.0000000E+00;  0.0000000E+00;  1.0000000E+04;  0.0000000E+00;  1.0000000E+04; -6.9438317E-03;  0.0000000E+00;  7.3419083E-05;  2.5501766E+00;
 -1.0000000E-01;  9.9999998E-03;  2.3999999E-01;276;  0.0000000E+00;  0.0000000E+00;  0.0000000E+00;  1.0000120E+03;  4.0000001E-01;  9.9750252E+00;0;  0.0000000E+00;  0.0000000E+00;  0.0000000E+00;0; -6.0833171E-03;  1.0000000E+04;  0.0000000E+00;  0.0000000E+00;  1.0000000E+04;  0.0000000E+00;  1.0000000E+04; -6.0760817E-03;  0.0000000E+00; -7.2353891E-06;  9.6084243E-01;
 -1.0000000E-01;  9.9999998E-03;  2.5999999E-01;277;  0.0000000E+00;  0.0000000E+00;  0.0000000E+00;  1.0000101E+03;  4.0000001E-01;  8.2960606E+00;0;  0.0000000E+00;  0.0000000E+00;  0.0000000E+00;0; -5.1027038E-03;  1.0000000E+04;  0.0000000E+00;  0.0000000E+00;  1.0000000E+04;  0.0000000E+00;  1.0000000E+04; -4.9941959E-03;  0.0000000E+00; -1.0850810E-04;  1.0509458E+00;
 -1.0000000E-01;  9.9999998E-03;  2.8000000E-01;278;  0.0000000E+00;  0.0000000E+00;  0.0000000E+00;  1.0000078E+03;  4.0000001E-01;  6.5183330E+00;0;  0.0000000E+00;  0.0000000E+00;  0.0000000E+00;0; -3.9769234E-03;  1.0000000E+04;  0.0000000E+00;  0.0000000E+00;  1.0000000E+04;  0.0000000E+00;  1.0000000E+04; -3.7777522E-03;  0.0000000E+00; -1.9917115E-04;  2.9031420E+00;
 -1.0000000E-01;  9.9999998E-03;  3.0000001E-01;279;  0.0000000E+00;  0.0000000E+00;  0.0000000E+00;  1.0000055E+03;  4.0000001E-01;  4.5430808E+00;0;  0.0000000E+00;  0.0000000E+00;  0.0000000E+00;0; -2.8259153E-03;  1.0000000E+04;  0.0000000E+00;  0.0000000E+00;  1.0000000E+04;  0.0000000E+00;  1.0000000E+04; -2.5745814E-03;  0.0000000E+00; -2.5133396E-04;  4.0607305E+00;
 -1.0000000E-01;  9.9999998E-03;  3.1999999E-01;280;  0.0000000E+00;  0.0000000E+00;  0.0000000E+00;  1.0000035E+03;  4.0000001E-01;  2.8641162E+00;0;  0.0000000E+00;  0.0000000E+00;  0.0000000E+00;0; -1.7999037E-03;  1.0000000E+04;  0.0000000E+00;  0.0000000E+00;  1.0000000E+04;  0.0000000E+00;  1.0000000E+04; -1.5465905E-03;  0.0000000E+00; -2.5331319E-04;  4.2826910E+00;
 -7.9999998E-02;  9.9999998E-03;  1.6000000E-01;313;  0.0000000E+00;  0.0000000E+00;  0.0000000E+00;  1.0000381E+03;  4.0000001E-01;  3.1604040E+01;0;  0.0000000E+00;  0.0000000E+00;  0.0000000E+00;0; -1.9448822E-02;  1.0000000E+04;  0.0000000E+00;  0.0000000E+00;  1.0000000E+04;  0.0000000E+00;  1.0000000E+04; -1.9829609E-02;  0.0000000E+00;  3.8078590E-04;  1.0132167E+01;
 -7.9999998E-02;  9.9999998E-03;  1.8000001E-01;314;  0.0000000E+00;  0.0000000E+00;  0.0000000E+00;  1.0000366E+03;  4.0000001E-01;  3.0320126E+01;0;  0.0000000E+00;  0.0000000E+00;  0.0000000E+00;0; -1.8696317E-02;  1.0000000E+04;  0.0000000E+00;  0.0000000E+00;  1.0000000E+04;  0.0000000E+00;  1.0000000E+04; -1.9082654E-02;  0.0000000E+00;  3.8633769E-04;  1.0267422E+01;
 -7.9999998E-02;  9.9999998E-03;  2.0000000E-01;315;  0.0000000E+00;  0.0000000E+00;  0.0000000E+00;  1.0000347E+03;  4.0000001E-01;  2.8739923E+01;0;  0.0000000E+00;  0.0000000E+00;  0.0000000E+00;0; -1.7659167E-02;  1.0000000E+04;  0.0000000E+00;  0.0000000E+00;  1.0000000E+04;  0.0000000E+00;  1.0000000E+04; -1.7996097E-02;  0.0000000E+00;  3.3692952E-04;  9.3146677E+00;
 -7.9999998E-02;  9.9999998E-03;  2.2000000E-01;316;  0.0000000E+00;  0.0000000E+00;  0.0000000E+00;  1.0000320E+03;  4.0000001E-01;  2.6468384E+01;0;  0.0000000E+00;  0.0000000E+00;  0.0000000E+00;0; -1.6274927E-02;  1.0000000E+04;  0.0000000E+00;  0.0000000E+00;  1.0000000E+04;  0.0000000E+00;  1.0000000E+04; -1.6478652E-02;  0.0000000E+00;  2.0372485E-04;  6.7247362E+00;
 -7.9999998E-02;  9.9999998E-03;  2.3999999E-01;317;  0.0000000E+00;  0.0000000E+00;  0.0000000E+00;  1.0000286E+03;  4.0000001E-01;  2.3703030E+01;0;  0.0000000E+00;  0.0000000E+00;  0.0000000E+00;0; -1.4488525E-02;  1.0000000E+04;  0.0000000E+00;  0.0000000E+00;  1.0000000E+04;  0.0000000E+00;  1.0000000E+04; -1.4468402E-02;  0.0000000E+00; -2.0123407E-05;  2.3575521E+00;
 -7.9999998E-02;  9.9999998E-03;  2.5999999E-01;318;  0.0000000E+00;  0.0000000E+00;  0.0000000E+00;  1.0000244E+03;  4.0000001E-01;  2.0147575E+01;0;  0.0000000E+00;  0.0000000E+00;  0.0000000E+00;0; -1.2286498E-02;  1.0000000E+04;  0.0000000E+00;  0.0000000E+00;  1.0000000E+04;  0.0000000E+00;  1.0000000E+04; -1.1990412E-02;  0.0000000E+00; -2.9608599E-04;  3.0807145E+00;
 -7.9999998E-02;  9.9999998E-03;  2.8000000E-01;319;  0.0000000E+00;  0.0000000E+00;  0.0000000E+00;  1.0000192E+03;  4.0000001E-01;  1.5900783E+01;0;  0.0000000E+00;  0.0000000E+00;  0.0000000E+00;0; -9.7603193E-03;  1.0000000E+04;  0.0000000E+00;  0.0000000E+00;  1.0000000E+04;  0.0000000E+00;  1.0000000E+04; -9.2131272E-03;  0.0000000E+00; -5.4719229E-04;  8.1490784E+00;
 -7.9999998E-02;  9.9999998E-03;  3.0000001E-01;320;  0.0000000E+00;  0.0000000E+00;  0.0000000E+00;  1.0000142E+03;  4.0000001E-01;  1.1752752E+01;0;  0.0000000E+00;  0.0000000E+00;  0.0000000E+00;0; -7.1553253E-03;  1.0000000E+04;  0.0000000E+00;  0.0000000E+00;  1.0000000E+04;  0.0000000E+00;  1.0000000E+04; -6.4498573E-03;  0.0000000E+00; -7.0546812E-04;  1.1539150E+01;
 -7.9999998E-02;  9.9999998E-03;  3.1999999E-01;321;  0.0000000E+00;  0.0000000E+00;  0.0000000E+00;  1.0000095E+03;  4.0000001E-01;  7.9010100E+00;0;  0.0000000E+00;  0.0000000E+00;  0.0000000E+00;0; -4.7914707E-03;  1.0000000E+04;  0.0000000E+00;  0.0000000E+00;  1.0000000E+04;  0.0000000E+00;  1.0000000E+04; -4.0500867E-03;  0.0000000E+00; -7.4138382E-04;  1.2642092E+01;
 -5.9999999E-02;  9.9999998E-03;  1.6000000E-01;354;  0.0000000E+00;  0.0000000E+00;  0.0000000E+00;  1.0000737E+03;  4.0000001E-01;  6.1035301E+01;0;  0.0000000E+00;  0.0000000E+00;  0.0000000E+00;0; -3.7490580E-02;  1.0000000E+04;  0.0000000E+00;  0.0000000E+00;  1.0000000E+04;  0.0000000E+00;  1.0000000E+04; -3.8370401E-02;  0.0000000E+00;  8.7981886E-04;  2.2389328E+01;
 -5.9999999E-02;  9.9999998E-03;  1.8000001E-01;355;  0.0000000E+00;  0.0000000E+00;  0.0000000E+00;  1.0000710E+03;  4.0000001E-01;  5.8862522E+01;0;  0.0000000E+00;  0.0000000E+00;  0.0000000E+00;0; -3.6051195E-02;  1.0000000E+04;  0.0000000E+00;  0.0000000E+00;  1.0000000E+04;  0.0000000E+00;  1.0000000E+04; -3.6931124E-02;  0.0000000E+00;  8.7992888E-04;  2.2532976E+01;
 -5.9999999E-02;  9.9999998E-03;  2.0000000E-01;356;  0.0000000E+00;  0.0000000E+00;  0.0000000E+00;  1.0000672E+03;  4.0000001E-01;  5.5702122E+01;0;  0.0000000E+00;  0.0000000E+00;  0.0000000E+00;0; -3.4091342E-02;  1.0000000E+04;  0.0000000E+00;  0.0000000E+00;  1.0000000E+04;  0.0000000E+00;  1.0000000E+04; -3.4849897E-02;  0.0000000E+00;  7.5855321E-04;  2.0270374E+01;
 -5.9999999E-02;  9.9999998E-03;  2.2000000E-01;357;  0.0000000E+00;  0.0000000E+00;  0.0000000E+00;  1.0000624E+03;  4.0000001E-01;  5.1751614E+01;0;  0.0000000E+00;  0.0000000E+00;  0.0000000E+00;0; -3.1507146E-02;  1.0000000E+04;  0.0000000E+00;  0.0000000E+00;  1.0000000E+04;  0.0000000E+00;  1.0000000E+04; -3.1963799E-02;  0.0000000E+00;  4.5665290E-04;  1.4467893E+01;
 -5.9999999E-02;  9.9999998E-03;  2.3999999E-01;358;  0.0000000E+00;  0.0000000E+00;  0.0000000E+00;  1.0000559E+03;  4.0000001E-01;  4.6319672E+01;0;  0.0000000E+00;  0.0000000E+00;  0.0000000E+00;0; -2.8200215E-02;  1.0000000E+04;  0.0000000E+00;  0.0000000E+00;  1.0000000E+04;  0.0000000E+00;  1.0000000E+04; -2.8163053E-02;  0.0000000E+00; -3.7161859E-05;  4.8836675E+00;
 -5.9999999E-02;  9.9999998E-03;  2.5999999E-01;359;  0.0000000E+00;  0.0000000E+00;  0.0000000E+00;  1.0000479E+03;  4.0000001E-01;  3.9603813E+01;0;  0.0000000E+00;  0.0000000E+00;  0.0000000E+00;0; -2.4131740E-02;  1.0000000E+04;  0.0000000E+00;  0.0000000E+00;  1.0000000E+04;  0.0000000E+00;  1.0000000E+04; -2.3488190E-02;  0.0000000E+00; -6.4354867E-04;  7.0197563E+00;
 -5.9999999E-02;  9.9999998E-03;  2.8000000E-01;360;  0.0000000E+00;  0.0000000E+00;  0.0000000E+00;  1.0000386E+03;  4.0000001E-01;  3.1999090E+01;0;  0.0000000E+00;  0.0000000E+00;  0.0000000E+00;0; -1.9436877E-02;  1.0000000E+04;  0.0000000E+00;  0.0000000E+00;  1.0000000E+04;  0.0000000E+00;  1.0000000E+04; -1.8232306E-02;  0.0000000E+00; -1.2045706E-03;  1.8270168E+01;
 -5.9999999E-02;  9.9999998E-03;  3.0000001E-01;361;  0.0000000E+00;  0.0000000E+00;  0.0000000E+00;  1.0000290E+03;  4.0000001E-01;  2.3999317E+01;0;  0.0000000E+00;  0.0000000E+00;  0.0000000E+00;0; -1.4542755E-02;  1.0000000E+04;  0.0000000E+00;  0.0000000E+00;  1.0000000E+04;  0.0000000E+00;  1.0000000E+04; -1.2965719E-02;  0.0000000E+00; -1.5770355E-03;  2.6103010E+01;
 -5.9999999E-02;  9.9999998E-03;  3.1999999E-01;362;  0.0000000E+00;  0.0000000E+00;  0.0000000E+00;  1.0000200E+03;  4.0000001E-01;  1.6493359E+01;0;  0.0000000E+00;  0.0000000E+00;  0.0000000E+00;0; -1.0043563E-02;  1.0000000E+04;  0.0000000E+00;  0.0000000E+00;  1.0000000E+04;  0.0000000E+00;  1.0000000E+04; -8.3463332E-03;  0.0000000E+00; -1.6972298E-03;  2.9207409E+01;
 -3.9999999E-02;  9.9999998E-03;  1.6000000E-01;395;  0.0000000E+00;  0.0000000E+00;  0.0000000E+00;  1.0001213E+03;  4.0000001E-01;  1.0054035E+02;0;  0.0000000E+00;  0.0000000E+00;  0.0000000E+00;0; -6.1486114E-02;  1.0000000E+04;  0.0000000E+00;  0.0000000E+00;  1.0000000E+04;  0.0000000E+00;  1.0000000E+04; -6.3173585E-02;  0.0000000E+00;  1.6874722E-03;  4.1629818E+01;
 -3.9999999E-02;  9.9999998E-03;  1.8000001E-01;396;  0.0000000E+00;  0.0000000E+00;  0.0000000E+00;  1.0001169E+03;  4.0000001E-01;  9.6886131E+01;0;  0.0000000E+00;  0.0000000E+00;  0.0000000E+00;0; -5.9180047E-02;  1.0000000E+04;  0.0000000E+00;  0.0000000E+00;  1.0000000E+04;  0.0000000E+00;  1.0000000E+04; -6.0855493E-02;  0.0000000E+00;  1.6754464E-03;  4.1796070E+01;
 -3.9999999E-02;  9.9999998E-03;  2.0000000E-01;397;  0.0000000E+00;  0.0000000E+00;  0.0000000E+00;  1.0001111E+03;  4.0000001E-01;  9.2046768E+01;0;  0.0000000E+00;  0.0000000E+00;  0.0000000E+00;0; -5.6066588E-02;  1.0000000E+04;  0.0000000E+00;  0.0000000E+00;  1.0000000E+04;  0.0000000E+00;  1.0000000E+04; -5.7504632E-02;  0.0000000E+00;  1.4380447E-03;  3.7481277E+01;
 -3.9999999E-02;  9.9999998E-03;  2.2000000E-01;398;  0.0000000E+00;  0.0000000E+00;  0.0000000E+00;  1.0001031E+03;  4.0000001E-01;  8.5429672E+01;0;  0.0000000E+00;  0.0000000E+00;  0.0000000E+00;0; -5.1990226E-02;  1.0000000E+04;  0.0000000E+00;  0.0000000E+00;  1.0000000E+04;  0.0000000E+00;  1.0000000E+04; -5.2862011E-02;  0.0000000E+00;  8.7178499E-04;  2.6674526E+01;
 -3.9999999E-02;  9.9999998E-03;  2.3999999E-01;399;  0.0000000E+00;  0.0000000E+00;  0.0000000E+00;  1.0000930E+03;  4.0000001E-01;  7.7034843E+01;0;  0.0000000E+00;  0.0000000E+00;  0.0000000E+00;0; -4.6792280E-02;  1.0000000E+04;  0.0000000E+00;  0.0000000E+00;  1.0000000E+04;  0.0000000E+00;  1.0000000E+04; -4.6748191E-02;  0.0000000E+00; -4.4087523E-05;  8.9302483E+00;
 -3.9999999E-02;  9.9999998E-03;  2.5999999E-01;400;  0.0000000E+00;  0.0000000E+00;  0.0000000E+00;  1.0000805E+03;  4.0000001E-01;  6.6664772E+01;0;  0.0000000E+00;  0.0000000E+00;  0.0000000E+00;0; -4.0382545E-02;  1.0000000E+04;  0.0000000E+00;  0.0000000E+00;  1.0000000E+04;  0.0000000E+00;  1.0000000E+04; -3.9205469E-02;  0.0000000E+00; -1.1770761E-03;  1.3289532E+01;
 -3.9999999E-02;  9.9999998E-03;  2.8000000E-01;401;  0.0000000E+00;  0.0000000E+00;  0.0000000E+00;  1.0000656E+03;  4.0000001E-01;  5.4319443E+01;0;  0.0000000E+00;  0.0000000E+00;  0.0000000E+00;0; -3.2909028E-02;  1.0000000E+04;  0.0000000E+00;  0.0000000E+00;  1.0000000E+04;  0.0000000E+00;  1.0000000E+04; -3.0659983E-02;  0.0000000E+00; -2.2490444E-03;  3.4715244E+01;
 -3.9999999E-02;  9.9999998E-03;  3.0000001E-01;402;  0.0000000E+00;  0.0000000E+00;  0.0000000E+00;  1.0000500E+03;  4.0000001E-01;  4.1381538E+01;0;  0.0000000E+00;  0.0000000E+00;  0.0000000E+00;0; -2.4998046E-02;  1.0000000E+04;  0.0000000E+00;  0.0000000E+00;  1.0000000E+04;  0.0000000E+00;  1.0000000E+04; -2.2012394E-02;  0.0000000E+00; -2.9856535E-03;  5.0044037E+01;
 -3.9999999E-02;  9.9999998E-03;  3.1999999E-01;403;  0.0000000E+00;  0.0000000E+00;  0.0000000E+00;  1.0000352E+03;  4.0000001E-01;  2.9134974E+01;0;  0.0000000E+00;  0.0000000E+00;  0.0000000E+00;0; -1.7626233E-02;  1.0000000E+04;  0.0000000E+00;  0.0000000E+00;  1.0000000E+04;  0.0000000E+00;  1.0000000E+04; -1.4367682E-02;  0.0000000E+00; -3.2585515E-03;  5.6652981E+01;
 -2.0000000E-02;  9.9999998E-03;  1.6000000E-01;436;  0.0000000E+00;  0.0000000E+00;  0.0000000E+00;  1.0001747E+03;  4.0000001E-01;  1.4478601E+02;0;  0.0000000E+00;  0.0000000E+00;  0.0000000E+00;0; -8.7958612E-02;  1.0000000E+04;  0.0000000E+00;  0.0000000E+00;  1.0000000E+04;  0.0000000E+00;  1.0000000E+04; -9.0746760E-02;  0.0000000E+00;  2.7881505E-03;  6.7294235E+01;
 -2.0000000E-02;  9.9999998E-03;  1.8000001E-01;437;  0.0000000E+00;  0.0000000E+00;  0.0000000E+00;  1.0001689E+03;  4.0000001E-01;  1.3994664E+02;0;  0.0000000E+00;  0.0000000E+00;  0.0000000E+00;0; -8.4784411E-02;  1.0000000E+04;  0.0000000E+00;  0.0000000E+00;  1.0000000E+04;  0.0000000E+00;  1.0000000E+04; -8.7541528E-02;  0.0000000E+00;  2.7571179E-03;  6.7561562E+01;
 -2.0000000E-02;  9.9999998E-03;  2.0000000E-01;438;  0.0000000E+00;  0.0000000E+00;  0.0000000E+00;  1.0001607E+03;  4.0000001E-01;  1.3313202E+02;0;  0.0000000E+00;  0.0000000E+00;  0.0000000E+00;0; -8.0519423E-02;  1.0000000E+04;  0.0000000E+00;  0.0000000E+00;  1.0000000E+04;  0.0000000E+00;  1.0000000E+04; -8.2885519E-02;  0.0000000E+00;  2.3660944E-03;  6.0614464E+01;
 -2.0000000E-02;  9.9999998E-03;  2.2000000E-01;439;  0.0000000E+00;  0.0000000E+00;  0.0000000E+00;  1.0001499E+03;  4.0000001E-01;  1.2414462E+02;0;  0.0000000E+00;  0.0000000E+00;  0.0000000E+00;0; -7.4952006E-02;  1.0000000E+04;  0.0000000E+00;  0.0000000E+00;  1.0000000E+04;  0.0000000E+00;  1.0000000E+04; -7.6407455E-02;  0.0000000E+00;  1.4554448E-03;  4.3300377E+01;
 -2.0000000E-02;  9.9999998E-03;  2.3999999E-01;440;  0.0000000E+00;  0.0000000E+00;  0.0000000E+00;  1.0001359E+03;  4.0000001E-01;  1.1258939E+02;0;  0.0000000E+00;  0.0000000E+00;  0.0000000E+00;0; -6.7854911E-02;  1.0000000E+04;  0.0000000E+00;  0.0000000E+00;  1.0000000E+04;  0.0000000E+00;  1.0000000E+04; -6.7841403E-02;  0.0000000E+00; -1.3506591E-05;  1.4793708E+01;
 -2.0000000E-02;  9.9999998E-03;  2.5999999E-01;441;  0.0000000E+00;  0.0000000E+00;  0.0000000E+00;  1.0001186E+03;  4.0000001E-01;  9.8268814E+01;0;  0.0000000E+00;  0.0000000E+00;  0.0000000E+00;0; -5.9071746E-02;  1.0000000E+04;  0.0000000E+00;  0.0000000E+00;  1.0000000E+04;  0.0000000E+00;  1.0000000E+04; -5.7214461E-02;  0.0000000E+00; -1.8572855E-03;  2.1451866E+01;
 -2.0000000E-02;  9.9999998E-03;  2.8000000E-01;442;  0.0000000E+00;  0.0000000E+00;  0.0000000E+00;  1.0000980E+03;  4.0000001E-01;  8.1182877E+01;0;  0.0000000E+00;  0.0000000E+00;  0.0000000E+00;0; -4.8716374E-02;  1.0000000E+04;  0.0000000E+00;  0.0000000E+00;  1.0000000E+04;  0.0000000E+00;  1.0000000E+04; -4.5057669E-02;  0.0000000E+00; -3.6587059E-03;  5.7442852E+01;
 -2.0000000E-02;  9.9999998E-03;  3.0000001E-01;443;  0.0000000E+00;  0.0000000E+00;  0.0000000E+00;  1.0000757E+03;  4.0000001E-01;  6.2714268E+01;0;  0.0000000E+00;  0.0000000E+00;  0.0000000E+00;0; -3.7522942E-02;  1.0000000E+04;  0.0000000E+00;  0.0000000E+00;  1.0000000E+04;  0.0000000E+00;  1.0000000E+04; -3.2586429E-02;  0.0000000E+00; -4.9365140E-03;  8.3874092E+01;
 -2.0000000E-02;  9.9999998E-03;  3.1999999E-01;444;  0.0000000E+00;  0.0000000E+00;  0.0000000E+00;  1.0000543E+03;  4.0000001E-01;  4.5035755E+01;0;  0.0000000E+00;  0.0000000E+00;  0.0000000E+00;0; -2.6897281E-02;  1.0000000E+04;  0.0000000E+00;  0.0000000E+00;  1.0000000E+04;  0.0000000E+00;  1.0000000E+04; -2.1457963E-02;  0.0000000E+00; -5.4393192E-03;  9.5675812E+01;
  0.0000000E+00;  9.9999998E-03;  3.0000001E-01;455;  0.0000000E+00;  0.0000000E+00;  0.0000000E+00;  1.0001020E+03;  4.0000001E-01;  8.4540810E+01;0;  0.0000000E+00;  0.0000000E+00;  0.0000000E+00;0; -5.0168354E-02;  1.0000000E+04;  0.0000000E+00;  0.0000000E+00;  1.0000000E+04;  0.0000000E+00;  1.0000000E+04; -4.2967103E-02;  0.0000000E+00; -7.2012516E-03;  1.2417008E+02;
  0.0000000E+00;  9.9999998E-03;  3.1999999E-01;456;  0.0000000E+00;  0.0000000E+00;  0.0000000E+00;  1.0000745E+03;  4.0000001E-01;  6.1726639E+01;0;  0.0000000E+00;  0.0000000E+00;  0.0000000E+00;0; -3.6575973E-02;  1.0000000E+04;  0.0000000E+00;  0.0000000E+00;  1.0000000E+04;  0.0000000E+00;  1.0000000E+04; -2.8537557E-02;  0.0000000E+00; -8.0384156E-03;  1.4331981E+02;
  2.0000000E-02;  9.9999998E-03;  3.1999999E-01;466;  0.0000000E+00;  0.0000000E+00;  0.0000000E+00;  1.0000934E+03;  4.0000001E-01;  7.7429893E+01;0;  0.0000000E+00;  0.0000000E+00;  0.0000000E+00;0; -4.5296460E-02;  1.0000000E+04;  0.0000000E+00;  0.0000000E+00;  1.0000000E+04;  0.0000000E+00;  1.0000000E+04; -3.4675047E-02;  0.0000000E+00; -1.0621415E-02;  1.9246016E+02;
  3.9999999E-02;  9.9999998E-03;  3.1999999E-01;476;  0.0000000E+00;  0.0000000E+00;  0.0000000E+00;  1.0001104E+03;  4.0000001E-01;  9.1454193E+01;0;  0.0000000E+00;  0.0000000E+00;  0.0000000E+00;0; -5.2534312E-02;  1.0000000E+04;  0.0000000E+00;  0.0000000E+00;  1.0000000E+04;  0.0000000E+00;  1.0000000E+04; -3.9849471E-02;  0.0000000E+00; -1.2684841E-02;  2.3445616E+02;
  5.9999999E-02;  9.9999998E-03;  3.1999999E-01;486;  0.0000000E+00;  0.0000000E+00;  0.0000000E+00;  1.0001263E+03;  4.0000001E-01;  1.0468839E+02;0;  0.0000000E+00;  0.0000000E+00;  0.0000000E+00;0; -5.8859754E-02;  1.0000000E+04;  0.0000000E+00;  0.0000000E+00;  1.0000000E+04;  0.0000000E+00;  1.0000000E+04; -4.4836272E-02;  0.0000000E+00; -1.4023484E-02;  2.6564743E+02;
  7.9999998E-02;  9.9999998E-03;  3.1999999E-01;496;  0.0000000E+00;  0.0000000E+00;  0.0000000E+00;  1.0001443E+03;  4.0000001E-01;  1.1950278E+02;0;  0.0000000E+00;  0.0000000E+00;  0.0000000E+00;0; -6.5552570E-02;  1.0000000E+04;  0.0000000E+00;  0.0000000E+00;  1.0000000E+04;  0.0000000E+00;  1.0000000E+04; -5.0823014E-02;  0.0000000E+00; -1.4729558E-02;  2.8832758E+02;
  1.0000000E-01;  9.9999998E-03;  3.1999999E-01;506;  0.0000000E+00;  0.0000000E+00;  0.0000000E+00;  1.0001689E+03;  4.0000001E-01;  1.3994664E+02;0;  0.0000000E+00;  0.0000000E+00;  0.0000000E+00;0; -7.4530616E-02;  1.0000000E+04;  0.0000000E+00;  0.0000000E+00;  1.0000000E+04;  0.0000000E+00;  1.0000000E+04; -5.9405707E-02;  0.0000000E+00; -1.5124906E-02;  3.4151227E+02;
  1.2000000E-01;  9.9999998E-03;  3.1999999E-01;516;  0.0000000E+00;  0.0000000E+00;  0.0000000E+00;  1.0002049E+03;  4.0000001E-01;  1.6977295E+02;0;  0.0000000E+00;  0.0000000E+00;  0.0000000E+00;0; -8.8040881E-02;  1.0000000E+04;  0.0000000E+00;  0.0000000E+00;  1.0000000E+04;  0.0000000E+00;  1.0000000E+04; -7.2296821E-02;  0.0000000E+00; -1.5744060E-02;  6.7092743E+02;
  1.4000000E-01;  9.9999998E-03;  3.1999999E-01;526;  0.0000000E+00;  0.0000000E+00;  0.0000000E+00;  1.0002593E+03;  4.0000001E-01;  2.1480870E+02;0;  0.0000000E+00;  0.0000000E+00;  0.0000000E+00;0; -1.0844937E-01;  1.0000000E+04;  0.0000000E+00;  0.0000000E+00;  1.0000000E+04;  0.0000000E+00;  1.0000000E+04; -9.1082633E-02;  0.0000000E+00; -1.7366741E-02;  1.7046609E+03;
  1.6000000E-01;  9.9999998E-03;  3.1999999E-01;536;  0.0000000E+00;  0.0000000E+00;  0.0000000E+00;  1.0003375E+03;  4.0000001E-01;  2.7959698E+02;0;  0.0000000E+00;  0.0000000E+00;  0.0000000E+00;0; -1.3753273E-01;  1.0000000E+04;  0.0000000E+00;  0.0000000E+00;  1.0000000E+04;  0.0000000E+00;  1.0000000E+04; -1.1639049E-01;  0.0000000E+00; -2.1142237E-02;  3.9033535E+03;
  1.8000001E-01;  9.9999998E-03;  3.1999999E-01;546;  0.0000000E+00;  0.0000000E+00;  0.0000000E+00;  1.0004401E+03;  4.0000001E-01;  3.6463162E+02;0;  0.0000000E+00;  0.0000000E+00;  0.0000000E+00;0; -1.7487806E-01;  1.0000000E+04;  0.0000000E+00;  0.0000000E+00;  1.0000000E+04;  0.0000000E+00;  1.0000000E+04; -1.4603794E-01;  0.0000000E+00; -2.8840117E-02;  7.5629668E+03;
  2.0000000E-01;  9.9999998E-03;  3.1999999E-01;555;  0.0000000E+00;  0.0000000E+00;  0.0000000E+00;  1.0005615E+03;  4.0000001E-01;  4.6517197E+02;0;  0.0000000E+00;  0.0000000E+00;  0.0000000E+00;0; -2.1758734E-01;  1.0000000E+04;  0.0000000E+00;  0.0000000E+00;  1.0000000E+04;  0.0000000E+00;  1.0000000E+04; -1.7460637E-01;  0.0000000E+00; -4.2980973E-02;  1.2043308E+04;
 -2.2000000E-01;  9.9999998E-03;  3.4000000E-01;36;  0.0000000E+00;  0.0000000E+00;  0.0000000E+00;  1.0000000E+03;  4.0000001E-01;  0.0000000E+00;0;  0.0000000E+00;  0.0000000E+00;  0.0000000E+00;0;  0.0000000E+00;  1.0000000E+04;  0.0000000E+00;  0.0000000E+00;  1.0000000E+04;  0.0000000E+00;  1.0000000E+04;  0.0000000E+00;  0.0000000E+00;  0.0000000E+00;  0.0000000E+00;
 -2.2000000E-01;  9.9999998E-03;  3.6000001E-01;37;  0.0000000E+00;  0.0000000E+00;  0.0000000E+00;  1.0000000E+03;  4.0000001E-01;  0.0000000E+00;0;  0.0000000E+00;  0.0000000E+00;  0.0000000E+00;0;  0.0000000E+00;  1.0000000E+04;  0.0000000E+00;  0.0000000E+00;  1.0000000E+04;  0.0000000E+00;  1.0000000E+04;  0.0000000E+00;  0.0000000E+00;  0.0000000E+00;  0.0000000E+00;
 -2.2000000E-01;  9.9999998E-03;  3.8000000E-01;38;  0.0000000E+00;  0.0000000E+00;  0.0000000E+00;  1.0000000E+03;  4.0000001E-01;  0.0000000E+00;0;  0.0000000E+00;  0.0000000E+00;  0.0000000E+00;0;  0.0000000E+00;  1.0000000E+04;  0.0000000E+00;  0.0000000E+00;  1.0000000E+04;  0.0000000E+00;  1.0000000E+04;  0.0000000E+00;  0.0000000E+00;  0.0000000E+00;  0.0000000E+00;
 -2.0000000E-01;  9.9999998E-03;  3.4000000E-01;76;  0.0000000E+00;  0.0000000E+00;  0.0000000E+00;  1.0000000E+03;  4.0000001E-01;  0.0000000E+00;0;  0.0000000E+00;  0.0000000E+00;  0.0000000E+00;0;  0.0000000E+00;  1.0000000E+04;  0.0000000E+00;  0.0000000E+00;  1.0000000E+04;  0.0000000E+00;  1.0000000E+04;  0.0000000E+00;  0.0000000E+00;  0.0000000E+00;  0.0000000E+00;
 -2.0000000E-01;  9.9999998E-03;  3.6000001E-01;77;  0.0000000E+00;  0.0000000E+00;  0.0000000E+00;  1.0000000E+03;  4.0000001E-01;  0.0000000E+00;0;  0.0000000E+00;  0.0000000E+00;  0.0000000E+00;0;  0.0000000E+00;  1.0000000E+04;  0.0000000E+00;  0.0000000E+00;  1.0000000E+04;  0.0000000E+00;  1.0000000E+04;  0.0000000E+00;  0.0000000E+00;  0.0000000E+00;  0.0000000E+00;
 -2.0000000E-01;  9.9999998E-03;  3.8000000E-01;78;  0.0000000E+00;  0.0000000E+00;  0.0000000E+00;  1.0000000E+03;  4.0000001E-01;  0.0000000E+00;0;  0.0000000E+00;  0.0000000E+00;  0.0000000E+00;0;  0.0000000E+00;  1.0000000E+04;  0.0000000E+00;  0.0000000E+00;  1.0000000E+04;  0.0000000E+00;  1.0000000E+04;  0.0000000E+00;  0.0000000E+00;  0.0000000E+00;  0.0000000E+00;
 -2.0000000E-01;  9.9999998E-03;  4.0000001E-01;79;  0.0000000E+00;  0.0000000E+00;  0.0000000E+00;  1.0000000E+03;  4.0000001E-01;  0.0000000E+00;0;  0.0000000E+00;  0.0000000E+00;  0.0000000E+00;0;  0.0000000E+00;  1.0000000E+04;  0.0000000E+00;  0.0000000E+00;  1.0000000E+04;  0.0000000E+00;  1.0000000E+04;  0.0000000E+00;  0.0000000E+00;  0.0000000E+00;  0.0000000E+00;
 -1.8000001E-01;  9.9999998E-03;  3.4000000E-01;117;  0.0000000E+00;  0.0000000E+00;  0.0000000E+00;  1.0000000E+03;  4.0000001E-01;  0.0000000E+00;0;  0.0000000E+00;  0.0000000E+00;  0.0000000E+00;0;  0.0000000E+00;  1.0000000E+04;  0.0000000E+00;  0.0000000E+00;  1.0000000E+04;  0.0000000E+00;  1.0000000E+04;  0.0000000E+00;  0.0000000E+00;  0.0000000E+00;  0.0000000E+00;
 -1.8000001E-01;  9.9999998E-03;  3.6000001E-01;118;  0.0000000E+00;  0.0000000E+00;  0.0000000E+00;  1.0000000E+03;  4.0000001E-01;  0.0000000E+00;0;  0.0000000E+00;  0.0000000E+00;  0.0000000E+00;0;  0.0000000E+00;  1.0000000E+04;  0.0000000E+00;  0.0000000E+00;  1.0000000E+04;  0.0000000E+00;  1.0000000E+04;  0.0000000E+00;  0.0000000E+00;  0.0000000E+00;  0.0000000E+00;
 -1.8000001E-01;  9.9999998E-03;  3.8000000E-01;119;  0.0000000E+00;  0.0000000E+00;  0.0000000E+00;  1.0000000E+03;  4.0000001E-01;  0.0000000E+00;0;  0.0000000E+00;  0.0000000E+00;  0.0000000E+00;0;  0.0000000E+00;  1.0000000E+04;  0.0000000E+00;  0.0000000E+00;  1.0000000E+04;  0.0000000E+00;  1.0000000E+04;  0.0000000E+00;  0.0000000E+00;  0.0000000E+00;  0.0000000E+00;
 -1.8000001E-01;  9.9999998E-03;  4.0000001E-01;120;  0.0000000E+00;  0.0000000E+00;  0.0000000E+00;  1.0000000E+03;  4.0000001E-01;  0.0000000E+00;0;  0.0000000E+00;  0.0000000E+00;  0.0000000E+00;0;  0.0000000E+00;  1.0000000E+04;  0.0000000E+00;  0.0000000E+00;  1.0000000E+04;  0.0000000E+00;  1.0000000E+04;  0.0000000E+00;  0.0000000E+00;  0.0000000E+00;  0.0000000E+00;
 -1.6000000E-01;  9.9999998E-03;  3.4000000E-01;158;  0.0000000E+00;  0.0000000E+00;  0.0000000E+00;  1.0000000E+03;  4.0000001E-01;  0.0000000E+00;0;  0.0000000E+00;  0.0000000E+00;  0.0000000E+00;0;  0.0000000E+00;  1.0000000E+04;  0.0000000E+00;  0.0000000E+00;  1.0000000E+04;  0.0000000E+00;  1.0000000E+04;  0.0000000E+00;  0.0000000E+00;  0.0000000E+00;  0.0000000E+00;
 -1.6000000E-01;  9.9999998E-03;  3.6000001E-01;159;  0.0000000E+00;  0.0000000E+00;  0.0000000E+00;  1.0000000E+03;  4.0000001E-01;  0.0000000E+00;0;  0.0000000E+00;  0.0000000E+00;  0.0000000E+00;0;  0.0000000E+00;  1.0000000E+04;  0.0000000E+00;  0.0000000E+00;  1.0000000E+04;  0.0000000E+00;  1.0000000E+04;  0.0000000E+00;  0.0000000E+00;  0.0000000E+00;  0.0000000E+00;
 -1.6000000E-01;  9.9999998E-03;  3.8000000E-01;160;  0.0000000E+00;  0.0000000E+00;  0.0000000E+00;  1.0000000E+03;  4.0000001E-01;  0.0000000E+00;0;  0.0000000E+00;  0.0000000E+00;  0.0000000E+00;0;  0.0000000E+00;  1.0000000E+04;  0.0000000E+00;  0.0000000E+00;  1.0000000E+04;  0.0000000E+00;  1.0000000E+04;  0.0000000E+00;  0.0000000E+00;  0.0000000E+00;  0.0000000E+00;
 -1.6000000E-01;  9.9999998E-03;  4.0000001E-01;161;  0.0000000E+00;  0.0000000E+00;  0.0000000E+00;  1.0000000E+03;  4.0000001E-01;  0.0000000E+00;0;  0.0000000E+00;  0.0000000E+00;  0.0000000E+00;0;  0.0000000E+00;  1.0000000E+04;  0.0000000E+00;  0.0000000E+00;  1.0000000E+04;  0.0000000E+00;  1.0000000E+04;  0.0000000E+00;  0.0000000E+00;  0.0000000E+00;  0.0000000E+00;
 -1.4000000E-01;  9.9999998E-03;  3.4000000E-01;199;  0.0000000E+00;  0.0000000E+00;  0.0000000E+00;  1.0000000E+03;  4.0000001E-01;  0.0000000E+00;0;  0.0000000E+00;  0.0000000E+00;  0.0000000E+00;0; -1.8043680E-05;  1.0000000E+04;  0.0000000E+00;  0.0000000E+00;  1.0000000E+04;  0.0000000E+00;  1.0000000E+04; -1.5160645E-05;  0.0000000E+00; -2.8830350E-06;  4.9261197E-02;
 -1.4000000E-01;  9.9999998E-03;  3.6000001E-01;200;  0.0000000E+00;  0.0000000E+00;  0.0000000E+00;  1.0000000E+03;  4.0000001E-01;  0.0000000E+00;0;  0.0000000E+00;  0.0000000E+00;  0.0000000E+00;0; -2.1017986E-06;  1.0000000E+04;  0.0000000E+00;  0.0000000E+00;  1.0000000E+04;  0.0000000E+00;  1.0000000E+04; -1.6461606E-06;  0.0000000E+00; -4.5563806E-07;  7.9021007E-03;
 -1.4000000E-01;  9.9999998E-03;  3.8000000E-01;201;  0.0000000E+00;  0.0000000E+00;  0.0000000E+00;  1.0000000E+03;  4.0000001E-01;  0.0000000E+00;0;  0.0000000E+00;  0.0000000E+00;  0.0000000E+00;0;  0.0000000E+00;  1.0000000E+04;  0.0000000E+00;  0.0000000E+00;  1.0000000E+04;  0.0000000E+00;  1.0000000E+04;  0.0000000E+00;  0.0000000E+00;  0.0000000E+00;  0.0000000E+00;
 -1.4000000E-01;  9.9999998E-03;  4.0000001E-01;202;  0.0000000E+00;  0.0000000E+00;  0.0000000E+00;  1.0000000E+03;  4.0000001E-01;  0.0000000E+00;0;  0.0000000E+00;  0.0000000E+00;  0.0000000E+00;0;  0.0000000E+00;  1.0000000E+04;  0.0000000E+00;  0.0000000E+00;  1.0000000E+04;  0.0000000E+00;  1.0000000E+04;  0.0000000E+00;  0.0000000E+00;  0.0000000E+00;  0.0000000E+00;
 -1.2000000E-01;  9.9999998E-03;  3.4000000E-01;240;  0.0000000E+00;  0.0000000E+00;  0.0000000E+00;  1.0000004E+03;  4.0000001E-01;  2.9628786E-01;0;  0.0000000E+00;  0.0000000E+00;  0.0000000E+00;0; -2.2168073E-04;  1.0000000E+04;  0.0000000E+00;  0.0000000E+00;  1.0000000E+04;  0.0000000E+00;  1.0000000E+04; -1.8062987E-04;  0.0000000E+00; -4.1050866E-05;  7.0842928E-01;
 -1.2000000E-01;  9.9999998E-03;  3.6000001E-01;241;  0.0000000E+00;  0.0000000E+00;  0.0000000E+00;  1.0000000E+03;  4.0000001E-01;  0.0000000E+00;0;  0.0000000E+00;  0.0000000E+00;  0.0000000E+00;0; -7.4177311E-05;  1.0000000E+04;  0.0000000E+00;  0.0000000E+00;  1.0000000E+04;  0.0000000E+00;  1.0000000E+04; -5.5503693E-05;  0.0000000E+00; -1.8673616E-05;  3.2552576E-01;
 -1.2000000E-01;  9.9999998E-03;  3.8000000E-01;242;  0.0000000E+00;  0.0000000E+00;  0.0000000E+00;  1.0000000E+03;  4.0000001E-01;  0.0000000E+00;0;  0.0000000E+00;  0.0000000E+00;  0.0000000E+00;0; -1.1018409E-05;  1.0000000E+04;  0.0000000E+00;  0.0000000E+00;  1.0000000E+04;  0.0000000E+00;  1.0000000E+04; -7.7073864E-06;  0.0000000E+00; -3.3110227E-06;  5.8052454E-02;
 -1.2000000E-01;  9.9999998E-03;  4.0000001E-01;243;  0.0000000E+00;  0.0000000E+00;  0.0000000E+00;  1.0000000E+03;  4.0000001E-01;  0.0000000E+00;0;  0.0000000E+00;  0.0000000E+00;  0.0000000E+00;0; -7.6177665E-16;  1.0000000E+04;  0.0000000E+00;  0.0000000E+00;  1.0000000E+04;  0.0000000E+00;  1.0000000E+04; -5.3090109E-16;  0.0000000E+00; -2.3087556E-16;  1.0013459E-12;
 -1.0000000E-01;  9.9999998E-03;  3.4000000E-01;281;  0.0000000E+00;  0.0000000E+00;  0.0000000E+00;  1.0000020E+03;  4.0000001E-01;  1.5802020E+00;0;  0.0000000E+00;  0.0000000E+00;  0.0000000E+00;0; -1.0023323E-03;  1.0000000E+04;  0.0000000E+00;  0.0000000E+00;  1.0000000E+04;  0.0000000E+00;  1.0000000E+04; -7.9475343E-04;  0.0000000E+00; -2.0757885E-04;  3.5954456E+00;
 -1.0000000E-01;  9.9999998E-03;  3.6000001E-01;282;  0.0000000E+00;  0.0000000E+00;  0.0000000E+00;  1.0000009E+03;  4.0000001E-01;  6.9133836E-01;0;  0.0000000E+00;  0.0000000E+00;  0.0000000E+00;0; -4.5880786E-04;  1.0000000E+04;  0.0000000E+00;  0.0000000E+00;  1.0000000E+04;  0.0000000E+00;  1.0000000E+04; -3.2999457E-04;  0.0000000E+00; -1.2881328E-04;  2.2593877E+00;
 -1.0000000E-01;  9.9999998E-03;  3.8000000E-01;283;  0.0000000E+00;  0.0000000E+00;  0.0000000E+00;  1.0000002E+03;  4.0000001E-01;  1.9752525E-01;0;  0.0000000E+00;  0.0000000E+00;  0.0000000E+00;0; -1.4584762E-04;  1.0000000E+04;  0.0000000E+00;  0.0000000E+00;  1.0000000E+04;  0.0000000E+00;  1.0000000E+04; -9.6564130E-05;  0.0000000E+00; -4.9283484E-05;  8.6866289E-01;
 -1.0000000E-01;  9.9999998E-03;  4.0000001E-01;284;  0.0000000E+00;  0.0000000E+00;  0.0000000E+00;  1.0000000E+03;  4.0000001E-01;  0.0000000E+00;0;  0.0000000E+00;  0.0000000E+00;  0.0000000E+00;0; -2.0028299E-05;  1.0000000E+04;  0.0000000E+00;  0.0000000E+00;  1.0000000E+04;  0.0000000E+00;  1.0000000E+04; -1.3080989E-05;  0.0000000E+00; -6.9473103E-06;  1.2259050E-01;
 -7.9999998E-02;  9.9999998E-03;  3.4000000E-01;322;  0.0000000E+00;  0.0000000E+00;  0.0000000E+00;  1.0000057E+03;  4.0000001E-01;  4.7406058E+00;0;  0.0000000E+00;  0.0000000E+00;  0.0000000E+00;0; -2.8975036E-03;  1.0000000E+04;  0.0000000E+00;  0.0000000E+00;  1.0000000E+04;  0.0000000E+00;  1.0000000E+04; -2.2422587E-03;  0.0000000E+00; -6.5524486E-04;  1.1421638E+01;
 -7.9999998E-02;  9.9999998E-03;  3.6000001E-01;323;  0.0000000E+00;  0.0000000E+00;  0.0000000E+00;  1.0000029E+03;  4.0000001E-01;  2.4690657E+00;0;  0.0000000E+00;  0.0000000E+00;  0.0000000E+00;0; -1.5288900E-03;  1.0000000E+04;  0.0000000E+00;  0.0000000E+00;  1.0000000E+04;  0.0000000E+00;  1.0000000E+04; -1.0623587E-03;  0.0000000E+00; -4.6653126E-04;  8.2280893E+00;
 -7.9999998E-02;  9.9999998E-03;  3.8000000E-01;324;  0.0000000E+00;  0.0000000E+00;  0.0000000E+00;  1.0000012E+03;  4.0000001E-01;  9.8762625E-01;0;  0.0000000E+00;  0.0000000E+00;  0.0000000E+00;0; -6.3698081E-04;  1.0000000E+04;  0.0000000E+00;  0.0000000E+00;  1.0000000E+04;  0.0000000E+00;  1.0000000E+04; -4.0302079E-04;  0.0000000E+00; -2.3396000E-04;  4.1474471E+00;
 -7.9999998E-02;  9.9999998E-03;  4.0000001E-01;325;  0.0000000E+00;  0.0000000E+00;  0.0000000E+00;  1.0000002E+03;  4.0000001E-01;  1.9752525E-01;0;  0.0000000E+00;  0.0000000E+00;  0.0000000E+00;0; -1.6780655E-04;  1.0000000E+04;  0.0000000E+00;  0.0000000E+00;  1.0000000E+04;  0.0000000E+00;  1.0000000E+04; -1.0346844E-04;  0.0000000E+00; -6.4338114E-05;  1.1411254E+00;
 -5.9999999E-02;  9.9999998E-03;  3.4000000E-01;363;  0.0000000E+00;  0.0000000E+00;  0.0000000E+00;  1.0000128E+03;  4.0000001E-01;  1.0567601E+01;0;  0.0000000E+00;  0.0000000E+00;  0.0000000E+00;0; -6.3741459E-03;  1.0000000E+04;  0.0000000E+00;  0.0000000E+00;  1.0000000E+04;  0.0000000E+00;  1.0000000E+04; -4.8119407E-03;  0.0000000E+00; -1.5622053E-03;  2.7442936E+01;
 -5.9999999E-02;  9.9999998E-03;  3.6000001E-01;364;  0.0000000E+00;  0.0000000E+00;  0.0000000E+00;  1.0000073E+03;  4.0000001E-01;  6.0245199E+00;0;  0.0000000E+00;  0.0000000E+00;  0.0000000E+00;0; -3.6371651E-03;  1.0000000E+04;  0.0000000E+00;  0.0000000E+00;  1.0000000E+04;  0.0000000E+00;  1.0000000E+04; -2.4421201E-03;  0.0000000E+00; -1.1950450E-03;  2.1223534E+01;
 -5.9999999E-02;  9.9999998E-03;  3.8000000E-01;365;  0.0000000E+00;  0.0000000E+00;  0.0000000E+00;  1.0000034E+03;  4.0000001E-01;  2.8641162E+00;0;  0.0000000E+00;  0.0000000E+00;  0.0000000E+00;0; -1.7332250E-03;  1.0000000E+04;  0.0000000E+00;  0.0000000E+00;  1.0000000E+04;  0.0000000E+00;  1.0000000E+04; -1.0494058E-03;  0.0000000E+00; -6.8381918E-04;  1.2200785E+01;
 -5.9999999E-02;  9.9999998E-03;  4.0000001E-01;366;  0.0000000E+00;  0.0000000E+00;  0.0000000E+00;  1.0000011E+03;  4.0000001E-01;  8.8886362E-01;0;  0.0000000E+00;  0.0000000E+00;  0.0000000E+00;0; -5.9393561E-04;  1.0000000E+04;  0.0000000E+00;  0.0000000E+00;  1.0000000E+04;  0.0000000E+00;  1.0000000E+04; -3.4766275E-04;  0.0000000E+00; -2.4627289E-04;  4.3945999E+00;
 -3.9999999E-02;  9.9999998E-03;  3.4000000E-01;404;  0.0000000E+00;  0.0000000E+00;  0.0000000E+00;  1.0000231E+03;  4.0000001E-01;  1.9159948E+01;0;  0.0000000E+00;  0.0000000E+00;  0.0000000E+00;0; -1.1537807E-02;  1.0000000E+04;  0.0000000E+00;  0.0000000E+00;  1.0000000E+04;  0.0000000E+00;  1.0000000E+04; -8.4717972E-03;  0.0000000E+00; -3.0660101E-03;  5.4346630E+01;
 -3.9999999E-02;  9.9999998E-03;  3.6000001E-01;405;  0.0000000E+00;  0.0000000E+00;  0.0000000E+00;  1.0000139E+03;  4.0000001E-01;  1.1456465E+01;0;  0.0000000E+00;  0.0000000E+00;  0.0000000E+00;0; -6.9057737E-03;  1.0000000E+04;  0.0000000E+00;  0.0000000E+00;  1.0000000E+04;  0.0000000E+00;  1.0000000E+04; -4.4659241E-03;  0.0000000E+00; -2.4398498E-03;  4.3691246E+01;
 -3.9999999E-02;  9.9999998E-03;  3.8000000E-01;406;  0.0000000E+00;  0.0000000E+00;  0.0000000E+00;  1.0000070E+03;  4.0000001E-01;  5.8269949E+00;0;  0.0000000E+00;  0.0000000E+00;  0.0000000E+00;0; -3.5518035E-03;  1.0000000E+04;  0.0000000E+00;  0.0000000E+00;  1.0000000E+04;  0.0000000E+00;  1.0000000E+04; -2.0511912E-03;  0.0000000E+00; -1.5006125E-03;  2.6984230E+01;
 -3.9999999E-02;  9.9999998E-03;  4.0000001E-01;407;  0.0000000E+00;  0.0000000E+00;  0.0000000E+00;  1.0000027E+03;  4.0000001E-01;  2.2715404E+00;0;  0.0000000E+00;  0.0000000E+00;  0.0000000E+00;0; -1.3913271E-03;  1.0000000E+04;  0.0000000E+00;  0.0000000E+00;  1.0000000E+04;  0.0000000E+00;  1.0000000E+04; -7.7080162E-04;  0.0000000E+00; -6.2052550E-04;  1.1155258E+01;
 -2.0000000E-02;  9.9999998E-03;  3.4000000E-01;445;  0.0000000E+00;  0.0000000E+00;  0.0000000E+00;  1.0000362E+03;  4.0000001E-01;  3.0023838E+01;0;  0.0000000E+00;  0.0000000E+00;  0.0000000E+00;0; -1.7992374E-02;  1.0000000E+04;  0.0000000E+00;  0.0000000E+00;  1.0000000E+04;  0.0000000E+00;  1.0000000E+04; -1.2814089E-02;  0.0000000E+00; -5.1782839E-03;  9.2767006E+01;
 -2.0000000E-02;  9.9999998E-03;  3.6000001E-01;446;  0.0000000E+00;  0.0000000E+00;  0.0000000E+00;  1.0000223E+03;  4.0000001E-01;  1.8468611E+01;0;  0.0000000E+00;  0.0000000E+00;  0.0000000E+00;0; -1.1107229E-02;  1.0000000E+04;  0.0000000E+00;  0.0000000E+00;  1.0000000E+04;  0.0000000E+00;  1.0000000E+04; -6.8964600E-03;  0.0000000E+00; -4.2107692E-03;  7.6163910E+01;
 -2.0000000E-02;  9.9999998E-03;  3.8000000E-01;447;  0.0000000E+00;  0.0000000E+00;  0.0000000E+00;  1.0000121E+03;  4.0000001E-01;  9.9750252E+00;0;  0.0000000E+00;  0.0000000E+00;  0.0000000E+00;0; -5.9816111E-03;  1.0000000E+04;  0.0000000E+00;  0.0000000E+00;  1.0000000E+04;  0.0000000E+00;  1.0000000E+04; -3.2827232E-03;  0.0000000E+00; -2.6988876E-03;  4.9001804E+01;
 -2.0000000E-02;  9.9999998E-03;  4.0000001E-01;448;  0.0000000E+00;  0.0000000E+00;  0.0000000E+00;  1.0000049E+03;  4.0000001E-01;  4.0492678E+00;0;  0.0000000E+00;  0.0000000E+00;  0.0000000E+00;0; -2.5231512E-03;  1.0000000E+04;  0.0000000E+00;  0.0000000E+00;  1.0000000E+04;  0.0000000E+00;  1.0000000E+04; -1.3165659E-03;  0.0000000E+00; -1.2065853E-03;  2.1892607E+01;
  0.0000000E+00;  9.9999998E-03;  3.4000000E-01;457;  0.0000000E+00;  0.0000000E+00;  0.0000000E+00;  1.0000507E+03;  4.0000001E-01;  4.1974113E+01;0;  0.0000000E+00;  0.0000000E+00;  0.0000000E+00;0; -2.4890015E-02;  1.0000000E+04;  0.0000000E+00;  0.0000000E+00;  1.0000000E+04;  0.0000000E+00;  1.0000000E+04; -1.7181471E-02;  0.0000000E+00; -7.7085439E-03;  1.3987177E+02;
  0.0000000E+00;  9.9999998E-03;  3.6000001E-01;458;  0.0000000E+00;  0.0000000E+00;  0.0000000E+00;  1.0000319E+03;  4.0000001E-01;  2.6468384E+01;0;  0.0000000E+00;  0.0000000E+00;  0.0000000E+00;0; -1.5697461E-02;  1.0000000E+04;  0.0000000E+00;  0.0000000E+00;  1.0000000E+04;  0.0000000E+00;  1.0000000E+04; -9.3529616E-03;  0.0000000E+00; -6.3445000E-03;  1.1618679E+02;
  0.0000000E+00;  9.9999998E-03;  3.8000000E-01;459;  0.0000000E+00;  0.0000000E+00;  0.0000000E+00;  1.0000175E+03;  4.0000001E-01;  1.4518106E+01;0;  0.0000000E+00;  0.0000000E+00;  0.0000000E+00;0; -8.6993258E-03;  1.0000000E+04;  0.0000000E+00;  0.0000000E+00;  1.0000000E+04;  0.0000000E+00;  1.0000000E+04; -4.5329612E-03;  0.0000000E+00; -4.1663647E-03;  7.6564629E+01;
  0.0000000E+00;  9.9999998E-03;  4.0000001E-01;460;  0.0000000E+00;  0.0000000E+00;  0.0000000E+00;  1.0000077E+03;  4.0000001E-01;  6.4195704E+00;0;  0.0000000E+00;  0.0000000E+00;  0.0000000E+00;0; -3.8248801E-03;  1.0000000E+04;  0.0000000E+00;  0.0000000E+00;  1.0000000E+04;  0.0000000E+00;  1.0000000E+04; -1.8750490E-03;  0.0000000E+00; -1.9498311E-03;  3.5795895E+01;
  2.0000000E-02;  9.9999998E-03;  3.4000000E-01;467;  0.0000000E+00;  0.0000000E+00;  0.0000000E+00;  1.0000645E+03;  4.0000001E-01;  5.3430580E+01;0;  0.0000000E+00;  0.0000000E+00;  0.0000000E+00;0; -3.1284824E-02;  1.0000000E+04;  0.0000000E+00;  0.0000000E+00;  1.0000000E+04;  0.0000000E+00;  1.0000000E+04; -2.1023549E-02;  0.0000000E+00; -1.0261273E-02;  1.8915175E+02;
  2.0000000E-02;  9.9999998E-03;  3.6000001E-01;468;  0.0000000E+00;  0.0000000E+00;  0.0000000E+00;  1.0000413E+03;  4.0000001E-01;  3.4171867E+01;0;  0.0000000E+00;  0.0000000E+00;  0.0000000E+00;0; -2.0043405E-02;  1.0000000E+04;  0.0000000E+00;  0.0000000E+00;  1.0000000E+04;  0.0000000E+00;  1.0000000E+04; -1.1521337E-02;  0.0000000E+00; -8.5220682E-03;  1.5850734E+02;
  2.0000000E-02;  9.9999998E-03;  3.8000000E-01;469;  0.0000000E+00;  0.0000000E+00;  0.0000000E+00;  1.0000233E+03;  4.0000001E-01;  1.9258711E+01;0;  0.0000000E+00;  0.0000000E+00;  0.0000000E+00;0; -1.1310047E-02;  1.0000000E+04;  0.0000000E+00;  0.0000000E+00;  1.0000000E+04;  0.0000000E+00;  1.0000000E+04; -5.6257774E-03;  0.0000000E+00; -5.6842701E-03;  1.0607072E+02;
  2.0000000E-02;  9.9999998E-03;  4.0000001E-01;470;  0.0000000E+00;  0.0000000E+00;  0.0000000E+00;  1.0000103E+03;  4.0000001E-01;  8.5923481E+00;0;  0.0000000E+00;  0.0000000E+00;  0.0000000E+00;0; -5.0837453E-03;  1.0000000E+04;  0.0000000E+00;  0.0000000E+00;  1.0000000E+04;  0.0000000E+00;  1.0000000E+04; -2.3503632E-03;  0.0000000E+00; -2.7333822E-03;  5.0940506E+01;
  3.9999999E-02;  9.9999998E-03;  3.4000000E-01;477;  0.0000000E+00;  0.0000000E+00;  0.0000000E+00;  1.0000770E+03;  4.0000001E-01;  6.3800655E+01;0;  0.0000000E+00;  0.0000000E+00;  0.0000000E+00;0; -3.6683731E-02;  1.0000000E+04;  0.0000000E+00;  0.0000000E+00;  1.0000000E+04;  0.0000000E+00;  1.0000000E+04; -2.4286749E-02;  0.0000000E+00; -1.2396984E-02;  2.3310176E+02;
  3.9999999E-02;  9.9999998E-03;  3.6000001E-01;478;  0.0000000E+00;  0.0000000E+00;  0.0000000E+00;  1.0000498E+03;  4.0000001E-01;  4.1282776E+01;0;  0.0000000E+00;  0.0000000E+00;  0.0000000E+00;0; -2.3754342E-02;  1.0000000E+04;  0.0000000E+00;  0.0000000E+00;  1.0000000E+04;  0.0000000E+00;  1.0000000E+04; -1.3355331E-02;  0.0000000E+00; -1.0399010E-02;  1.9726295E+02;
  3.9999999E-02;  9.9999998E-03;  3.8000000E-01;479;  0.0000000E+00;  0.0000000E+00;  0.0000000E+00;  1.0000283E+03;  4.0000001E-01;  2.3406742E+01;0;  0.0000000E+00;  0.0000000E+00;  0.0000000E+00;0; -1.3546439E-02;  1.0000000E+04;  0.0000000E+00;  0.0000000E+00;  1.0000000E+04;  0.0000000E+00;  1.0000000E+04; -6.5282704E-03;  0.0000000E+00; -7.0181685E-03;  1.3353447E+02;
  3.9999999E-02;  9.9999998E-03;  4.0000001E-01;480;  0.0000000E+00;  0.0000000E+00;  0.0000000E+00;  1.0000128E+03;  4.0000001E-01;  1.0666364E+01;0;  0.0000000E+00;  0.0000000E+00;  0.0000000E+00;0; -6.1503379E-03;  1.0000000E+04;  0.0000000E+00;  0.0000000E+00;  1.0000000E+04;  0.0000000E+00;  1.0000000E+04; -2.7206952E-03;  0.0000000E+00; -3.4296426E-03;  6.5154968E+01;
  5.9999999E-02;  9.9999998E-03;  3.4000000E-01;487;  0.0000000E+00;  0.0000000E+00;  0.0000000E+00;  1.0000886E+03;  4.0000001E-01;  7.3380630E+01;0;  0.0000000E+00;  0.0000000E+00;  0.0000000E+00;0; -4.1306905E-02;  1.0000000E+04;  0.0000000E+00;  0.0000000E+00;  1.0000000E+04;  0.0000000E+00;  1.0000000E+04; -2.7421702E-02;  0.0000000E+00; -1.3885204E-02;  2.6768021E+02;
  5.9999999E-02;  9.9999998E-03;  3.6000001E-01;488;  0.0000000E+00;  0.0000000E+00;  0.0000000E+00;  1.0000575E+03;  4.0000001E-01;  4.7603584E+01;0;  0.0000000E+00;  0.0000000E+00;  0.0000000E+00;0; -2.6886508E-02;  1.0000000E+04;  0.0000000E+00;  0.0000000E+00;  1.0000000E+04;  0.0000000E+00;  1.0000000E+04; -1.5111643E-02;  0.0000000E+00; -1.1774865E-02;  2.2897360E+02;
  5.9999999E-02;  9.9999998E-03;  3.8000000E-01;489;  0.0000000E+00;  0.0000000E+00;  0.0000000E+00;  1.0000329E+03;  4.0000001E-01;  2.7258484E+01;0;  0.0000000E+00;  0.0000000E+00;  0.0000000E+00;0; -1.5406415E-02;  1.0000000E+04;  0.0000000E+00;  0.0000000E+00;  1.0000000E+04;  0.0000000E+00;  1.0000000E+04; -7.3805996E-03;  0.0000000E+00; -8.0258148E-03;  1.5648323E+02;
  5.9999999E-02;  9.9999998E-03;  4.0000001E-01;490;  0.0000000E+00;  0.0000000E+00;  0.0000000E+00;  1.0000150E+03;  4.0000001E-01;  1.2444091E+01;0;  0.0000000E+00;  0.0000000E+00;  0.0000000E+00;0; -7.0168553E-03;  1.0000000E+04;  0.0000000E+00;  0.0000000E+00;  1.0000000E+04;  0.0000000E+00;  1.0000000E+04; -3.0558943E-03;  0.0000000E+00; -3.9609610E-03;  7.7077751E+01;
  7.9999998E-02;  9.9999998E-03;  3.4000000E-01;497;  0.0000000E+00;  0.0000000E+00;  0.0000000E+00;  1.0001015E+03;  4.0000001E-01;  8.4046989E+01;0;  0.0000000E+00;  0.0000000E+00;  0.0000000E+00;0; -4.6083435E-02;  1.0000000E+04;  0.0000000E+00;  0.0000000E+00;  1.0000000E+04;  0.0000000E+00;  1.0000000E+04; -3.1304844E-02;  0.0000000E+00; -1.4778594E-02;  2.9477444E+02;
  7.9999998E-02;  9.9999998E-03;  3.6000001E-01;498;  0.0000000E+00;  0.0000000E+00;  0.0000000E+00;  1.0000661E+03;  4.0000001E-01;  5.4714493E+01;0;  0.0000000E+00;  0.0000000E+00;  0.0000000E+00;0; -3.0008620E-02;  1.0000000E+04;  0.0000000E+00;  0.0000000E+00;  1.0000000E+04;  0.0000000E+00;  1.0000000E+04; -1.7344125E-02;  0.0000000E+00; -1.2664495E-02;  2.5445219E+02;
  7.9999998E-02;  9.9999998E-03;  3.8000000E-01;499;  0.0000000E+00;  0.0000000E+00;  0.0000000E+00;  1.0000377E+03;  4.0000001E-01;  3.1208990E+01;0;  0.0000000E+00;  0.0000000E+00;  0.0000000E+00;0; -1.7192684E-02;  1.0000000E+04;  0.0000000E+00;  0.0000000E+00;  1.0000000E+04;  0.0000000E+00;  1.0000000E+04; -8.4874742E-03;  0.0000000E+00; -8.7052099E-03;  1.7489589E+02;
  7.9999998E-02;  9.9999998E-03;  4.0000001E-01;500;  0.0000000E+00;  0.0000000E+00;  0.0000000E+00;  1.0000170E+03;  4.0000001E-01;  1.4123055E+01;0;  0.0000000E+00;  0.0000000E+00;  0.0000000E+00;0; -7.8283455E-03;  1.0000000E+04;  0.0000000E+00;  0.0000000E+00;  1.0000000E+04;  0.0000000E+00;  1.0000000E+04; -3.5014285E-03;  0.0000000E+00; -4.3269168E-03;  8.6755547E+01;
  1.0000000E-01;  9.9999998E-03;  3.4000000E-01;507;  0.0000000E+00;  0.0000000E+00;  0.0000000E+00;  1.0001189E+03;  4.0000001E-01;  9.8466339E+01;0;  0.0000000E+00;  0.0000000E+00;  0.0000000E+00;0; -5.2502416E-02;  1.0000000E+04;  0.0000000E+00;  0.0000000E+00;  1.0000000E+04;  0.0000000E+00;  1.0000000E+04; -3.7138149E-02;  0.0000000E+00; -1.5364265E-02;  3.4084680E+02;
  1.0000000E-01;  9.9999998E-03;  3.6000001E-01;508;  0.0000000E+00;  0.0000000E+00;  0.0000000E+00;  1.0000772E+03;  4.0000001E-01;  6.3998180E+01;0;  0.0000000E+00;  0.0000000E+00;  0.0000000E+00;0; -3.4110032E-02;  1.0000000E+04;  0.0000000E+00;  0.0000000E+00;  1.0000000E+04;  0.0000000E+00;  1.0000000E+04; -2.0833174E-02;  0.0000000E+00; -1.3276860E-02;  2.8185834E+02;
  1.0000000E-01;  9.9999998E-03;  3.8000000E-01;509;  0.0000000E+00;  0.0000000E+00;  0.0000000E+00;  1.0000439E+03;  4.0000001E-01;  3.6443409E+01;0;  0.0000000E+00;  0.0000000E+00;  0.0000000E+00;0; -1.9470453E-02;  1.0000000E+04;  0.0000000E+00;  0.0000000E+00;  1.0000000E+04;  0.0000000E+00;  1.0000000E+04; -1.0286966E-02;  0.0000000E+00; -9.1834869E-03;  1.9121565E+02;
  1.0000000E-01;  9.9999998E-03;  4.0000001E-01;510;  0.0000000E+00;  0.0000000E+00;  0.0000000E+00;  1.0000201E+03;  4.0000001E-01;  1.6592121E+01;0;  0.0000000E+00;  0.0000000E+00;  0.0000000E+00;0; -8.8580158E-03;  1.0000000E+04;  0.0000000E+00;  0.0000000E+00;  1.0000000E+04;  0.0000000E+00;  1.0000000E+04; -4.2646718E-03;  0.0000000E+00; -4.5933435E-03;  1.0100106E+02;
  1.2000000E-01;  9.9999998E-03;  3.4000000E-01;517;  0.0000000E+00;  0.0000000E+00;  0.0000000E+00;  1.0001455E+03;  4.0000001E-01;  1.2058916E+02;0;  0.0000000E+00;  0.0000000E+00;  0.0000000E+00;0; -6.2424600E-02;  1.0000000E+04;  0.0000000E+00;  0.0000000E+00;  1.0000000E+04;  0.0000000E+00;  1.0000000E+04; -4.6275992E-02;  0.0000000E+00; -1.6148610E-02;  5.4854773E+02;
  1.2000000E-01;  9.9999998E-03;  3.6000001E-01;518;  0.0000000E+00;  0.0000000E+00;  0.0000000E+00;  1.0000943E+03;  4.0000001E-01;  7.8121239E+01;0;  0.0000000E+00;  0.0000000E+00;  0.0000000E+00;0; -4.0511485E-02;  1.0000000E+04;  0.0000000E+00;  0.0000000E+00;  1.0000000E+04;  0.0000000E+00;  1.0000000E+04; -2.6495744E-02;  0.0000000E+00; -1.4015743E-02;  3.3344992E+02;
  1.2000000E-01;  9.9999998E-03;  3.8000000E-01;519;  0.0000000E+00;  0.0000000E+00;  0.0000000E+00;  1.0000536E+03;  4.0000001E-01;  4.4443180E+01;0;  0.0000000E+00;  0.0000000E+00;  0.0000000E+00;0; -2.3036487E-02;  1.0000000E+04;  0.0000000E+00;  0.0000000E+00;  1.0000000E+04;  0.0000000E+00;  1.0000000E+04; -1.3316508E-02;  0.0000000E+00; -9.7199799E-03;  2.3314624E+02;
  1.2000000E-01;  9.9999998E-03;  4.0000001E-01;520;  0.0000000E+00;  0.0000000E+00;  0.0000000E+00;  1.0000245E+03;  4.0000001E-01;  2.0246338E+01;0;  0.0000000E+00;  0.0000000E+00;  0.0000000E+00;0; -1.0496852E-02;  1.0000000E+04;  0.0000000E+00;  0.0000000E+00;  1.0000000E+04;  0.0000000E+00;  1.0000000E+04; -5.6140688E-03;  0.0000000E+00; -4.8827832E-03;  1.8935971E+02;
  1.4000000E-01;  9.9999998E-03;  3.4000000E-01;527;  0.0000000E+00;  0.0000000E+00;  0.0000000E+00;  1.0001868E+03;  4.0000001E-01;  1.5476103E+02;0;  0.0000000E+00;  0.0000000E+00;  0.0000000E+00;0; -7.8001082E-02;  1.0000000E+04;  0.0000000E+00;  0.0000000E+00;  1.0000000E+04;  0.0000000E+00;  1.0000000E+04; -6.0101546E-02;  0.0000000E+00; -1.7899539E-02;  1.2021611E+03;
  1.4000000E-01;  9.9999998E-03;  3.6000001E-01;528;  0.0000000E+00;  0.0000000E+00;  0.0000000E+00;  1.0001220E+03;  4.0000001E-01;  1.0103416E+02;0;  0.0000000E+00;  0.0000000E+00;  0.0000000E+00;0; -5.0867725E-02;  1.0000000E+04;  0.0000000E+00;  0.0000000E+00;  1.0000000E+04;  0.0000000E+00;  1.0000000E+04; -3.5333201E-02;  0.0000000E+00; -1.5534524E-02;  4.4202313E+02;
  1.4000000E-01;  9.9999998E-03;  3.8000000E-01;529;  0.0000000E+00;  0.0000000E+00;  0.0000000E+00;  1.0000695E+03;  4.0000001E-01;  5.7578609E+01;0;  0.0000000E+00;  0.0000000E+00;  0.0000000E+00;0; -2.9002279E-02;  1.0000000E+04;  0.0000000E+00;  0.0000000E+00;  1.0000000E+04;  0.0000000E+00;  1.0000000E+04; -1.8218635E-02;  0.0000000E+00; -1.0783643E-02;  4.7875394E+02;
  1.4000000E-01;  9.9999998E-03;  4.0000001E-01;530;  0.0000000E+00;  0.0000000E+00;  0.0000000E+00;  1.0000318E+03;  4.0000001E-01;  2.6369621E+01;0;  0.0000000E+00;  0.0000000E+00;  0.0000000E+00;0; -1.3356725E-02;  1.0000000E+04;  0.0000000E+00;  0.0000000E+00;  1.0000000E+04;  0.0000000E+00;  1.0000000E+04; -7.9093082E-03;  0.0000000E+00; -5.4474170E-03;  5.5176660E+02;
  1.6000000E-01;  9.9999998E-03;  3.4000000E-01;537;  0.0000000E+00;  0.0000000E+00;  0.0000000E+00;  1.0002482E+03;  4.0000001E-01;  2.0562378E+02;0;  0.0000000E+00;  0.0000000E+00;  0.0000000E+00;0; -1.0100259E-01;  1.0000000E+04;  0.0000000E+00;  0.0000000E+00;  1.0000000E+04;  0.0000000E+00;  1.0000000E+04; -7.9239383E-02;  0.0000000E+00; -2.1763207E-02;  2.5815322E+03;
  1.6000000E-01;  9.9999998E-03;  3.6000001E-01;538;  0.0000000E+00;  0.0000000E+00;  0.0000000E+00;  1.0001642E+03;  4.0000001E-01;  1.3599614E+02;0;  0.0000000E+00;  0.0000000E+00;  0.0000000E+00;0; -6.6687301E-02;  1.0000000E+04;  0.0000000E+00;  0.0000000E+00;  1.0000000E+04;  0.0000000E+00;  1.0000000E+04; -4.7843643E-02;  0.0000000E+00; -1.8843662E-02;  6.0446649E+02;
  1.6000000E-01;  9.9999998E-03;  3.8000000E-01;539;  0.0000000E+00;  0.0000000E+00;  0.0000000E+00;  1.0000951E+03;  4.0000001E-01;  7.8812576E+01;0;  0.0000000E+00;  0.0000000E+00;  0.0000000E+00;0; -3.8641803E-02;  1.0000000E+04;  0.0000000E+00;  0.0000000E+00;  1.0000000E+04;  0.0000000E+00;  1.0000000E+04; -2.5445808E-02;  0.0000000E+00; -1.3195997E-02;  1.2702432E+03;
  1.6000000E-01;  9.9999998E-03;  4.0000001E-01;540;  0.0000000E+00;  0.0000000E+00;  0.0000000E+00;  1.0000450E+03;  4.0000001E-01;  3.7332272E+01;0;  0.0000000E+00;  0.0000000E+00;  0.0000000E+00;0; -1.8386602E-02;  1.0000000E+04;  0.0000000E+00;  0.0000000E+00;  1.0000000E+04;  0.0000000E+00;  1.0000000E+04; -1.1546903E-02;  0.0000000E+00; -6.8396982E-03;  1.5360405E+03;
  1.8000001E-01;  9.9999998E-03;  3.4000000E-01;547;  0.0000000E+00;  0.0000000E+00;  0.0000000E+00;  1.0003306E+03;  4.0000001E-01;  2.7386874E+02;0;  0.0000000E+00;  0.0000000E+00;  0.0000000E+00;0; -1.3105951E-01;  1.0000000E+04;  0.0000000E+00;  0.0000000E+00;  1.0000000E+04;  0.0000000E+00;  1.0000000E+04; -1.0161063E-01;  0.0000000E+00; -2.9448887E-02;  4.7543252E+03;
  1.8000001E-01;  9.9999998E-03;  3.6000001E-01;548;  0.0000000E+00;  0.0000000E+00;  0.0000000E+00;  1.0002219E+03;  4.0000001E-01;  1.8389601E+02;0;  0.0000000E+00;  0.0000000E+00;  0.0000000E+00;0; -8.7943077E-02;  1.0000000E+04;  0.0000000E+00;  0.0000000E+00;  1.0000000E+04;  0.0000000E+00;  1.0000000E+04; -6.2478907E-02;  0.0000000E+00; -2.5464172E-02;  7.3248962E+02;
  1.8000001E-01;  9.9999998E-03;  3.8000000E-01;549;  0.0000000E+00;  0.0000000E+00;  0.0000000E+00;  1.0001329E+03;  4.0000001E-01;  1.1012032E+02;0;  0.0000000E+00;  0.0000000E+00;  0.0000000E+00;0; -5.2646704E-02;  1.0000000E+04;  0.0000000E+00;  0.0000000E+00;  1.0000000E+04;  0.0000000E+00;  1.0000000E+04; -3.4299355E-02;  0.0000000E+00; -1.8347351E-02;  2.9616768E+03;
  1.8000001E-01;  9.9999998E-03;  4.0000001E-01;550;  0.0000000E+00;  0.0000000E+00;  0.0000000E+00;  1.0000674E+03;  4.0000001E-01;  5.5800884E+01;0;  0.0000000E+00;  0.0000000E+00;  0.0000000E+00;0; -2.6804481E-02;  1.0000000E+04;  0.0000000E+00;  0.0000000E+00;  1.0000000E+04;  0.0000000E+00;  1.0000000E+04; -1.6578648E-02;  0.0000000E+00; -1.0225832E-02;  3.6822698E+03;
  2.0000000E-01;  9.9999998E-03;  3.4000000E-01;556;  0.0000000E+00;  0.0000000E+00;  0.0000000E+00;  1.0004279E+03;  4.0000001E-01;  3.5455783E+02;0;  0.0000000E+00;  0.0000000E+00;  0.0000000E+00;0; -1.6556156E-01;  1.0000000E+04;  0.0000000E+00;  0.0000000E+00;  1.0000000E+04;  0.0000000E+00;  1.0000000E+04; -1.2231506E-01;  0.0000000E+00; -4.3246485E-02;  7.1292163E+03;
  2.0000000E-01;  9.9999998E-03;  3.6000001E-01;557;  0.0000000E+00;  0.0000000E+00;  0.0000000E+00;  1.0002930E+03;  4.0000001E-01;  2.4275853E+02;0;  0.0000000E+00;  0.0000000E+00;  0.0000000E+00;0; -1.1330155E-01;  1.0000000E+04;  0.0000000E+00;  0.0000000E+00;  1.0000000E+04;  0.0000000E+00;  1.0000000E+04; -7.5825319E-02;  0.0000000E+00; -3.7476223E-02;  9.0853082E+02;
  2.0000000E-01;  9.9999998E-03;  3.8000000E-01;558;  0.0000000E+00;  0.0000000E+00;  0.0000000E+00;  1.0001843E+03;  4.0000001E-01;  1.5268701E+02;0;  0.0000000E+00;  0.0000000E+00;  0.0000000E+00;0; -7.1158260E-02;  1.0000000E+04;  0.0000000E+00;  0.0000000E+00;  1.0000000E+04;  0.0000000E+00;  1.0000000E+04; -4.2806666E-02;  0.0000000E+00; -2.8351590E-02;  5.5908716E+03;
  1.9200000E+00;  9.9999998E-03; -3.6000001E-01;559;  0.0000000E+00;  0.0000000E+00;  0.0000000E+00;  1.0000000E+03;  4.0000001E-01;  0.0000000E+00;0;  0.0000000E+00;  0.0000000E+00;  0.0000000E+00;0;  0.0000000E+00;  1.0000000E+04;  0.0000000E+00;  0.0000000E+00;  1.0000000E+04;  0.0000000E+00;  1.0000000E+04;  0.0000000E+00;  0.0000000E+00;  0.0000000E+00;  0.0000000E+00;
  1.9200000E+00;  9.9999998E-03; -3.4000000E-01;560;  0.0000000E+00;  0.0000000E+00;  0.0000000E+00;  1.0000000E+03;  4.0000001E-01;  0.0000000E+00;0;  0.0000000E+00;  0.0000000E+00;  0.0000000E+00;0;  0.0000000E+00;  1.0000000E+04;  0.0000000E+00;  0.0000000E+00;  1.0000000E+04;  0.0000000E+00;  1.0000000E+04;  0.0000000E+00;  0.0000000E+00;  0.0000000E+00;  0.0000000E+00;
  1.9200000E+00;  9.9999998E-03; -3.1999999E-01;561;  0.0000000E+00;  0.0000000E+00;  0.0000000E+00;  1.0000000E+03;  4.0000001E-01;  0.0000000E+00;0;  0.0000000E+00;  0.0000000E+00;  0.0000000E+00;0;  0.0000000E+00;  1.0000000E+04;  0.0000000E+00;  0.0000000E+00;  1.0000000E+04;  0.0000000E+00;  1.0000000E+04;  0.0000000E+00;  0.0000000E+00;  0.0000000E+00;  0.0000000E+00;
  1.9400001E+00;  9.9999998E-03; -3.8000000E-01;562;  0.0000000E+00;  0.0000000E+00;  0.0000000E+00;  1.0000000E+03;  4.0000001E-01;  0.0000000E+00;0;  0.0000000E+00;  0.0000000E+00;  0.0000000E+00;0;  0.0000000E+00;  1.0000000E+04;  0.0000000E+00;  0.0000000E+00;  1.0000000E+04;  0.0000000E+00;  1.0000000E+04;  0.0000000E+00;  0.0000000E+00;  0.0000000E+00;  0.0000000E+00;
  1.9400001E+00;  9.9999998E-03; -3.6000001E-01;563;  0.0000000E+00;  0.0000000E+00;  0.0000000E+00;  1.0000000E+03;  4.0000001E-01;  0.0000000E+00;0;  0.0000000E+00;  0.0000000E+00;  0.0000000E+00;0;  0.0000000E+00;  1.0000000E+04;  0.0000000E+00;  0.0000000E+00;  1.0000000E+04;  0.0000000E+00;  1.0000000E+04;  0.0000000E+00;  0.0000000E+00;  0.0000000E+00;  0.0000000E+00;
  1.9400001E+00;  9.9999998E-03; -3.4000000E-01;564;  0.0000000E+00;  0.0000000E+00;  0.0000000E+00;  1.0000000E+03;  4.0000001E-01;  0.0000000E+00;0;  0.0000000E+00;  0.0000000E+00;  0.0000000E+00;0;  0.0000000E+00;  1.0000000E+04;  0.0000000E+00;  0.0000000E+00;  1.0000000E+04;  0.0000000E+00;  1.0000000E+04;  0.0000000E+00;  0.0000000E+00;  0.0000000E+00;  0.0000000E+00;
  1.9400001E+00;  9.9999998E-03; -3.1999999E-01;565;  0.0000000E+00;  0.0000000E+00;  0.0000000E+00;  1.0000000E+03;  4.0000001E-01;  0.0000000E+00;0;  0.0000000E+00;  0.0000000E+00;  0.0000000E+00;0;  0.0000000E+00;  1.0000000E+04;  0.0000000E+00;  0.0000000E+00;  1.0000000E+04;  0.0000000E+00;  1.0000000E+04;  0.0000000E+00;  0.0000000E+00;  0.0000000E+00;  0.0000000E+00;
  1.9400001E+00;  9.9999998E-03; -3.0000001E-01;566;  0.0000000E+00;  0.0000000E+00;  0.0000000E+00;  1.0000000E+03;  4.0000001E-01;  0.0000000E+00;0;  0.0000000E+00;  0.0000000E+00;  0.0000000E+00;0;  0.0000000E+00;  1.0000000E+04;  0.0000000E+00;  0.0000000E+00;  1.0000000E+04;  0.0000000E+00;  1.0000000E+04;  0.0000000E+00;  0.0000000E+00;  0.0000000E+00;  0.0000000E+00;
  1.9400001E+00;  9.9999998E-03; -2.8000000E-01;567;  0.0000000E+00;  0.0000000E+00;  0.0000000E+00;  1.0000000E+03;  4.0000001E-01;  0.0000000E+00;0;  0.0000000E+00;  0.0000000E+00;  0.0000000E+00;0;  0.0000000E+00;  1.0000000E+04;  0.0000000E+00;  0.0000000E+00;  1.0000000E+04;  0.0000000E+00;  1.0000000E+04;  0.0000000E+00;  0.0000000E+00;  0.0000000E+00;  0.0000000E+00;
  1.9400001E+00;  9.9999998E-03; -2.5999999E-01;568;  0.0000000E+00;  0.0000000E+00;  0.0000000E+00;  1.0000000E+03;  4.0000001E-01;  0.0000000E+00;0;  0.0000000E+00;  0.0000000E+00;  0.0000000E+00;0;  0.0000000E+00;  1.0000000E+04;  0.0000000E+00;  0.0000000E+00;  1.0000000E+04;  0.0000000E+00;  1.0000000E+04;  0.0000000E+00;  0.0000000E+00;  0.0000000E+00;  0.0000000E+00;
  1.9400001E+00;  9.9999998E-03; -2.3999999E-01;569;  0.0000000E+00;  0.0000000E+00;  0.0000000E+00;  1.0000000E+03;  4.0000001E-01;  0.0000000E+00;0;  0.0000000E+00;  0.0000000E+00;  0.0000000E+00;0;  0.0000000E+00;  1.0000000E+04;  0.0000000E+00;  0.0000000E+00;  1.0000000E+04;  0.0000000E+00;  1.0000000E+04;  0.0000000E+00;  0.0000000E+00;  0.0000000E+00;  0.0000000E+00;
  1.9400001E+00;  9.9999998E-03; -2.2000000E-01;570;  0.0000000E+00;  0.0000000E+00;  0.0000000E+00;  1.0000000E+03;  4.0000001E-01;  0.0000000E+00;0;  0.0000000E+00;  0.0000000E+00;  0.0000000E+00;0;  0.0000000E+00;  1.0000000E+04;  0.0000000E+00;  0.0000000E+00;  1.0000000E+04;  0.0000000E+00;  1.0000000E+04;  0.0000000E+00;  0.0000000E+00;  0.0000000E+00;  0.0000000E+00;
  1.9600000E+00;  9.9999998E-03; -3.8000000E-01;571;  0.0000000E+00;  0.0000000E+00;  0.0000000E+00;  1.0000000E+03;  4.0000001E-01;  0.0000000E+00;0;  0.0000000E+00;  0.0000000E+00;  0.0000000E+00;0;  0.0000000E+00;  1.0000000E+04;  0.0000000E+00;  0.0000000E+00;  1.0000000E+04;  0.0000000E+00;  1.0000000E+04;  0.0000000E+00;  0.0000000E+00;  0.0000000E+00;  0.0000000E+00;
  1.9600000E+00;  9.9999998E-03; -3.6000001E-01;572;  0.0000000E+00;  0.0000000E+00;  0.0000000E+00;  1.0000000E+03;  4.0000001E-01;  0.0000000E+00;0;  0.0000000E+00;  0.0000000E+00;  0.0000000E+00;0;  0.0000000E+00;  1.0000000E+04;  0.0000000E+00;  0.0000000E+00;  1.0000000E+04;  0.0000000E+00;  1.0000000E+04;  0.0000000E+00;  0.0000000E+00;  0.0000000E+00;  0.0000000E+00;
  1.9600000E+00;  9.9999998E-03; -3.4000000E-01;573;  0.0000000E+00;  0.0000000E+00;  0.0000000E+00;  1.0000000E+03;  4.0000001E-01;  0.0000000E+00;0;  0.0000000E+00;  0.0000000E+00;  0.0000000E+00;0;  0.0000000E+00;  1.0000000E+04;  0.0000000E+00;  0.0000000E+00;  1.0000000E+04;  0.0000000E+00;  1.0000000E+04;  0.0000000E+00;  0.0000000E+00;  0.0000000E+00;  0.0000000E+00;
  1.9600000E+00;  9.9999998E-03; -3.1999999E-01;574;  0.0000000E+00;  0.0000000E+00;  0.0000000E+00;  1.0000000E+03;  4.0000001E-01;  0.0000000E+00;0;  0.0000000E+00;  0.0000000E+00;  0.0000000E+00;0;  0.0000000E+00;  1.0000000E+04;  0.0000000E+00;  0.0000000E+00;  1.0000000E+04;  0.0000000E+00;  1.0000000E+04;  0.0000000E+00;  0.0000000E+00;  0.0000000E+00;  0.0000000E+00;
  1.9600000E+00;  9.9999998E-03; -3.0000001E-01;575;  0.0000000E+00;  0.0000000E+00;  0.0000000E+00;  1.0000000E+03;  4.0000001E-01;  0.0000000E+00;0;  0.0000000E+00;  0.0000000E+00;  0.0000000E+00;0;  0.0000000E+00;  1.0000000E+04;  0.0000000E+00;  0.0000000E+00;  1.0000000E+04;  0.0000000E+00;  1.0000000E+04;  0.0000000E+00;  0.0000000E+00;  0.0000000E+00;  0.0000000E+00;
  1.9600000E+00;  9.9999998E-03; -2.8000000E-01;576;  0.0000000E+00;  0.0000000E+00;  0.0000000E+00;  1.0000000E+03;  4.0000001E-01;  0.0000000E+00;0;  0.0000000E+00;  0.0000000E+00;  0.0000000E+00;0;  0.0000000E+00;  1.0000000E+04;  0.0000000E+00;  0.0000000E+00;  1.0000000E+04;  0.0000000E+00;  1.0000000E+04;  0.0000000E+00;  0.0000000E+00;  0.0000000E+00;  0.0000000E+00;
  1.9600000E+00;  9.9999998E-03; -2.5999999E-01;577;  0.0000000E+00;  0.0000000E+00;  0.0000000E+00;  1.0000000E+03;  4.0000001E-01;  0.0000000E+00;0;  0.0000000E+00;  0.0000000E+00;  0.0000000E+00;0;  0.0000000E+00;  1.0000000E+04;  0.0000000E+00;  0.0000000E+00;  1.0000000E+04;  0.0000000E+00;  1.0000000E+04;  0.0000000E+00;  0.0000000E+00;  0.0000000E+00;  0.0000000E+00;
  1.9600000E+00;  9.9999998E-03; -2.3999999E-01;578;  0.0000000E+00;  0.0000000E+00;  0.0000000E+00;  1.0000000E+03;  4.0000001E-01;  0.0000000E+00;0;  0.0000000E+00;  0.0000000E+00;  0.0000000E+00;0;  0.0000000E+00;  1.0000000E+04;  0.0000000E+00;  0.0000000E+00;  1.0000000E+04;  0.0000000E+00;  1.0000000E+04;  0.0000000E+00;  0.0000000E+00;  0.0000000E+00;  0.0000000E+00;
  1.9600000E+00;  9.9999998E-03; -2.2000000E-01;579;  0.0000000E+00;  0.0000000E+00;  0.0000000E+00;  1.0000000E+03;  4.0000001E-01;  0.0000000E+00;0;  0.0000000E+00;  0.0000000E+00;  0.0000000E+00;0;  0.0000000E+00;  1.0000000E+04;  0.0000000E+00;  0.0000000E+00;  1.0000000E+04;  0.0000000E+00;  1.0000000E+04;  0.0000000E+00;  0.0000000E+00;  0.0000000E+00;  0.0000000E+00;
  1.9600000E+00;  9.9999998E-03; -2.0000000E-01;580;  0.0000000E+00;  0.0000000E+00;  0.0000000E+00;  1.0000000E+03;  4.0000001E-01;  0.0000000E+00;0;  0.0000000E+00;  0.0000000E+00;  0.0000000E+00;0;  0.0000000E+00;  1.0000000E+04;  0.0000000E+00;  0.0000000E+00;  1.0000000E+04;  0.0000000E+00;  1.0000000E+04;  0.0000000E+00;  0.0000000E+00;  0.0000000E+00;  0.0000000E+00;
  1.9600000E+00;  9.9999998E-03; -1.8000001E-01;581;  0.0000000E+00;  0.0000000E+00;  0.0000000E+00;  1.0000000E+03;  4.0000001E-01;  0.0000000E+00;0;  0.0000000E+00;  0.0000000E+00;  0.0000000E+00;0;  0.0000000E+00;  1.0000000E+04;  0.0000000E+00;  0.0000000E+00;  1.0000000E+04;  0.0000000E+00;  1.0000000E+04;  0.0000000E+00;  0.0000000E+00;  0.0000000E+00;  0.0000000E+00;
  1.9600000E+00;  9.9999998E-03; -1.6000000E-01;582;  0.0000000E+00;  0.0000000E+00;  0.0000000E+00;  1.0000000E+03;  4.0000001E-01;  0.0000000E+00;0;  0.0000000E+00;  0.0000000E+00;  0.0000000E+00;0;  0.0000000E+00;  1.0000000E+04;  0.0000000E+00;  0.0000000E+00;  1.0000000E+04;  0.0000000E+00;  1.0000000E+04;  0.0000000E+00;  0.0000000E+00;  0.0000000E+00;  0.0000000E+00;
  1.9600000E+00;  9.9999998E-03; -1.4000000E-01;583;  0.0000000E+00;  0.0000000E+00;  0.0000000E+00;  1.0000000E+03;  4.0000001E-01;  0.0000000E+00;0;  0.0000000E+00;  0.0000000E+00;  0.0000000E+00;0;  0.0000000E+00;  1.0000000E+04;  0.0000000E+00;  0.0000000E+00;  1.0000000E+04;  0.0000000E+00;  1.0000000E+04;  0.0000000E+00;  0.0000000E+00;  0.0000000E+00;  0.0000000E+00;
  1.9600000E+00;  9.9999998E-03; -1.2000000E-01;584;  0.0000000E+00;  0.0000000E+00;  0.0000000E+00;  1.0000000E+03;  4.0000001E-01;  0.0000000E+00;0;  0.0000000E+00;  0.0000000E+00;  0.0000000E+00;0;  0.0000000E+00;  1.0000000E+04;  0.0000000E+00;  0.0000000E+00;  1.0000000E+04;  0.0000000E+00;  1.0000000E+04;  0.0000000E+00;  0.0000000E+00;  0.0000000E+00;  0.0000000E+00;
  1.9800000E+00;  9.9999998E-03; -3.8000000E-01;585;  0.0000000E+00;  0.0000000E+00;  0.0000000E+00;  1.0000000E+03;  4.0000001E-01;  0.0000000E+00;0;  0.0000000E+00;  0.0000000E+00;  0.0000000E+00;0;  0.0000000E+00;  1.0000000E+04;  0.0000000E+00;  0.0000000E+00;  1.0000000E+04;  0.0000000E+00;  1.0000000E+04;  0.0000000E+00;  0.0000000E+00;  0.0000000E+00;  0.0000000E+00;
  1.9800000E+00;  9.9999998E-03; -3.6000001E-01;586;  0.0000000E+00;  0.0000000E+00;  0.0000000E+00;  1.0000000E+03;  4.0000001E-01;  0.0000000E+00;0;  0.0000000E+00;  0.0000000E+00;  0.0000000E+00;0;  0.0000000E+00;  1.0000000E+04;  0.0000000E+00;  0.0000000E+00;  1.0000000E+04;  0.0000000E+00;  1.0000000E+04;  0.0000000E+00;  0.0000000E+00;  0.0000000E+00;  0.0000000E+00;
  1.9800000E+00;  9.9999998E-03; -3.4000000E-01;587;  0.0000000E+00;  0.0000000E+00;  0.0000000E+00;  1.0000000E+03;  4.0000001E-01;  0.0000000E+00;0;  0.0000000E+00;  0.0000000E+00;  0.0000000E+00;0;  0.0000000E+00;  1.0000000E+04;  0.0000000E+00;  0.0000000E+00;  1.0000000E+04;  0.0000000E+00;  1.0000000E+04;  0.0000000E+00;  0.0000000E+00;  0.0000000E+00;  0.0000000E+00;
  1.9800000E+00;  9.9999998E-03; -3.1999999E-01;588;  0.0000000E+00;  0.0000000E+00;  0.0000000E+00;  1.0000000E+03;  4.0000001E-01;  0.0000000E+00;0;  0.0000000E+00;  0.0000000E+00;  0.0000000E+00;0;  0.0000000E+00;  1.0000000E+04;  0.0000000E+00;  0.0000000E+00;  1.0000000E+04;  0.0000000E+00;  1.0000000E+04;  0.0000000E+00;  0.0000000E+00;  0.0000000E+00;  0.0000000E+00;
  1.9800000E+00;  9.9999998E-03; -3.0000001E-01;589;  0.0000000E+00;  0.0000000E+00;  0.0000000E+00;  1.0000000E+03;  4.0000001E-01;  0.0000000E+00;0;  0.0000000E+00;  0.0000000E+00;  0.0000000E+00;0;  0.0000000E+00;  1.0000000E+04;  0.0000000E+00;  0.0000000E+00;  1.0000000E+04;  0.0000000E+00;  1.0000000E+04;  0.0000000E+00;  0.0000000E+00;  0.0000000E+00;  0.0000000E+00;
  1.9800000E+00;  9.9999998E-03; -2.8000000E-01;590;  0.0000000E+00;  0.0000000E+00;  0.0000000E+00;  1.0000000E+03;  4.0000001E-01;  0.0000000E+00;0;  0.0000000E+00;  0.0000000E+00;  0.0000000E+00;0;  0.0000000E+00;  1.0000000E+04;  0.0000000E+00;  0.0000000E+00;  1.0000000E+04;  0.0000000E+00;  1.0000000E+04;  0.0000000E+00;  0.0000000E+00;  0.0000000E+00;  0.0000000E+00;
  1.9800000E+00;  9.9999998E-03; -2.5999999E-01;591;  0.0000000E+00;  0.0000000E+00;  0.0000000E+00;  1.0000000E+03;  4.0000001E-01;  0.0000000E+00;0;  0.0000000E+00;  0.0000000E+00;  0.0000000E+00;0;  0.0000000E+00;  1.0000000E+04;  0.0000000E+00;  0.0000000E+00;  1.0000000E+04;  0.0000000E+00;  1.0000000E+04;  0.0000000E+00;  0.0000000E+00;  0.0000000E+00;  0.0000000E+00;
  1.9800000E+00;  9.9999998E-03; -2.3999999E-01;592;  0.0000000E+00;  0.0000000E+00;  0.0000000E+00;  1.0000000E+03;  4.0000001E-01;  0.0000000E+00;0;  0.0000000E+00;  0.0000000E+00;  0.0000000E+00;0;  0.0000000E+00;  1.0000000E+04;  0.0000000E+00;  0.0000000E+00;  1.0000000E+04;  0.0000000E+00;  1.0000000E+04;  0.0000000E+00;  0.0000000E+00;  0.0000000E+00;  0.0000000E+00;
  1.9800000E+00;  9.9999998E-03; -2.2000000E-01;593;  0.0000000E+00;  0.0000000E+00;  0.0000000E+00;  1.0000000E+03;  4.0000001E-01;  0.0000000E+00;0;  0.0000000E+00;  0.0000000E+00;  0.0000000E+00;0;  0.0000000E+00;  1.0000000E+04;  0.0000000E+00;  0.0000000E+00;  1.0000000E+04;  0.0000000E+00;  1.0000000E+04;  0.0000000E+00;  0.0000000E+00;  0.0000000E+00;  0.0000000E+00;
  1.9800000E+00;  9.9999998E-03; -2.0000000E-01;594;  0.0000000E+00;  0.0000000E+00;  0.0000000E+00;  1.0000000E+03;  4.0000001E-01;  0.0000000E+00;0;  0.0000000E+00;  0.0000000E+00;  0.0000000E+00;0;  0.0000000E+00;  1.0000000E+04;  0.0000000E+00;  0.0000000E+00;  1.0000000E+04;  0.0000000E+00;  1.0000000E+04;  0.0000000E+00;  0.0000000E+00;  0.0000000E+00;  0.0000000E+00;
  1.9800000E+00;  9.9999998E-03; -1.8000001E-01;595;  0.0000000E+00;  0.0000000E+00;  0.0000000E+00;  1.0000000E+03;  4.0000001E-01;  0.0000000E+00;0;  0.0000000E+00;  0.0000000E+00;  0.0000000E+00;0;  0.0000000E+00;  1.0000000E+04;  0.0000000E+00;  0.0000000E+00;  1.0000000E+04;  0.0000000E+00;  1.0000000E+04;  0.0000000E+00;  0.0000000E+00;  0.0000000E+00;  0.0000000E+00;
  1.9800000E+00;  9.9999998E-03; -1.6000000E-01;596;  0.0000000E+00;  0.0000000E+00;  0.0000000E+00;  1.0000000E+03;  4.0000001E-01;  0.0000000E+00;0;  0.0000000E+00;  0.0000000E+00;  0.0000000E+00;0;  0.0000000E+00;  1.0000000E+04;  0.0000000E+00;  0.0000000E+00;  1.0000000E+04;  0.0000000E+00;  1.0000000E+04;  0.0000000E+00;  0.0000000E+00;  0.0000000E+00;  0.0000000E+00;
  1.9800000E+00;  9.9999998E-03; -1.4000000E-01;597;  0.0000000E+00;  0.0000000E+00;  0.0000000E+00;  1.0000000E+03;  4.0000001E-01;  0.0000000E+00;0;  0.0000000E+00;  0.0000000E+00;  0.0000000E+00;0;  0.0000000E+00;  1.0000000E+04;  0.0000000E+00;  0.0000000E+00;  1.0000000E+04;  0.0000000E+00;  1.0000000E+04;  0.0000000E+00;  0.0000000E+00;  0.0000000E+00;  0.0000000E+00;
  1.9800000E+00;  9.9999998E-03; -1.2000000E-01;598;  0.0000000E+00;  0.0000000E+00;  0.0000000E+00;  1.0000000E+03;  4.0000001E-01;  0.0000000E+00;0;  0.0000000E+00;  0.0000000E+00;  0.0000000E+00;0;  0.0000000E+00;  1.0000000E+04;  0.0000000E+00;  0.0000000E+00;  1.0000000E+04;  0.0000000E+00;  1.0000000E+04;  0.0000000E+00;  0.0000000E+00;  0.0000000E+00;  0.0000000E+00;
  1.9800000E+00;  9.9999998E-03; -1.0000000E-01;599;  0.0000000E+00;  0.0000000E+00;  0.0000000E+00;  1.0000000E+03;  4.0000001E-01;  0.0000000E+00;0;  0.0000000E+00;  0.0000000E+00;  0.0000000E+00;0;  0.0000000E+00;  1.0000000E+04;  0.0000000E+00;  0.0000000E+00;  1.0000000E+04;  0.0000000E+00;  1.0000000E+04;  0.0000000E+00;  0.0000000E+00;  0.0000000E+00;  0.0000000E+00;
  1.9800000E+00;  9.9999998E-03; -7.9999998E-02;600;  0.0000000E+00;  0.0000000E+00;  0.0000000E+00;  1.0000000E+03;  4.0000001E-01;  0.0000000E+00;0;  0.0000000E+00;  0.0000000E+00;  0.0000000E+00;0;  0.0000000E+00;  1.0000000E+04;  0.0000000E+00;  0.0000000E+00;  1.0000000E+04;  0.0000000E+00;  1.0000000E+04;  0.0000000E+00;  0.0000000E+00;  0.0000000E+00;  0.0000000E+00;
  1.9800000E+00;  9.9999998E-03; -5.9999999E-02;601;  0.0000000E+00;  0.0000000E+00;  0.0000000E+00;  1.0000000E+03;  4.0000001E-01;  0.0000000E+00;0;  0.0000000E+00;  0.0000000E+00;  0.0000000E+00;0;  0.0000000E+00;  1.0000000E+04;  0.0000000E+00;  0.0000000E+00;  1.0000000E+04;  0.0000000E+00;  1.0000000E+04;  0.0000000E+00;  0.0000000E+00;  0.0000000E+00;  0.0000000E+00;
  1.9800000E+00;  9.9999998E-03; -3.9999999E-02;602;  0.0000000E+00;  0.0000000E+00;  0.0000000E+00;  1.0000000E+03;  4.0000001E-01;  0.0000000E+00;0;  0.0000000E+00;  0.0000000E+00;  0.0000000E+00;0;  0.0000000E+00;  1.0000000E+04;  0.0000000E+00;  0.0000000E+00;  1.0000000E+04;  0.0000000E+00;  1.0000000E+04;  0.0000000E+00;  0.0000000E+00;  0.0000000E+00;  0.0000000E+00;
  1.9800000E+00;  9.9999998E-03; -2.0000000E-02;603;  0.0000000E+00;  0.0000000E+00;  0.0000000E+00;  1.0000000E+03;  4.0000001E-01;  0.0000000E+00;0;  0.0000000E+00;  0.0000000E+00;  0.0000000E+00;0;  0.0000000E+00;  1.0000000E+04;  0.0000000E+00;  0.0000000E+00;  1.0000000E+04;  0.0000000E+00;  1.0000000E+04;  0.0000000E+00;  0.0000000E+00;  0.0000000E+00;  0.0000000E+00;
  2.0000000E+00;  9.9999998E-03; -3.8000000E-01;604;  0.0000000E+00;  0.0000000E+00;  0.0000000E+00;  1.0000000E+03;  4.0000001E-01;  0.0000000E+00;0;  0.0000000E+00;  0.0000000E+00;  0.0000000E+00;0;  0.0000000E+00;  1.0000000E+04;  0.0000000E+00;  0.0000000E+00;  1.0000000E+04;  0.0000000E+00;  1.0000000E+04;  0.0000000E+00;  0.0000000E+00;  0.0000000E+00;  0.0000000E+00;
  2.0000000E+00;  9.9999998E-03; -3.6000001E-01;605;  0.0000000E+00;  0.0000000E+00;  0.0000000E+00;  1.0000000E+03;  4.0000001E-01;  0.0000000E+00;0;  0.0000000E+00;  0.0000000E+00;  0.0000000E+00;0;  0.0000000E+00;  1.0000000E+04;  0.0000000E+00;  0.0000000E+00;  1.0000000E+04;  0.0000000E+00;  1.0000000E+04;  0.0000000E+00;  0.0000000E+00;  0.0000000E+00;  0.0000000E+00;
  2.0000000E+00;  9.9999998E-03; -3.4000000E-01;606;  0.0000000E+00;  0.0000000E+00;  0.0000000E+00;  1.0000000E+03;  4.0000001E-01;  0.0000000E+00;0;  0.0000000E+00;  0.0000000E+00;  0.0000000E+00;0;  0.0000000E+00;  1.0000000E+04;  0.0000000E+00;  0.0000000E+00;  1.0000000E+04;  0.0000000E+00;  1.0000000E+04;  0.0000000E+00;  0.0000000E+00;  0.0000000E+00;  0.0000000E+00;
  2.0000000E+00;  9.9999998E-03; -3.1999999E-01;607;  0.0000000E+00;  0.0000000E+00;  0.0000000E+00;  1.0000000E+03;  4.0000001E-01;  0.0000000E+00;0;  0.0000000E+00;  0.0000000E+00;  0.0000000E+00;0;  0.0000000E+00;  1.0000000E+04;  0.0000000E+00;  0.0000000E+00;  1.0000000E+04;  0.0000000E+00;  1.0000000E+04;  0.0000000E+00;  0.0000000E+00;  0.0000000E+00;  0.0000000E+00;
  2.0000000E+00;  9.9999998E-03; -3.0000001E-01;608;  0.0000000E+00;  0.0000000E+00;  0.0000000E+00;  1.0000000E+03;  4.0000001E-01;  0.0000000E+00;0;  0.0000000E+00;  0.0000000E+00;  0.0000000E+00;0;  0.0000000E+00;  1.0000000E+04;  0.0000000E+00;  0.0000000E+00;  1.0000000E+04;  0.0000000E+00;  1.0000000E+04;  0.0000000E+00;  0.0000000E+00;  0.0000000E+00;  0.0000000E+00;
  2.0000000E+00;  9.9999998E-03; -2.8000000E-01;609;  0.0000000E+00;  0.0000000E+00;  0.0000000E+00;  1.0000000E+03;  4.0000001E-01;  0.0000000E+00;0;  0.0000000E+00;  0.0000000E+00;  0.0000000E+00;0;  0.0000000E+00;  1.0000000E+04;  0.0000000E+00;  0.0000000E+00;  1.0000000E+04;  0.0000000E+00;  1.0000000E+04;  0.0000000E+00;  0.0000000E+00;  0.0000000E+00;  0.0000000E+00;
  2.0000000E+00;  9.9999998E-03; -2.5999999E-01;610;  0.0000000E+00;  0.0000000E+00;  0.0000000E+00;  1.0000000E+03;  4.0000001E-01;  0.0000000E+00;0;  0.0000000E+00;  0.0000000E+00;  0.0000000E+00;0;  0.0000000E+00;  1.0000000E+04;  0.0000000E+00;  0.0000000E+00;  1.0000000E+04;  0.0000000E+00;  1.0000000E+04;  0.0000000E+00;  0.0000000E+00;  0.0000000E+00;  0.0000000E+00;
  2.0000000E+00;  9.9999998E-03; -2.3999999E-01;611;  0.0000000E+00;  0.0000000E+00;  0.0000000E+00;  1.0000000E+03;  4.0000001E-01;  0.0000000E+00;0;  0.0000000E+00;  0.0000000E+00;  0.0000000E+00;0;  0.0000000E+00;  1.0000000E+04;  0.0000000E+00;  0.0000000E+00;  1.0000000E+04;  0.0000000E+00;  1.0000000E+04;  0.0000000E+00;  0.0000000E+00;  0.0000000E+00;  0.0000000E+00;
  2.0000000E+00;  9.9999998E-03; -2.2000000E-01;612;  0.0000000E+00;  0.0000000E+00;  0.0000000E+00;  1.0000000E+03;  4.0000001E-01;  0.0000000E+00;0;  0.0000000E+00;  0.0000000E+00;  0.0000000E+00;0;  0.0000000E+00;  1.0000000E+04;  0.0000000E+00;  0.0000000E+00;  1.0000000E+04;  0.0000000E+00;  1.0000000E+04;  0.0000000E+00;  0.0000000E+00;  0.0000000E+00;  0.0000000E+00;
  2.0000000E+00;  9.9999998E-03; -2.0000000E-01;613;  0.0000000E+00;  0.0000000E+00;  0.0000000E+00;  1.0000000E+03;  4.0000001E-01;  0.0000000E+00;0;  0.0000000E+00;  0.0000000E+00;  0.0000000E+00;0;  0.0000000E+00;  1.0000000E+04;  0.0000000E+00;  0.0000000E+00;  1.0000000E+04;  0.0000000E+00;  1.0000000E+04;  0.0000000E+00;  0.0000000E+00;  0.0000000E+00;  0.0000000E+00;
  2.0000000E+00;  9.9999998E-03; -1.8000001E-01;614;  0.0000000E+00;  0.0000000E+00;  0.0000000E+00;  1.0000000E+03;  4.0000001E-01;  0.0000000E+00;0;  0.0000000E+00;  0.0000000E+00;  0.0000000E+00;0;  0.0000000E+00;  1.0000000E+04;  0.0000000E+00;  0.0000000E+00;  1.0000000E+04;  0.0000000E+00;  1.0000000E+04;  0.0000000E+00;  0.0000000E+00;  0.0000000E+00;  0.0000000E+00;
  2.0000000E+00;  9.9999998E-03; -1.6000000E-01;615;  0.0000000E+00;  0.0000000E+00;  0.0000000E+00;  1.0000000E+03;  4.0000001E-01;  0.0000000E+00;0;  0.0000000E+00;  0.0000000E+00;  0.0000000E+00;0;  0.0000000E+00;  1.0000000E+04;  0.0000000E+00;  0.0000000E+00;  1.0000000E+04;  0.0000000E+00;  1.0000000E+04;  0.0000000E+00;  0.0000000E+00;  0.0000000E+00;  0.0000000E+00;
  2.0000000E+00;  9.9999998E-03; -1.4000000E-01;616;  0.0000000E+00;  0.0000000E+00;  0.0000000E+00;  1.0000000E+03;  4.0000001E-01;  0.0000000E+00;0;  0.0000000E+00;  0.0000000E+00;  0.0000000E+00;0;  0.0000000E+00;  1.0000000E+04;  0.0000000E+00;  0.0000000E+00;  1.0000000E+04;  0.0000000E+00;  1.0000000E+04;  0.0000000E+00;  0.0000000E+00;  0.0000000E+00;  0.0000000E+00;
  2.0000000E+00;  9.9999998E-03; -1.2000000E-01;617;  0.0000000E+00;  0.0000000E+00;  0.0000000E+00;  1.0000000E+03;  4.0000001E-01;  0.0000000E+00;0;  0.0000000E+00;  0.0000000E+00;  0.0000000E+00;0;  0.0000000E+00;  1.0000000E+04;  0.0000000E+00;  0.0000000E+00;  1.0000000E+04;  0.0000000E+00;  1.0000000E+04;  0.0000000E+00;  0.0000000E+00;  0.0000000E+00;  0.0000000E+00;
  2.0000000E+00;  9.9999998E-03; -1.0000000E-01;618;  0.0000000E+00;  0.0000000E+00;  0.0000000E+00;  1.0000000E+03;  4.0000001E-01;  0.0000000E+00;0;  0.0000000E+00;  0.0000000E+00;  0.0000000E+00;0;  0.0000000E+00;  1.0000000E+04;  0.0000000E+00;  0.0000000E+00;  1.0000000E+04;  0.0000000E+00;  1.0000000E+04;  0.0000000E+00;  0.0000000E+00;  0.0000000E+00;  0.0000000E+00;
  2.0000000E+00;  9.9999998E-03; -7.9999998E-02;619;  0.0000000E+00;  0.0000000E+00;  0.0000000E+00;  1.0000000E+03;  4.0000001E-01;  0.0000000E+00;0;  0.0000000E+00;  0.0000000E+00;  0.0000000E+00;0;  0.0000000E+00;  1.0000000E+04;  0.0000000E+00;  0.0000000E+00;  1.0000000E+04;  0.0000000E+00;  1.0000000E+04;  0.0000000E+00;  0.0000000E+00;  0.0000000E+00;  0.0000000E+00;
  2.0000000E+00;  9.9999998E-03; -5.9999999E-02;620;  0.0000000E+00;  0.0000000E+00;  0.0000000E+00;  1.0000000E+03;  4.0000001E-01;  0.0000000E+00;0;  0.0000000E+00;  0.0000000E+00;  0.0000000E+00;0;  0.0000000E+00;  1.0000000E+04;  0.0000000E+00;  0.0000000E+00;  1.0000000E+04;  0.0000000E+00;  1.0000000E+04;  0.0000000E+00;  0.0000000E+00;  0.0000000E+00;  0.0000000E+00;
  2.0000000E+00;  9.9999998E-03; -3.9999999E-02;621;  0.0000000E+00;  0.0000000E+00;  0.0000000E+00;  1.0000000E+03;  4.0000001E-01;  0.0000000E+00;0;  0.0000000E+00;  0.0000000E+00;  0.0000000E+00;0;  0.0000000E+00;  1.0000000E+04;  0.0000000E+00;  0.0000000E+00;  1.0000000E+04;  0.0000000E+00;  1.0000000E+04;  0.0000000E+00;  0.0000000E+00;  0.0000000E+00;  0.0000000E+00;
  2.0000000E+00;  9.9999998E-03; -2.0000000E-02;622;  0.0000000E+00;  0.0000000E+00;  0.0000000E+00;  1.0000000E+03;  4.0000001E-01;  0.0000000E+00;0;  0.0000000E+00;  0.0000000E+00;  0.0000000E+00;0;  0.0000000E+00;  1.0000000E+04;  0.0000000E+00;  0.0000000E+00;  1.0000000E+04;  0.0000000E+00;  1.0000000E+04;  0.0000000E+00;  0.0000000E+00;  0.0000000E+00;  0.0000000E+00;
  2.0000000E+00;  9.9999998E-03;  0.0000000E+00;623;  0.0000000E+00;  0.0000000E+00;  0.0000000E+00;  1.0000000E+03;  4.0000001E-01;  0.0000000E+00;0;  0.0000000E+00;  0.0000000E+00;  0.0000000E+00;0;  0.0000000E+00;  1.0000000E+04;  0.0000000E+00;  0.0000000E+00;  1.0000000E+04;  0.0000000E+00;  1.0000000E+04;  0.0000000E+00;  0.0000000E+00;  0.0000000E+00;  0.0000000E+00;
  2.0000000E+00;  9.9999998E-03;  2.0000000E-02;624;  0.0000000E+00;  0.0000000E+00;  0.0000000E+00;  1.0000000E+03;  4.0000001E-01;  0.0000000E+00;0;  0.0000000E+00;  0.0000000E+00;  0.0000000E+00;0;  0.0000000E+00;  1.0000000E+04;  0.0000000E+00;  0.0000000E+00;  1.0000000E+04;  0.0000000E+00;  1.0000000E+04;  0.0000000E+00;  0.0000000E+00;  0.0000000E+00;  0.0000000E+00;
  2.0000000E+00;  9.9999998E-03;  3.9999999E-02;625;  0.0000000E+00;  0.0000000E+00;  0.0000000E+00;  1.0000000E+03;  4.0000001E-01;  0.0000000E+00;0;  0.0000000E+00;  0.0000000E+00;  0.0000000E+00;0;  0.0000000E+00;  1.0000000E+04;  0.0000000E+00;  0.0000000E+00;  1.0000000E+04;  0.0000000E+00;  1.0000000E+04;  0.0000000E+00;  0.0000000E+00;  0.0000000E+00;  0.0000000E+00;
  2.0000000E+00;  9.9999998E-03;  5.9999999E-02;626;  0.0000000E+00;  0.0000000E+00;  0.0000000E+00;  1.0000000E+03;  4.0000001E-01;  0.0000000E+00;0;  0.0000000E+00;  0.0000000E+00;  0.0000000E+00;0;  0.0000000E+00;  1.0000000E+04;  0.0000000E+00;  0.0000000E+00;  1.0000000E+04;  0.0000000E+00;  1.0000000E+04;  0.0000000E+00;  0.0000000E+00;  0.0000000E+00;  0.0000000E+00;
  2.0000000E+00;  9.9999998E-03;  7.9999998E-02;627;  0.0000000E+00;  0.0000000E+00;  0.0000000E+00;  1.0000000E+03;  4.0000001E-01;  0.0000000E+00;0;  0.0000000E+00;  0.0000000E+00;  0.0000000E+00;0;  0.0000000E+00;  1.0000000E+04;  0.0000000E+00;  0.0000000E+00;  1.0000000E+04;  0.0000000E+00;  1.0000000E+04;  0.0000000E+00;  0.0000000E+00;  0.0000000E+00;  0.0000000E+00;
  2.0200000E+00;  9.9999998E-03; -4.0000001E-01;628;  0.0000000E+00;  0.0000000E+00;  0.0000000E+00;  1.0000000E+03;  4.0000001E-01;  0.0000000E+00;0;  0.0000000E+00;  0.0000000E+00;  0.0000000E+00;0;  0.0000000E+00;  1.0000000E+04;  0.0000000E+00;  0.0000000E+00;  1.0000000E+04;  0.0000000E+00;  1.0000000E+04;  0.0000000E+00;  0.0000000E+00;  0.0000000E+00;  0.0000000E+00;
  2.0200000E+00;  9.9999998E-03; -3.8000000E-01;629;  0.0000000E+00;  0.0000000E+00;  0.0000000E+00;  1.0000000E+03;  4.0000001E-01;  0.0000000E+00;0;  0.0000000E+00;  0.0000000E+00;  0.0000000E+00;0;  0.0000000E+00;  1.0000000E+04;  0.0000000E+00;  0.0000000E+00;  1.0000000E+04;  0.0000000E+00;  1.0000000E+04;  0.0000000E+00;  0.0000000E+00;  0.0000000E+00;  0.0000000E+00;
  2.0200000E+00;  9.9999998E-03; -3.6000001E-01;630;  0.0000000E+00;  0.0000000E+00;  0.0000000E+00;  1.0000000E+03;  4.0000001E-01;  0.0000000E+00;0;  0.0000000E+00;  0.0000000E+00;  0.0000000E+00;0;  0.0000000E+00;  1.0000000E+04;  0.0000000E+00;  0.0000000E+00;  1.0000000E+04;  0.0000000E+00;  1.0000000E+04;  0.0000000E+00;  0.0000000E+00;  0.0000000E+00;  0.0000000E+00;
  2.0200000E+00;  9.9999998E-03; -3.4000000E-01;631;  0.0000000E+00;  0.0000000E+00;  0.0000000E+00;  1.0000000E+03;  4.0000001E-01;  0.0000000E+00;0;  0.0000000E+00;  0.0000000E+00;  0.0000000E+00;0;  0.0000000E+00;  1.0000000E+04;  0.0000000E+00;  0.0000000E+00;  1.0000000E+04;  0.0000000E+00;  1.0000000E+04;  0.0000000E+00;  0.0000000E+00;  0.0000000E+00;  0.0000000E+00;
  2.0200000E+00;  9.9999998E-03; -3.1999999E-01;632;  0.0000000E+00;  0.0000000E+00;  0.0000000E+00;  1.0000000E+03;  4.0000001E-01;  0.0000000E+00;0;  0.0000000E+00;  0.0000000E+00;  0.0000000E+00;0;  0.0000000E+00;  1.0000000E+04;  0.0000000E+00;  0.0000000E+00;  1.0000000E+04;  0.0000000E+00;  1.0000000E+04;  0.0000000E+00;  0.0000000E+00;  0.0000000E+00;  0.0000000E+00;
  2.0200000E+00;  9.9999998E-03; -3.0000001E-01;633;  0.0000000E+00;  0.0000000E+00;  0.0000000E+00;  1.0000000E+03;  4.0000001E-01;  0.0000000E+00;0;  0.0000000E+00;  0.0000000E+00;  0.0000000E+00;0;  0.0000000E+00;  1.0000000E+04;  0.0000000E+00;  0.0000000E+00;  1.0000000E+04;  0.0000000E+00;  1.0000000E+04;  0.0000000E+00;  0.0000000E+00;  0.0000000E+00;  0.0000000E+00;
  2.0200000E+00;  9.9999998E-03; -2.8000000E-01;634;  0.0000000E+00;  0.0000000E+00;  0.0000000E+00;  1.0000000E+03;  4.0000001E-01;  0.0000000E+00;0;  0.0000000E+00;  0.0000000E+00;  0.0000000E+00;0;  0.0000000E+00;  1.0000000E+04;  0.0000000E+00;  0.0000000E+00;  1.0000000E+04;  0.0000000E+00;  1.0000000E+04;  0.0000000E+00;  0.0000000E+00;  0.0000000E+00;  0.0000000E+00;
  2.0200000E+00;  9.9999998E-03; -2.5999999E-01;635;  0.0000000E+00;  0.0000000E+00;  0.0000000E+00;  1.0000000E+03;  4.0000001E-01;  0.0000000E+00;0;  0.0000000E+00;  0.0000000E+00;  0.0000000E+00;0;  0.0000000E+00;  1.0000000E+04;  0.0000000E+00;  0.0000000E+00;  1.0000000E+04;  0.0000000E+00;  1.0000000E+04;  0.0000000E+00;  0.0000000E+00;  0.0000000E+00;  0.0000000E+00;
  2.0200000E+00;  9.9999998E-03; -2.3999999E-01;636;  0.0000000E+00;  0.0000000E+00;  0.0000000E+00;  1.0000000E+03;  4.0000001E-01;  0.0000000E+00;0;  0.0000000E+00;  0.0000000E+00;  0.0000000E+00;0;  0.0000000E+00;  1.0000000E+04;  0.0000000E+00;  0.0000000E+00;  1.0000000E+04;  0.0000000E+00;  1.0000000E+04;  0.0000000E+00;  0.0000000E+00;  0.0000000E+00;  0.0000000E+00;
  2.0200000E+00;  9.9999998E-03; -2.2000000E-01;637;  0.0000000E+00;  0.0000000E+00;  0.0000000E+00;  1.0000000E+03;  4.0000001E-01;  0.0000000E+00;0;  0.0000000E+00;  0.0000000E+00;  0.0000000E+00;0;  0.0000000E+00;  1.0000000E+04;  0.0000000E+00;  0.0000000E+00;  1.0000000E+04;  0.0000000E+00;  1.0000000E+04;  0.0000000E+00;  0.0000000E+00;  0.0000000E+00;  0.0000000E+00;
  2.0200000E+00;  9.9999998E-03; -2.0000000E-01;638;  0.0000000E+00;  0.0000000E+00;  0.0000000E+00;  1.0000000E+03;  4.0000001E-01;  0.0000000E+00;0;  0.0000000E+00;  0.0000000E+00;  0.0000000E+00;0;  0.0000000E+00;  1.0000000E+04;  0.0000000E+00;  0.0000000E+00;  1.0000000E+04;  0.0000000E+00;  1.0000000E+04;  0.0000000E+00;  0.0000000E+00;  0.0000000E+00;  0.0000000E+00;
  2.0200000E+00;  9.9999998E-03; -1.8000001E-01;639;  0.0000000E+00;  0.0000000E+00;  0.0000000E+00;  1.0000000E+03;  4.0000001E-01;  0.0000000E+00;0;  0.0000000E+00;  0.0000000E+00;  0.0000000E+00;0;  0.0000000E+00;  1.0000000E+04;  0.0000000E+00;  0.0000000E+00;  1.0000000E+04;  0.0000000E+00;  1.0000000E+04;  0.0000000E+00;  0.0000000E+00;  0.0000000E+00;  0.0000000E+00;
  2.0200000E+00;  9.9999998E-03; -1.6000000E-01;640;  0.0000000E+00;  0.0000000E+00;  0.0000000E+00;  1.0000000E+03;  4.0000001E-01;  0.0000000E+00;0;  0.0000000E+00;  0.0000000E+00;  0.0000000E+00;0;  0.0000000E+00;  1.0000000E+04;  0.0000000E+00;  0.0000000E+00;  1.0000000E+04;  0.0000000E+00;  1.0000000E+04;  0.0000000E+00;  0.0000000E+00;  0.0000000E+00;  0.0000000E+00;
  2.0200000E+00;  9.9999998E-03; -1.4000000E-01;641;  0.0000000E+00;  0.0000000E+00;  0.0000000E+00;  1.0000000E+03;  4.0000001E-01;  0.0000000E+00;0;  0.0000000E+00;  0.0000000E+00;  0.0000000E+00;0;  0.0000000E+00;  1.0000000E+04;  0.0000000E+00;  0.0000000E+00;  1.0000000E+04;  0.0000000E+00;  1.0000000E+04;  0.0000000E+00;  0.0000000E+00;  0.0000000E+00;  0.0000000E+00;
  2.0200000E+00;  9.9999998E-03; -1.2000000E-01;642;  0.0000000E+00;  0.0000000E+00;  0.0000000E+00;  1.0000000E+03;  4.0000001E-01;  0.0000000E+00;0;  0.0000000E+00;  0.0000000E+00;  0.0000000E+00;0;  0.0000000E+00;  1.0000000E+04;  0.0000000E+00;  0.0000000E+00;  1.0000000E+04;  0.0000000E+00;  1.0000000E+04;  0.0000000E+00;  0.0000000E+00;  0.0000000E+00;  0.0000000E+00;
  2.0200000E+00;  9.9999998E-03; -1.0000000E-01;643;  0.0000000E+00;  0.0000000E+00;  0.0000000E+00;  1.0000000E+03;  4.0000001E-01;  0.0000000E+00;0;  0.0000000E+00;  0.0000000E+00;  0.0000000E+00;0;  0.0000000E+00;  1.0000000E+04;  0.0000000E+00;  0.0000000E+00;  1.0000000E+04;  0.0000000E+00;  1.0000000E+04;  0.0000000E+00;  0.0000000E+00;  0.0000000E+00;  0.0000000E+00;
  2.0200000E+00;  9.9999998E-03; -7.9999998E-02;644;  0.0000000E+00;  0.0000000E+00;  0.0000000E+00;  1.0000000E+03;  4.0000001E-01;  0.0000000E+00;0;  0.0000000E+00;  0.0000000E+00;  0.0000000E+00;0;  0.0000000E+00;  1.0000000E+04;  0.0000000E+00;  0.0000000E+00;  1.0000000E+04;  0.0000000E+00;  1.0000000E+04;  0.0000000E+00;  0.0000000E+00;  0.0000000E+00;  0.0000000E+00;
  2.0200000E+00;  9.9999998E-03; -5.9999999E-02;645;  0.0000000E+00;  0.0000000E+00;  0.0000000E+00;  1.0000000E+03;  4.0000001E-01;  0.0000000E+00;0;  0.0000000E+00;  0.0000000E+00;  0.0000000E+00;0;  0.0000000E+00;  1.0000000E+04;  0.0000000E+00;  0.0000000E+00;  1.0000000E+04;  0.0000000E+00;  1.0000000E+04;  0.0000000E+00;  0.0000000E+00;  0.0000000E+00;  0.0000000E+00;
  2.0200000E+00;  9.9999998E-03; -3.9999999E-02;646;  0.0000000E+00;  0.0000000E+00;  0.0000000E+00;  1.0000000E+03;  4.0000001E-01;  0.0000000E+00;0;  0.0000000E+00;  0.0000000E+00;  0.0000000E+00;0;  0.0000000E+00;  1.0000000E+04;  0.0000000E+00;  0.0000000E+00;  1.0000000E+04;  0.0000000E+00;  1.0000000E+04;  0.0000000E+00;  0.0000000E+00;  0.0000000E+00;  0.0000000E+00;
  2.0200000E+00;  9.9999998E-03; -2.0000000E-02;647;  0.0000000E+00;  0.0000000E+00;  0.0000000E+00;  1.0000000E+03;  4.0000001E-01;  0.0000000E+00;0;  0.0000000E+00;  0.0000000E+00;  0.0000000E+00;0;  0.0000000E+00;  1.0000000E+04;  0.0000000E+00;  0.0000000E+00;  1.0000000E+04;  0.0000000E+00;  1.0000000E+04;  0.0000000E+00;  0.0000000E+00;  0.0000000E+00;  0.0000000E+00;
  2.0200000E+00;  9.9999998E-03;  0.0000000E+00;648;  0.0000000E+00;  0.0000000E+00;  0.0000000E+00;  1.0000000E+03;  4.0000001E-01;  0.0000000E+00;0;  0.0000000E+00;  0.0000000E+00;  0.0000000E+00;0;  0.0000000E+00;  1.0000000E+04;  0.0000000E+00;  0.0000000E+00;  1.0000000E+04;  0.0000000E+00;  1.0000000E+04;  0.0000000E+00;  0.0000000E+00;  0.0000000E+00;  0.0000000E+00;
  2.0200000E+00;  9.9999998E-03;  2.0000000E-02;649;  0.0000000E+00;  0.0000000E+00;  0.0000000E+00;  1.0000000E+03;  4.0000001E-01;  0.0000000E+00;0;  0.0000000E+00;  0.0000000E+00;  0.0000000E+00;0;  0.0000000E+00;  1.0000000E+04;  0.0000000E+00;  0.0000000E+00;  1.0000000E+04;  0.0000000E+00;  1.0000000E+04;  0.0000000E+00;  0.0000000E+00;  0.0000000E+00;  0.0000000E+00;
  2.0200000E+00;  9.9999998E-03;  3.9999999E-02;650;  0.0000000E+00;  0.0000000E+00;  0.0000000E+00;  1.0000000E+03;  4.0000001E-01;  0.0000000E+00;0;  0.0000000E+00;  0.0000000E+00;  0.0000000E+00;0;  0.0000000E+00;  1.0000000E+04;  0.0000000E+00;  0.0000000E+00;  1.0000000E+04;  0.0000000E+00;  1.0000000E+04;  0.0000000E+00;  0.0000000E+00;  0.0000000E+00;  0.0000000E+00;
  2.0200000E+00;  9.9999998E-03;  5.9999999E-02;651;  0.0000000E+00;  0.0000000E+00;  0.0000000E+00;  1.0000000E+03;  4.0000001E-01;  0.0000000E+00;0;  0.0000000E+00;  0.0000000E+00;  0.0000000E+00;0;  0.0000000E+00;  1.0000000E+04;  0.0000000E+00;  0.0000000E+00;  1.0000000E+04;  0.0000000E+00;  1.0000000E+04;  0.0000000E+00;  0.0000000E+00;  0.0000000E+00;  0.0000000E+00;
  2.0200000E+00;  9.9999998E-03;  7.9999998E-02;652;  0.0000000E+00;  0.0000000E+00;  0.0000000E+00;  1.0000000E+03;  4.0000001E-01;  0.0000000E+00;0;  0.0000000E+00;  0.0000000E+00;  0.0000000E+00;0;  0.0000000E+00;  1.0000000E+04;  0.0000000E+00;  0.0000000E+00;  1.0000000E+04;  0.0000000E+00;  1.0000000E+04;  0.0000000E+00;  0.0000000E+00;  0.0000000E+00;  0.0000000E+00;
  2.0200000E+00;  9.9999998E-03;  1.0000000E-01;653;  0.0000000E+00;  0.0000000E+00;  0.0000000E+00;  1.0000000E+03;  4.0000001E-01;  0.0000000E+00;0;  0.0000000E+00;  0.0000000E+00;  0.0000000E+00;0;  0.0000000E+00;  1.0000000E+04;  0.0000000E+00;  0.0000000E+00;  1.0000000E+04;  0.0000000E+00;  1.0000000E+04;  0.0000000E+00;  0.0000000E+00;  0.0000000E+00;  0.0000000E+00;
  2.0200000E+00;  9.9999998E-03;  1.2000000E-01;654;  0.0000000E+00;  0.0000000E+00;  0.0000000E+00;  1.0000000E+03;  4.0000001E-01;  0.0000000E+00;0;  0.0000000E+00;  0.0000000E+00;  0.0000000E+00;0;  0.0000000E+00;  1.0000000E+04;  0.0000000E+00;  0.0000000E+00;  1.0000000E+04;  0.0000000E+00;  1.0000000E+04;  0.0000000E+00;  0.0000000E+00;  0.0000000E+00;  0.0000000E+00;
  2.0200000E+00;  9.9999998E-03;  1.4000000E-01;655;  0.0000000E+00;  0.0000000E+00;  0.0000000E+00;  1.0000000E+03;  4.0000001E-01;  0.0000000E+00;0;  0.0000000E+00;  0.0000000E+00;  0.0000000E+00;0;  0.0000000E+00;  1.0000000E+04;  0.0000000E+00;  0.0000000E+00;  1.0000000E+04;  0.0000000E+00;  1.0000000E+04;  0.0000000E+00;  0.0000000E+00;  0.0000000E+00;  0.0000000E+00;
  2.0200000E+00;  9.9999998E-03;  1.6000000E-01;656;  0.0000000E+00;  0.0000000E+00;  0.0000000E+00;  1.0000000E+03;  4.0000001E-01;  0.0000000E+00;0;  0.0000000E+00;  0.0000000E+00;  0.0000000E+00;0;  0.0000000E+00;  1.0000000E+04;  0.0000000E+00;  0.0000000E+00;  1.0000000E+04;  0.0000000E+00;  1.0000000E+04;  0.0000000E+00;  0.0000000E+00;  0.0000000E+00;  0.0000000E+00;
  2.0200000E+00;  9.9999998E-03;  1.8000001E-01;657;  0.0000000E+00;  0.0000000E+00;  0.0000000E+00;  1.0000000E+03;  4.0000001E-01;  0.0000000E+00;0;  0.0000000E+00;  0.0000000E+00;  0.0000000E+00;0;  0.0000000E+00;  1.0000000E+04;  0.0000000E+00;  0.0000000E+00;  1.0000000E+04;  0.0000000E+00;  1.0000000E+04;  0.0000000E+00;  0.0000000E+00;  0.0000000E+00;  0.0000000E+00;
  2.0400000E+00;  9.9999998E-03; -4.0000001E-01;658;  0.0000000E+00;  0.0000000E+00;  0.0000000E+00;  1.0000000E+03;  4.0000001E-01;  0.0000000E+00;0;  0.0000000E+00;  0.0000000E+00;  0.0000000E+00;0;  0.0000000E+00;  1.0000000E+04;  0.0000000E+00;  0.0000000E+00;  1.0000000E+04;  0.0000000E+00;  1.0000000E+04;  0.0000000E+00;  0.0000000E+00;  0.0000000E+00;  0.0000000E+00;
  2.0400000E+00;  9.9999998E-03; -3.8000000E-01;659;  0.0000000E+00;  0.0000000E+00;  0.0000000E+00;  1.0000000E+03;  4.0000001E-01;  0.0000000E+00;0;  0.0000000E+00;  0.0000000E+00;  0.0000000E+00;0;  0.0000000E+00;  1.0000000E+04;  0.0000000E+00;  0.0000000E+00;  1.0000000E+04;  0.0000000E+00;  1.0000000E+04;  0.0000000E+00;  0.0000000E+00;  0.0000000E+00;  0.0000000E+00;
  2.0400000E+00;  9.9999998E-03; -3.6000001E-01;660;  0.0000000E+00;  0.0000000E+00;  0.0000000E+00;  1.0000000E+03;  4.0000001E-01;  0.0000000E+00;0;  0.0000000E+00;  0.0000000E+00;  0.0000000E+00;0;  0.0000000E+00;  1.0000000E+04;  0.0000000E+00;  0.0000000E+00;  1.0000000E+04;  0.0000000E+00;  1.0000000E+04;  0.0000000E+00;  0.0000000E+00;  0.0000000E+00;  0.0000000E+00;
  2.0400000E+00;  9.9999998E-03; -3.4000000E-01;661;  0.0000000E+00;  0.0000000E+00;  0.0000000E+00;  1.0000000E+03;  4.0000001E-01;  0.0000000E+00;0;  0.0000000E+00;  0.0000000E+00;  0.0000000E+00;0;  0.0000000E+00;  1.0000000E+04;  0.0000000E+00;  0.0000000E+00;  1.0000000E+04;  0.0000000E+00;  1.0000000E+04;  0.0000000E+00;  0.0000000E+00;  0.0000000E+00;  0.0000000E+00;
  2.0400000E+00;  9.9999998E-03; -3.1999999E-01;662;  0.0000000E+00;  0.0000000E+00;  0.0000000E+00;  1.0000000E+03;  4.0000001E-01;  0.0000000E+00;0;  0.0000000E+00;  0.0000000E+00;  0.0000000E+00;0;  0.0000000E+00;  1.0000000E+04;  0.0000000E+00;  0.0000000E+00;  1.0000000E+04;  0.0000000E+00;  1.0000000E+04;  0.0000000E+00;  0.0000000E+00;  0.0000000E+00;  0.0000000E+00;
  2.0400000E+00;  9.9999998E-03; -3.0000001E-01;663;  0.0000000E+00;  0.0000000E+00;  0.0000000E+00;  1.0000000E+03;  4.0000001E-01;  0.0000000E+00;0;  0.0000000E+00;  0.0000000E+00;  0.0000000E+00;0;  0.0000000E+00;  1.0000000E+04;  0.0000000E+00;  0.0000000E+00;  1.0000000E+04;  0.0000000E+00;  1.0000000E+04;  0.0000000E+00;  0.0000000E+00;  0.0000000E+00;  0.0000000E+00;
  2.0400000E+00;  9.9999998E-03; -2.8000000E-01;664;  0.0000000E+00;  0.0000000E+00;  0.0000000E+00;  1.0000000E+03;  4.0000001E-01;  0.0000000E+00;0;  0.0000000E+00;  0.0000000E+00;  0.0000000E+00;0;  0.0000000E+00;  1.0000000E+04;  0.0000000E+00;  0.0000000E+00;  1.0000000E+04;  0.0000000E+00;  1.0000000E+04;  0.0000000E+00;  0.0000000E+00;  0.0000000E+00;  0.0000000E+00;
  2.0400000E+00;  9.9999998E-03; -2.5999999E-01;665;  0.0000000E+00;  0.0000000E+00;  0.0000000E+00;  1.0000000E+03;  4.0000001E-01;  0.0000000E+00;0;  0.0000000E+00;  0.0000000E+00;  0.0000000E+00;0;  0.0000000E+00;  1.0000000E+04;  0.0000000E+00;  0.0000000E+00;  1.0000000E+04;  0.0000000E+00;  1.0000000E+04;  0.0000000E+00;  0.0000000E+00;  0.0000000E+00;  0.0000000E+00;
  2.0400000E+00;  9.9999998E-03; -2.3999999E-01;666;  0.0000000E+00;  0.0000000E+00;  0.0000000E+00;  1.0000000E+03;  4.0000001E-01;  0.0000000E+00;0;  0.0000000E+00;  0.0000000E+00;  0.0000000E+00;0;  0.0000000E+00;  1.0000000E+04;  0.0000000E+00;  0.0000000E+00;  1.0000000E+04;  0.0000000E+00;  1.0000000E+04;  0.0000000E+00;  0.0000000E+00;  0.0000000E+00;  0.0000000E+00;
  2.0400000E+00;  9.9999998E-03; -2.2000000E-01;667;  0.0000000E+00;  0.0000000E+00;  0.0000000E+00;  1.0000000E+03;  4.0000001E-01;  0.0000000E+00;0;  0.0000000E+00;  0.0000000E+00;  0.0000000E+00;0;  0.0000000E+00;  1.0000000E+04;  0.0000000E+00;  0.0000000E+00;  1.0000000E+04;  0.0000000E+00;  1.0000000E+04;  0.0000000E+00;  0.0000000E+00;  0.0000000E+00;  0.0000000E+00;
  2.0400000E+00;  9.9999998E-03; -2.0000000E-01;668;  0.0000000E+00;  0.0000000E+00;  0.0000000E+00;  1.0000000E+03;  4.0000001E-01;  0.0000000E+00;0;  0.0000000E+00;  0.0000000E+00;  0.0000000E+00;0;  0.0000000E+00;  1.0000000E+04;  0.0000000E+00;  0.0000000E+00;  1.0000000E+04;  0.0000000E+00;  1.0000000E+04;  0.0000000E+00;  0.0000000E+00;  0.0000000E+00;  0.0000000E+00;
  2.0400000E+00;  9.9999998E-03; -1.8000001E-01;669;  0.0000000E+00;  0.0000000E+00;  0.0000000E+00;  1.0000000E+03;  4.0000001E-01;  0.0000000E+00;0;  0.0000000E+00;  0.0000000E+00;  0.0000000E+00;0;  0.0000000E+00;  1.0000000E+04;  0.0000000E+00;  0.0000000E+00;  1.0000000E+04;  0.0000000E+00;  1.0000000E+04;  0.0000000E+00;  0.0000000E+00;  0.0000000E+00;  0.0000000E+00;
  2.0400000E+00;  9.9999998E-03; -1.6000000E-01;670;  0.0000000E+00;  0.0000000E+00;  0.0000000E+00;  1.0000000E+03;  4.0000001E-01;  0.0000000E+00;0;  0.0000000E+00;  0.0000000E+00;  0.0000000E+00;0;  0.0000000E+00;  1.0000000E+04;  0.0000000E+00;  0.0000000E+00;  1.0000000E+04;  0.0000000E+00;  1.0000000E+04;  0.0000000E+00;  0.0000000E+00;  0.0000000E+00;  0.0000000E+00;
  2.0400000E+00;  9.9999998E-03; -1.4000000E-01;671;  0.0000000E+00;  0.0000000E+00;  0.0000000E+00;  1.0000000E+03;  4.0000001E-01;  0.0000000E+00;0;  0.0000000E+00;  0.0000000E+00;  0.0000000E+00;0;  0.0000000E+00;  1.0000000E+04;  0.0000000E+00;  0.0000000E+00;  1.0000000E+04;  0.0000000E+00;  1.0000000E+04;  0.0000000E+00;  0.0000000E+00;  0.0000000E+00;  0.0000000E+00;
  2.0400000E+00;  9.9999998E-03; -1.2000000E-01;672;  0.0000000E+00;  0.0000000E+00;  0.0000000E+00;  1.0000000E+03;  4.0000001E-01;  0.0000000E+00;0;  0.0000000E+00;  0.0000000E+00;  0.0000000E+00;0;  0.0000000E+00;  1.0000000E+04;  0.0000000E+00;  0.0000000E+00;  1.0000000E+04;  0.0000000E+00;  1.0000000E+04;  0.0000000E+00;  0.0000000E+00;  0.0000000E+00;  0.0000000E+00;
  2.0400000E+00;  9.9999998E-03; -1.0000000E-01;673;  0.0000000E+00;  0.0000000E+00;  0.0000000E+00;  1.0000000E+03;  4.0000001E-01;  0.0000000E+00;0;  0.0000000E+00;  0.0000000E+00;  0.0000000E+00;0;  0.0000000E+00;  1.0000000E+04;  0.0000000E+00;  0.0000000E+00;  1.0000000E+04;  0.0000000E+00;  1.0000000E+04;  0.0000000E+00;  0.0000000E+00;  0.0000000E+00;  0.0000000E+00;
  2.0400000E+00;  9.9999998E-03; -7.9999998E-02;674;  0.0000000E+00;  0.0000000E+00;  0.0000000E+00;  1.0000000E+03;  4.0000001E-01;  0.0000000E+00;0;  0.0000000E+00;  0.0000000E+00;  0.0000000E+00;0;  0.0000000E+00;  1.0000000E+04;  0.0000000E+00;  0.0000000E+00;  1.0000000E+04;  0.0000000E+00;  1.0000000E+04;  0.0000000E+00;  0.0000000E+00;  0.0000000E+00;  0.0000000E+00;
  2.0400000E+00;  9.9999998E-03; -5.9999999E-02;675;  0.0000000E+00;  0.0000000E+00;  0.0000000E+00;  1.0000000E+03;  4.0000001E-01;  0.0000000E+00;0;  0.0000000E+00;  0.0000000E+00;  0.0000000E+00;0;  0.0000000E+00;  1.0000000E+04;  0.0000000E+00;  0.0000000E+00;  1.0000000E+04;  0.0000000E+00;  1.0000000E+04;  0.0000000E+00;  0.0000000E+00;  0.0000000E+00;  0.0000000E+00;
  2.0400000E+00;  9.9999998E-03; -3.9999999E-02;676;  0.0000000E+00;  0.0000000E+00;  0.0000000E+00;  1.0000000E+03;  4.0000001E-01;  0.0000000E+00;0;  0.0000000E+00;  0.0000000E+00;  0.0000000E+00;0;  0.0000000E+00;  1.0000000E+04;  0.0000000E+00;  0.0000000E+00;  1.0000000E+04;  0.0000000E+00;  1.0000000E+04;  0.0000000E+00;  0.0000000E+00;  0.0000000E+00;  0.0000000E+00;
  2.0400000E+00;  9.9999998E-03; -2.0000000E-02;677;  0.0000000E+00;  0.0000000E+00;  0.0000000E+00;  1.0000000E+03;  4.0000001E-01;  0.0000000E+00;0;  0.0000000E+00;  0.0000000E+00;  0.0000000E+00;0;  0.0000000E+00;  1.0000000E+04;  0.0000000E+00;  0.0000000E+00;  1.0000000E+04;  0.0000000E+00;  1.0000000E+04;  0.0000000E+00;  0.0000000E+00;  0.0000000E+00;  0.0000000E+00;
  2.0400000E+00;  9.9999998E-03;  0.0000000E+00;678;  0.0000000E+00;  0.0000000E+00;  0.0000000E+00;  1.0000000E+03;  4.0000001E-01;  0.0000000E+00;0;  0.0000000E+00;  0.0000000E+00;  0.0000000E+00;0;  0.0000000E+00;  1.0000000E+04;  0.0000000E+00;  0.0000000E+00;  1.0000000E+04;  0.0000000E+00;  1.0000000E+04;  0.0000000E+00;  0.0000000E+00;  0.0000000E+00;  0.0000000E+00;
  2.0400000E+00;  9.9999998E-03;  2.0000000E-02;679;  0.0000000E+00;  0.0000000E+00;  0.0000000E+00;  1.0000000E+03;  4.0000001E-01;  0.0000000E+00;0;  0.0000000E+00;  0.0000000E+00;  0.0000000E+00;0;  0.0000000E+00;  1.0000000E+04;  0.0000000E+00;  0.0000000E+00;  1.0000000E+04;  0.0000000E+00;  1.0000000E+04;  0.0000000E+00;  0.0000000E+00;  0.0000000E+00;  0.0000000E+00;
  2.0400000E+00;  9.9999998E-03;  3.9999999E-02;680;  0.0000000E+00;  0.0000000E+00;  0.0000000E+00;  1.0000000E+03;  4.0000001E-01;  0.0000000E+00;0;  0.0000000E+00;  0.0000000E+00;  0.0000000E+00;0;  0.0000000E+00;  1.0000000E+04;  0.0000000E+00;  0.0000000E+00;  1.0000000E+04;  0.0000000E+00;  1.0000000E+04;  0.0000000E+00;  0.0000000E+00;  0.0000000E+00;  0.0000000E+00;
  2.0400000E+00;  9.9999998E-03;  5.9999999E-02;681;  0.0000000E+00;  0.0000000E+00;  0.0000000E+00;  1.0000000E+03;  4.0000001E-01;  0.0000000E+00;0;  0.0000000E+00;  0.0000000E+00;  0.0000000E+00;0;  0.0000000E+00;  1.0000000E+04;  0.0000000E+00;  0.0000000E+00;  1.0000000E+04;  0.0000000E+00;  1.0000000E+04;  0.0000000E+00;  0.0000000E+00;  0.0000000E+00;  0.0000000E+00;
  2.0400000E+00;  9.9999998E-03;  7.9999998E-02;682;  0.0000000E+00;  0.0000000E+00;  0.0000000E+00;  1.0000000E+03;  4.0000001E-01;  0.0000000E+00;0;  0.0000000E+00;  0.0000000E+00;  0.0000000E+00;0;  0.0000000E+00;  1.0000000E+04;  0.0000000E+00;  0.0000000E+00;  1.0000000E+04;  0.0000000E+00;  1.0000000E+04;  0.0000000E+00;  0.0000000E+00;  0.0000000E+00;  0.0000000E+00;
  2.0400000E+00;  9.9999998E-03;  1.0000000E-01;683;  0.0000000E+00;  0.0000000E+00;  0.0000000E+00;  1.0000000E+03;  4.0000001E-01;  0.0000000E+00;0;  0.0000000E+00;  0.0000000E+00;  0.0000000E+00;0;  0.0000000E+00;  1.0000000E+04;  0.0000000E+00;  0.0000000E+00;  1.0000000E+04;  0.0000000E+00;  1.0000000E+04;  0.0000000E+00;  0.0000000E+00;  0.0000000E+00;  0.0000000E+00;
  2.0400000E+00;  9.9999998E-03;  1.2000000E-01;684;  0.0000000E+00;  0.0000000E+00;  0.0000000E+00;  1.0000000E+03;  4.0000001E-01;  0.0000000E+00;0;  0.0000000E+00;  0.0000000E+00;  0.0000000E+00;0;  0.0000000E+00;  1.0000000E+04;  0.0000000E+00;  0.0000000E+00;  1.0000000E+04;  0.0000000E+00;  1.0000000E+04;  0.0000000E+00;  0.0000000E+00;  0.0000000E+00;  0.0000000E+00;
  2.0400000E+00;  9.9999998E-03;  1.4000000E-01;685;  0.0000000E+00;  0.0000000E+00;  0.0000000E+00;  1.0000000E+03;  4.0000001E-01;  0.0000000E+00;0;  0.0000000E+00;  0.0000000E+00;  0.0000000E+00;0;  0.0000000E+00;  1.0000000E+04;  0.0000000E+00;  0.0000000E+00;  1.0000000E+04;  0.0000000E+00;  1.0000000E+04;  0.0000000E+00;  0.0000000E+00;  0.0000000E+00;  0.0000000E+00;
  2.0400000E+00;  9.9999998E-03;  1.6000000E-01;686;  0.0000000E+00;  0.0000000E+00;  0.0000000E+00;  1.0000000E+03;  4.0000001E-01;  0.0000000E+00;0;  0.0000000E+00;  0.0000000E+00;  0.0000000E+00;0;  0.0000000E+00;  1.0000000E+04;  0.0000000E+00;  0.0000000E+00;  1.0000000E+04;  0.0000000E+00;  1.0000000E+04;  0.0000000E+00;  0.0000000E+00;  0.0000000E+00;  0.0000000E+00;
  2.0400000E+00;  9.9999998E-03;  1.8000001E-01;687;  0.0000000E+00;  0.0000000E+00;  0.0000000E+00;  1.0000000E+03;  4.0000001E-01;  0.0000000E+00;0;  0.0000000E+00;  0.0000000E+00;  0.0000000E+00;0;  0.0000000E+00;  1.0000000E+04;  0.0000000E+00;  0.0000000E+00;  1.0000000E+04;  0.0000000E+00;  1.0000000E+04;  0.0000000E+00;  0.0000000E+00;  0.0000000E+00;  0.0000000E+00;
  2.0400000E+00;  9.9999998E-03;  2.0000000E-01;688;  0.0000000E+00;  0.0000000E+00;  0.0000000E+00;  1.0000000E+03;  4.0000001E-01;  0.0000000E+00;0;  0.0000000E+00;  0.0000000E+00;  0.0000000E+00;0;  0.0000000E+00;  1.0000000E+04;  0.0000000E+00;  0.0000000E+00;  1.0000000E+04;  0.0000000E+00;  1.0000000E+04;  0.0000000E+00;  0.0000000E+00;  0.0000000E+00;  0.0000000E+00;
  2.0400000E+00;  9.9999998E-03;  2.2000000E-01;689;  0.0000000E+00;  0.0000000E+00;  0.0000000E+00;  1.0000000E+03;  4.0000001E-01;  0.0000000E+00;0;  0.0000000E+00;  0.0000000E+00;  0.0000000E+00;0;  0.0000000E+00;  1.0000000E+04;  0.0000000E+00;  0.0000000E+00;  1.0000000E+04;  0.0000000E+00;  1.0000000E+04;  0.0000000E+00;  0.0000000E+00;  0.0000000E+00;  0.0000000E+00;
  2.0400000E+00;  9.9999998E-03;  2.3999999E-01;690;  0.0000000E+00;  0.0000000E+00;  0.0000000E+00;  1.0000000E+03;  4.0000001E-01;  0.0000000E+00;0;  0.0000000E+00;  0.0000000E+00;  0.0000000E+00;0;  0.0000000E+00;  1.0000000E+04;  0.0000000E+00;  0.0000000E+00;  1.0000000E+04;  0.0000000E+00;  1.0000000E+04;  0.0000000E+00;  0.0000000E+00;  0.0000000E+00;  0.0000000E+00;
  2.0400000E+00;  9.9999998E-03;  2.5999999E-01;691;  0.0000000E+00;  0.0000000E+00;  0.0000000E+00;  1.0000000E+03;  4.0000001E-01;  0.0000000E+00;0;  0.0000000E+00;  0.0000000E+00;  0.0000000E+00;0;  0.0000000E+00;  1.0000000E+04;  0.0000000E+00;  0.0000000E+00;  1.0000000E+04;  0.0000000E+00;  1.0000000E+04;  0.0000000E+00;  0.0000000E+00;  0.0000000E+00;  0.0000000E+00;
  2.0400000E+00;  9.9999998E-03;  2.8000000E-01;692;  0.0000000E+00;  0.0000000E+00;  0.0000000E+00;  1.0000000E+03;  4.0000001E-01;  0.0000000E+00;0;  0.0000000E+00;  0.0000000E+00;  0.0000000E+00;0;  0.0000000E+00;  1.0000000E+04;  0.0000000E+00;  0.0000000E+00;  1.0000000E+04;  0.0000000E+00;  1.0000000E+04;  0.0000000E+00;  0.0000000E+00;  0.0000000E+00;  0.0000000E+00;
  2.0599999E+00;  9.9999998E-03; -4.0000001E-01;693;  0.0000000E+00;  0.0000000E+00;  0.0000000E+00;  1.0000000E+03;  4.0000001E-01;  0.0000000E+00;0;  0.0000000E+00;  0.0000000E+00;  0.0000000E+00;0;  0.0000000E+00;  1.0000000E+04;  0.0000000E+00;  0.0000000E+00;  1.0000000E+04;  0.0000000E+00;  1.0000000E+04;  0.0000000E+00;  0.0000000E+00;  0.0000000E+00;  0.0000000E+00;
  2.0599999E+00;  9.9999998E-03; -3.8000000E-01;694;  0.0000000E+00;  0.0000000E+00;  0.0000000E+00;  1.0000000E+03;  4.0000001E-01;  0.0000000E+00;0;  0.0000000E+00;  0.0000000E+00;  0.0000000E+00;0;  0.0000000E+00;  1.0000000E+04;  0.0000000E+00;  0.0000000E+00;  1.0000000E+04;  0.0000000E+00;  1.0000000E+04;  0.0000000E+00;  0.0000000E+00;  0.0000000E+00;  0.0000000E+00;
  2.0599999E+00;  9.9999998E-03; -3.6000001E-01;695;  0.0000000E+00;  0.0000000E+00;  0.0000000E+00;  1.0000000E+03;  4.0000001E-01;  0.0000000E+00;0;  0.0000000E+00;  0.0000000E+00;  0.0000000E+00;0;  0.0000000E+00;  1.0000000E+04;  0.0000000E+00;  0.0000000E+00;  1.0000000E+04;  0.0000000E+00;  1.0000000E+04;  0.0000000E+00;  0.0000000E+00;  0.0000000E+00;  0.0000000E+00;
  2.0599999E+00;  9.9999998E-03; -3.4000000E-01;696;  0.0000000E+00;  0.0000000E+00;  0.0000000E+00;  1.0000000E+03;  4.0000001E-01;  0.0000000E+00;0;  0.0000000E+00;  0.0000000E+00;  0.0000000E+00;0;  0.0000000E+00;  1.0000000E+04;  0.0000000E+00;  0.0000000E+00;  1.0000000E+04;  0.0000000E+00;  1.0000000E+04;  0.0000000E+00;  0.0000000E+00;  0.0000000E+00;  0.0000000E+00;
  2.0599999E+00;  9.9999998E-03; -3.1999999E-01;697;  0.0000000E+00;  0.0000000E+00;  0.0000000E+00;  1.0000000E+03;  4.0000001E-01;  0.0000000E+00;0;  0.0000000E+00;  0.0000000E+00;  0.0000000E+00;0;  0.0000000E+00;  1.0000000E+04;  0.0000000E+00;  0.0000000E+00;  1.0000000E+04;  0.0000000E+00;  1.0000000E+04;  0.0000000E+00;  0.0000000E+00;  0.0000000E+00;  0.0000000E+00;
  2.0599999E+00;  9.9999998E-03; -3.0000001E-01;698;  0.0000000E+00;  0.0000000E+00;  0.0000000E+00;  1.0000000E+03;  4.0000001E-01;  0.0000000E+00;0;  0.0000000E+00;  0.0000000E+00;  0.0000000E+00;0;  0.0000000E+00;  1.0000000E+04;  0.0000000E+00;  0.0000000E+00;  1.0000000E+04;  0.0000000E+00;  1.0000000E+04;  0.0000000E+00;  0.0000000E+00;  0.0000000E+00;  0.0000000E+00;
  2.0599999E+00;  9.9999998E-03; -2.8000000E-01;699;  0.0000000E+00;  0.0000000E+00;  0.0000000E+00;  1.0000000E+03;  4.0000001E-01;  0.0000000E+00;0;  0.0000000E+00;  0.0000000E+00;  0.0000000E+00;0;  0.0000000E+00;  1.0000000E+04;  0.0000000E+00;  0.0000000E+00;  1.0000000E+04;  0.0000000E+00;  1.0000000E+04;  0.0000000E+00;  0.0000000E+00;  0.0000000E+00;  0.0000000E+00;
  2.0599999E+00;  9.9999998E-03; -2.5999999E-01;700;  0.0000000E+00;  0.0000000E+00;  0.0000000E+00;  1.0000000E+03;  4.0000001E-01;  0.0000000E+00;0;  0.0000000E+00;  0.0000000E+00;  0.0000000E+00;0;  0.0000000E+00;  1.0000000E+04;  0.0000000E+00;  0.0000000E+00;  1.0000000E+04;  0.0000000E+00;  1.0000000E+04;  0.0000000E+00;  0.0000000E+00;  0.0000000E+00;  0.0000000E+00;
  2.0599999E+00;  9.9999998E-03; -2.3999999E-01;701;  0.0000000E+00;  0.0000000E+00;  0.0000000E+00;  1.0000000E+03;  4.0000001E-01;  0.0000000E+00;0;  0.0000000E+00;  0.0000000E+00;  0.0000000E+00;0;  0.0000000E+00;  1.0000000E+04;  0.0000000E+00;  0.0000000E+00;  1.0000000E+04;  0.0000000E+00;  1.0000000E+04;  0.0000000E+00;  0.0000000E+00;  0.0000000E+00;  0.0000000E+00;
  2.0599999E+00;  9.9999998E-03; -2.2000000E-01;702;  0.0000000E+00;  0.0000000E+00;  0.0000000E+00;  1.0000000E+03;  4.0000001E-01;  0.0000000E+00;0;  0.0000000E+00;  0.0000000E+00;  0.0000000E+00;0;  0.0000000E+00;  1.0000000E+04;  0.0000000E+00;  0.0000000E+00;  1.0000000E+04;  0.0000000E+00;  1.0000000E+04;  0.0000000E+00;  0.0000000E+00;  0.0000000E+00;  0.0000000E+00;
  2.0599999E+00;  9.9999998E-03; -2.0000000E-01;703;  0.0000000E+00;  0.0000000E+00;  0.0000000E+00;  1.0000000E+03;  4.0000001E-01;  0.0000000E+00;0;  0.0000000E+00;  0.0000000E+00;  0.0000000E+00;0;  0.0000000E+00;  1.0000000E+04;  0.0000000E+00;  0.0000000E+00;  1.0000000E+04;  0.0000000E+00;  1.0000000E+04;  0.0000000E+00;  0.0000000E+00;  0.0000000E+00;  0.0000000E+00;
  2.0599999E+00;  9.9999998E-03; -1.8000001E-01;704;  0.0000000E+00;  0.0000000E+00;  0.0000000E+00;  1.0000000E+03;  4.0000001E-01;  0.0000000E+00;0;  0.0000000E+00;  0.0000000E+00;  0.0000000E+00;0;  0.0000000E+00;  1.0000000E+04;  0.0000000E+00;  0.0000000E+00;  1.0000000E+04;  0.0000000E+00;  1.0000000E+04;  0.0000000E+00;  0.0000000E+00;  0.0000000E+00;  0.0000000E+00;
  2.0599999E+00;  9.9999998E-03; -1.6000000E-01;705;  0.0000000E+00;  0.0000000E+00;  0.0000000E+00;  1.0000000E+03;  4.0000001E-01;  0.0000000E+00;0;  0.0000000E+00;  0.0000000E+00;  0.0000000E+00;0;  0.0000000E+00;  1.0000000E+04;  0.0000000E+00;  0.0000000E+00;  1.0000000E+04;  0.0000000E+00;  1.0000000E+04;  0.0000000E+00;  0.0000000E+00;  0.0000000E+00;  0.0000000E+00;
  2.0599999E+00;  9.9999998E-03; -1.4000000E-01;706;  0.0000000E+00;  0.0000000E+00;  0.0000000E+00;  1.0000000E+03;  4.0000001E-01;  0.0000000E+00;0;  0.0000000E+00;  0.0000000E+00;  0.0000000E+00;0;  0.0000000E+00;  1.0000000E+04;  0.0000000E+00;  0.0000000E+00;  1.0000000E+04;  0.0000000E+00;  1.0000000E+04;  0.0000000E+00;  0.0000000E+00;  0.0000000E+00;  0.0000000E+00;
  2.0599999E+00;  9.9999998E-03; -1.2000000E-01;707;  0.0000000E+00;  0.0000000E+00;  0.0000000E+00;  1.0000000E+03;  4.0000001E-01;  0.0000000E+00;0;  0.0000000E+00;  0.0000000E+00;  0.0000000E+00;0;  0.0000000E+00;  1.0000000E+04;  0.0000000E+00;  0.0000000E+00;  1.0000000E+04;  0.0000000E+00;  1.0000000E+04;  0.0000000E+00;  0.0000000E+00;  0.0000000E+00;  0.0000000E+00;
  2.0599999E+00;  9.9999998E-03; -1.0000000E-01;708;  0.0000000E+00;  0.0000000E+00;  0.0000000E+00;  1.0000000E+03;  4.0000001E-01;  0.0000000E+00;0;  0.0000000E+00;  0.0000000E+00;  0.0000000E+00;0;  0.0000000E+00;  1.0000000E+04;  0.0000000E+00;  0.0000000E+00;  1.0000000E+04;  0.0000000E+00;  1.0000000E+04;  0.0000000E+00;  0.0000000E+00;  0.0000000E+00;  0.0000000E+00;
  2.0599999E+00;  9.9999998E-03; -7.9999998E-02;709;  0.0000000E+00;  0.0000000E+00;  0.0000000E+00;  1.0000000E+03;  4.0000001E-01;  0.0000000E+00;0;  0.0000000E+00;  0.0000000E+00;  0.0000000E+00;0;  0.0000000E+00;  1.0000000E+04;  0.0000000E+00;  0.0000000E+00;  1.0000000E+04;  0.0000000E+00;  1.0000000E+04;  0.0000000E+00;  0.0000000E+00;  0.0000000E+00;  0.0000000E+00;
  2.0599999E+00;  9.9999998E-03; -5.9999999E-02;710;  0.0000000E+00;  0.0000000E+00;  0.0000000E+00;  1.0000000E+03;  4.0000001E-01;  0.0000000E+00;0;  0.0000000E+00;  0.0000000E+00;  0.0000000E+00;0;  0.0000000E+00;  1.0000000E+04;  0.0000000E+00;  0.0000000E+00;  1.0000000E+04;  0.0000000E+00;  1.0000000E+04;  0.0000000E+00;  0.0000000E+00;  0.0000000E+00;  0.0000000E+00;
  2.0599999E+00;  9.9999998E-03; -3.9999999E-02;711;  0.0000000E+00;  0.0000000E+00;  0.0000000E+00;  1.0000000E+03;  4.0000001E-01;  0.0000000E+00;0;  0.0000000E+00;  0.0000000E+00;  0.0000000E+00;0;  0.0000000E+00;  1.0000000E+04;  0.0000000E+00;  0.0000000E+00;  1.0000000E+04;  0.0000000E+00;  1.0000000E+04;  0.0000000E+00;  0.0000000E+00;  0.0000000E+00;  0.0000000E+00;
  2.0599999E+00;  9.9999998E-03; -2.0000000E-02;712;  0.0000000E+00;  0.0000000E+00;  0.0000000E+00;  1.0000000E+03;  4.0000001E-01;  0.0000000E+00;0;  0.0000000E+00;  0.0000000E+00;  0.0000000E+00;0;  0.0000000E+00;  1.0000000E+04;  0.0000000E+00;  0.0000000E+00;  1.0000000E+04;  0.0000000E+00;  1.0000000E+04;  0.0000000E+00;  0.0000000E+00;  0.0000000E+00;  0.0000000E+00;
  2.0599999E+00;  9.9999998E-03;  0.0000000E+00;713;  0.0000000E+00;  0.0000000E+00;  0.0000000E+00;  1.0000000E+03;  4.0000001E-01;  0.0000000E+00;0;  0.0000000E+00;  0.0000000E+00;  0.0000000E+00;0;  0.0000000E+00;  1.0000000E+04;  0.0000000E+00;  0.0000000E+00;  1.0000000E+04;  0.0000000E+00;  1.0000000E+04;  0.0000000E+00;  0.0000000E+00;  0.0000000E+00;  0.0000000E+00;
  2.0599999E+00;  9.9999998E-03;  2.0000000E-02;714;  0.0000000E+00;  0.0000000E+00;  0.0000000E+00;  1.0000000E+03;  4.0000001E-01;  0.0000000E+00;0;  0.0000000E+00;  0.0000000E+00;  0.0000000E+00;0;  0.0000000E+00;  1.0000000E+04;  0.0000000E+00;  0.0000000E+00;  1.0000000E+04;  0.0000000E+00;  1.0000000E+04;  0.0000000E+00;  0.0000000E+00;  0.0000000E+00;  0.0000000E+00;
  2.0599999E+00;  9.9999998E-03;  3.9999999E-02;715;  0.0000000E+00;  0.0000000E+00;  0.0000000E+00;  1.0000000E+03;  4.0000001E-01;  0.0000000E+00;0;  0.0000000E+00;  0.0000000E+00;  0.0000000E+00;0;  0.0000000E+00;  1.0000000E+04;  0.0000000E+00;  0.0000000E+00;  1.0000000E+04;  0.0000000E+00;  1.0000000E+04;  0.0000000E+00;  0.0000000E+00;  0.0000000E+00;  0.0000000E+00;
  2.0599999E+00;  9.9999998E-03;  5.9999999E-02;716;  0.0000000E+00;  0.0000000E+00;  0.0000000E+00;  1.0000000E+03;  4.0000001E-01;  0.0000000E+00;0;  0.0000000E+00;  0.0000000E+00;  0.0000000E+00;0;  0.0000000E+00;  1.0000000E+04;  0.0000000E+00;  0.0000000E+00;  1.0000000E+04;  0.0000000E+00;  1.0000000E+04;  0.0000000E+00;  0.0000000E+00;  0.0000000E+00;  0.0000000E+00;
  2.0599999E+00;  9.9999998E-03;  7.9999998E-02;717;  0.0000000E+00;  0.0000000E+00;  0.0000000E+00;  1.0000000E+03;  4.0000001E-01;  0.0000000E+00;0;  0.0000000E+00;  0.0000000E+00;  0.0000000E+00;0;  0.0000000E+00;  1.0000000E+04;  0.0000000E+00;  0.0000000E+00;  1.0000000E+04;  0.0000000E+00;  1.0000000E+04;  0.0000000E+00;  0.0000000E+00;  0.0000000E+00;  0.0000000E+00;
  2.0599999E+00;  9.9999998E-03;  1.0000000E-01;718;  0.0000000E+00;  0.0000000E+00;  0.0000000E+00;  1.0000000E+03;  4.0000001E-01;  0.0000000E+00;0;  0.0000000E+00;  0.0000000E+00;  0.0000000E+00;0;  0.0000000E+00;  1.0000000E+04;  0.0000000E+00;  0.0000000E+00;  1.0000000E+04;  0.0000000E+00;  1.0000000E+04;  0.0000000E+00;  0.0000000E+00;  0.0000000E+00;  0.0000000E+00;
  2.0599999E+00;  9.9999998E-03;  1.2000000E-01;719;  0.0000000E+00;  0.0000000E+00;  0.0000000E+00;  1.0000000E+03;  4.0000001E-01;  0.0000000E+00;0;  0.0000000E+00;  0.0000000E+00;  0.0000000E+00;0;  0.0000000E+00;  1.0000000E+04;  0.0000000E+00;  0.0000000E+00;  1.0000000E+04;  0.0000000E+00;  1.0000000E+04;  0.0000000E+00;  0.0000000E+00;  0.0000000E+00;  0.0000000E+00;
  2.0599999E+00;  9.9999998E-03;  1.4000000E-01;720;  0.0000000E+00;  0.0000000E+00;  0.0000000E+00;  1.0000000E+03;  4.0000001E-01;  0.0000000E+00;0;  0.0000000E+00;  0.0000000E+00;  0.0000000E+00;0;  0.0000000E+00;  1.0000000E+04;  0.0000000E+00;  0.0000000E+00;  1.0000000E+04;  0.0000000E+00;  1.0000000E+04;  0.0000000E+00;  0.0000000E+00;  0.0000000E+00;  0.0000000E+00;
  2.0599999E+00;  9.9999998E-03;  1.6000000E-01;721;  0.0000000E+00;  0.0000000E+00;  0.0000000E+00;  1.0000000E+03;  4.0000001E-01;  0.0000000E+00;0;  0.0000000E+00;  0.0000000E+00;  0.0000000E+00;0;  0.0000000E+00;  1.0000000E+04;  0.0000000E+00;  0.0000000E+00;  1.0000000E+04;  0.0000000E+00;  1.0000000E+04;  0.0000000E+00;  0.0000000E+00;  0.0000000E+00;  0.0000000E+00;
  2.0599999E+00;  9.9999998E-03;  1.8000001E-01;722;  0.0000000E+00;  0.0000000E+00;  0.0000000E+00;  1.0000000E+03;  4.0000001E-01;  0.0000000E+00;0;  0.0000000E+00;  0.0000000E+00;  0.0000000E+00;0;  0.0000000E+00;  1.0000000E+04;  0.0000000E+00;  0.0000000E+00;  1.0000000E+04;  0.0000000E+00;  1.0000000E+04;  0.0000000E+00;  0.0000000E+00;  0.0000000E+00;  0.0000000E+00;
  2.0599999E+00;  9.9999998E-03;  2.0000000E-01;723;  0.0000000E+00;  0.0000000E+00;  0.0000000E+00;  1.0000000E+03;  4.0000001E-01;  0.0000000E+00;0;  0.0000000E+00;  0.0000000E+00;  0.0000000E+00;0;  0.0000000E+00;  1.0000000E+04;  0.0000000E+00;  0.0000000E+00;  1.0000000E+04;  0.0000000E+00;  1.0000000E+04;  0.0000000E+00;  0.0000000E+00;  0.0000000E+00;  0.0000000E+00;
  2.0599999E+00;  9.9999998E-03;  2.2000000E-01;724;  0.0000000E+00;  0.0000000E+00;  0.0000000E+00;  1.0000000E+03;  4.0000001E-01;  0.0000000E+00;0;  0.0000000E+00;  0.0000000E+00;  0.0000000E+00;0;  0.0000000E+00;  1.0000000E+04;  0.0000000E+00;  0.0000000E+00;  1.0000000E+04;  0.0000000E+00;  1.0000000E+04;  0.0000000E+00;  0.0000000E+00;  0.0000000E+00;  0.0000000E+00;
  2.0599999E+00;  9.9999998E-03;  2.3999999E-01;725;  0.0000000E+00;  0.0000000E+00;  0.0000000E+00;  1.0000000E+03;  4.0000001E-01;  0.0000000E+00;0;  0.0000000E+00;  0.0000000E+00;  0.0000000E+00;0;  0.0000000E+00;  1.0000000E+04;  0.0000000E+00;  0.0000000E+00;  1.0000000E+04;  0.0000000E+00;  1.0000000E+04;  0.0000000E+00;  0.0000000E+00;  0.0000000E+00;  0.0000000E+00;
  2.0599999E+00;  9.9999998E-03;  2.5999999E-01;726;  0.0000000E+00;  0.0000000E+00;  0.0000000E+00;  1.0000000E+03;  4.0000001E-01;  0.0000000E+00;0;  0.0000000E+00;  0.0000000E+00;  0.0000000E+00;0;  0.0000000E+00;  1.0000000E+04;  0.0000000E+00;  0.0000000E+00;  1.0000000E+04;  0.0000000E+00;  1.0000000E+04;  0.0000000E+00;  0.0000000E+00;  0.0000000E+00;  0.0000000E+00;
  2.0599999E+00;  9.9999998E-03;  2.8000000E-01;727;  0.0000000E+00;  0.0000000E+00;  0.0000000E+00;  1.0000000E+03;  4.0000001E-01;  0.0000000E+00;0;  0.0000000E+00;  0.0000000E+00;  0.0000000E+00;0;  0.0000000E+00;  1.0000000E+04;  0.0000000E+00;  0.0000000E+00;  1.0000000E+04;  0.0000000E+00;  1.0000000E+04;  0.0000000E+00;  0.0000000E+00;  0.0000000E+00;  0.0000000E+00;
  2.0599999E+00;  9.9999998E-03;  3.0000001E-01;728;  0.0000000E+00;  0.0000000E+00;  0.0000000E+00;  1.0000000E+03;  4.0000001E-01;  0.0000000E+00;0;  0.0000000E+00;  0.0000000E+00;  0.0000000E+00;0;  0.0000000E+00;  1.0000000E+04;  0.0000000E+00;  0.0000000E+00;  1.0000000E+04;  0.0000000E+00;  1.0000000E+04;  0.0000000E+00;  0.0000000E+00;  0.0000000E+00;  0.0000000E+00;
  2.0599999E+00;  9.9999998E-03;  3.1999999E-01;729;  0.0000000E+00;  0.0000000E+00;  0.0000000E+00;  1.0000000E+03;  4.0000001E-01;  0.0000000E+00;0;  0.0000000E+00;  0.0000000E+00;  0.0000000E+00;0;  0.0000000E+00;  1.0000000E+04;  0.0000000E+00;  0.0000000E+00;  1.0000000E+04;  0.0000000E+00;  1.0000000E+04;  0.0000000E+00;  0.0000000E+00;  0.0000000E+00;  0.0000000E+00;
  2.0599999E+00;  9.9999998E-03;  3.4000000E-01;730;  0.0000000E+00;  0.0000000E+00;  0.0000000E+00;  1.0000000E+03;  4.0000001E-01;  0.0000000E+00;0;  0.0000000E+00;  0.0000000E+00;  0.0000000E+00;0;  0.0000000E+00;  1.0000000E+04;  0.0000000E+00;  0.0000000E+00;  1.0000000E+04;  0.0000000E+00;  1.0000000E+04;  0.0000000E+00;  0.0000000E+00;  0.0000000E+00;  0.0000000E+00;
  2.0599999E+00;  9.9999998E-03;  3.6000001E-01;731;  0.0000000E+00;  0.0000000E+00;  0.0000000E+00;  1.0000000E+03;  4.0000001E-01;  0.0000000E+00;0;  0.0000000E+00;  0.0000000E+00;  0.0000000E+00;0;  0.0000000E+00;  1.0000000E+04;  0.0000000E+00;  0.0000000E+00;  1.0000000E+04;  0.0000000E+00;  1.0000000E+04;  0.0000000E+00;  0.0000000E+00;  0.0000000E+00;  0.0000000E+00;
  2.0599999E+00;  9.9999998E-03;  3.8000000E-01;732;  0.0000000E+00;  0.0000000E+00;  0.0000000E+00;  1.0000000E+03;  4.0000001E-01;  0.0000000E+00;0;  0.0000000E+00;  0.0000000E+00;  0.0000000E+00;0;  0.0000000E+00;  1.0000000E+04;  0.0000000E+00;  0.0000000E+00;  1.0000000E+04;  0.0000000E+00;  1.0000000E+04;  0.0000000E+00;  0.0000000E+00;  0.0000000E+00;  0.0000000E+00;
  2.0799999E+00;  9.9999998E-03; -4.0000001E-01;733;  0.0000000E+00;  0.0000000E+00;  0.0000000E+00;  1.0000000E+03;  4.0000001E-01;  0.0000000E+00;0;  0.0000000E+00;  0.0000000E+00;  0.0000000E+00;0;  0.0000000E+00;  1.0000000E+04;  0.0000000E+00;  0.0000000E+00;  1.0000000E+04;  0.0000000E+00;  1.0000000E+04;  0.0000000E+00;  0.0000000E+00;  0.0000000E+00;  0.0000000E+00;
  2.0799999E+00;  9.9999998E-03; -3.8000000E-01;734;  0.0000000E+00;  0.0000000E+00;  0.0000000E+00;  1.0000000E+03;  4.0000001E-01;  0.0000000E+00;0;  0.0000000E+00;  0.0000000E+00;  0.0000000E+00;0;  0.0000000E+00;  1.0000000E+04;  0.0000000E+00;  0.0000000E+00;  1.0000000E+04;  0.0000000E+00;  1.0000000E+04;  0.0000000E+00;  0.0000000E+00;  0.0000000E+00;  0.0000000E+00;
  2.0799999E+00;  9.9999998E-03; -3.6000001E-01;735;  0.0000000E+00;  0.0000000E+00;  0.0000000E+00;  1.0000000E+03;  4.0000001E-01;  0.0000000E+00;0;  0.0000000E+00;  0.0000000E+00;  0.0000000E+00;0;  0.0000000E+00;  1.0000000E+04;  0.0000000E+00;  0.0000000E+00;  1.0000000E+04;  0.0000000E+00;  1.0000000E+04;  0.0000000E+00;  0.0000000E+00;  0.0000000E+00;  0.0000000E+00;
  2.0799999E+00;  9.9999998E-03; -3.4000000E-01;736;  0.0000000E+00;  0.0000000E+00;  0.0000000E+00;  1.0000000E+03;  4.0000001E-01;  0.0000000E+00;0;  0.0000000E+00;  0.0000000E+00;  0.0000000E+00;0;  0.0000000E+00;  1.0000000E+04;  0.0000000E+00;  0.0000000E+00;  1.0000000E+04;  0.0000000E+00;  1.0000000E+04;  0.0000000E+00;  0.0000000E+00;  0.0000000E+00;  0.0000000E+00;
  2.0799999E+00;  9.9999998E-03; -3.1999999E-01;737;  0.0000000E+00;  0.0000000E+00;  0.0000000E+00;  1.0000000E+03;  4.0000001E-01;  0.0000000E+00;0;  0.0000000E+00;  0.0000000E+00;  0.0000000E+00;0;  0.0000000E+00;  1.0000000E+04;  0.0000000E+00;  0.0000000E+00;  1.0000000E+04;  0.0000000E+00;  1.0000000E+04;  0.0000000E+00;  0.0000000E+00;  0.0000000E+00;  0.0000000E+00;
  2.0799999E+00;  9.9999998E-03; -3.0000001E-01;738;  0.0000000E+00;  0.0000000E+00;  0.0000000E+00;  1.0000000E+03;  4.0000001E-01;  0.0000000E+00;0;  0.0000000E+00;  0.0000000E+00;  0.0000000E+00;0;  0.0000000E+00;  1.0000000E+04;  0.0000000E+00;  0.0000000E+00;  1.0000000E+04;  0.0000000E+00;  1.0000000E+04;  0.0000000E+00;  0.0000000E+00;  0.0000000E+00;  0.0000000E+00;
  2.0799999E+00;  9.9999998E-03; -2.8000000E-01;739;  0.0000000E+00;  0.0000000E+00;  0.0000000E+00;  1.0000000E+03;  4.0000001E-01;  0.0000000E+00;0;  0.0000000E+00;  0.0000000E+00;  0.0000000E+00;0;  0.0000000E+00;  1.0000000E+04;  0.0000000E+00;  0.0000000E+00;  1.0000000E+04;  0.0000000E+00;  1.0000000E+04;  0.0000000E+00;  0.0000000E+00;  0.0000000E+00;  0.0000000E+00;
  2.0799999E+00;  9.9999998E-03; -2.5999999E-01;740;  0.0000000E+00;  0.0000000E+00;  0.0000000E+00;  1.0000000E+03;  4.0000001E-01;  0.0000000E+00;0;  0.0000000E+00;  0.0000000E+00;  0.0000000E+00;0;  0.0000000E+00;  1.0000000E+04;  0.0000000E+00;  0.0000000E+00;  1.0000000E+04;  0.0000000E+00;  1.0000000E+04;  0.0000000E+00;  0.0000000E+00;  0.0000000E+00;  0.0000000E+00;
  2.0799999E+00;  9.9999998E-03; -2.3999999E-01;741;  0.0000000E+00;  0.0000000E+00;  0.0000000E+00;  1.0000000E+03;  4.0000001E-01;  0.0000000E+00;0;  0.0000000E+00;  0.0000000E+00;  0.0000000E+00;0;  0.0000000E+00;  1.0000000E+04;  0.0000000E+00;  0.0000000E+00;  1.0000000E+04;  0.0000000E+00;  1.0000000E+04;  0.0000000E+00;  0.0000000E+00;  0.0000000E+00;  0.0000000E+00;
  2.0799999E+00;  9.9999998E-03; -2.2000000E-01;742;  0.0000000E+00;  0.0000000E+00;  0.0000000E+00;  1.0000000E+03;  4.0000001E-01;  0.0000000E+00;0;  0.0000000E+00;  0.0000000E+00;  0.0000000E+00;0;  0.0000000E+00;  1.0000000E+04;  0.0000000E+00;  0.0000000E+00;  1.0000000E+04;  0.0000000E+00;  1.0000000E+04;  0.0000000E+00;  0.0000000E+00;  0.0000000E+00;  0.0000000E+00;
  2.0799999E+00;  9.9999998E-03; -2.0000000E-01;743;  0.0000000E+00;  0.0000000E+00;  0.0000000E+00;  1.0000000E+03;  4.0000001E-01;  0.0000000E+00;0;  0.0000000E+00;  0.0000000E+00;  0.0000000E+00;0;  0.0000000E+00;  1.0000000E+04;  0.0000000E+00;  0.0000000E+00;  1.0000000E+04;  0.0000000E+00;  1.0000000E+04;  0.0000000E+00;  0.0000000E+00;  0.0000000E+00;  0.0000000E+00;
  2.0799999E+00;  9.9999998E-03; -1.8000001E-01;744;  0.0000000E+00;  0.0000000E+00;  0.0000000E+00;  1.0000000E+03;  4.0000001E-01;  0.0000000E+00;0;  0.0000000E+00;  0.0000000E+00;  0.0000000E+00;0;  0.0000000E+00;  1.0000000E+04;  0.0000000E+00;  0.0000000E+00;  1.0000000E+04;  0.0000000E+00;  1.0000000E+04;  0.0000000E+00;  0.0000000E+00;  0.0000000E+00;  0.0000000E+00;
  2.0799999E+00;  9.9999998E-03; -1.6000000E-01;745;  0.0000000E+00;  0.0000000E+00;  0.0000000E+00;  1.0000000E+03;  4.0000001E-01;  0.0000000E+00;0;  0.0000000E+00;  0.0000000E+00;  0.0000000E+00;0;  0.0000000E+00;  1.0000000E+04;  0.0000000E+00;  0.0000000E+00;  1.0000000E+04;  0.0000000E+00;  1.0000000E+04;  0.0000000E+00;  0.0000000E+00;  0.0000000E+00;  0.0000000E+00;
  2.0799999E+00;  9.9999998E-03; -1.4000000E-01;746;  0.0000000E+00;  0.0000000E+00;  0.0000000E+00;  1.0000000E+03;  4.0000001E-01;  0.0000000E+00;0;  0.0000000E+00;  0.0000000E+00;  0.0000000E+00;0;  0.0000000E+00;  1.0000000E+04;  0.0000000E+00;  0.0000000E+00;  1.0000000E+04;  0.0000000E+00;  1.0000000E+04;  0.0000000E+00;  0.0000000E+00;  0.0000000E+00;  0.0000000E+00;
  2.0799999E+00;  9.9999998E-03; -1.2000000E-01;747;  0.0000000E+00;  0.0000000E+00;  0.0000000E+00;  1.0000000E+03;  4.0000001E-01;  0.0000000E+00;0;  0.0000000E+00;  0.0000000E+00;  0.0000000E+00;0;  0.0000000E+00;  1.0000000E+04;  0.0000000E+00;  0.0000000E+00;  1.0000000E+04;  0.0000000E+00;  1.0000000E+04;  0.0000000E+00;  0.0000000E+00;  0.0000000E+00;  0.0000000E+00;
  2.0799999E+00;  9.9999998E-03; -1.0000000E-01;748;  0.0000000E+00;  0.0000000E+00;  0.0000000E+00;  1.0000000E+03;  4.0000001E-01;  0.0000000E+00;0;  0.0000000E+00;  0.0000000E+00;  0.0000000E+00;0;  0.0000000E+00;  1.0000000E+04;  0.0000000E+00;  0.0000000E+00;  1.0000000E+04;  0.0000000E+00;  1.0000000E+04;  0.0000000E+00;  0.0000000E+00;  0.0000000E+00;  0.0000000E+00;
  2.0799999E+00;  9.9999998E-03; -7.9999998E-02;749;  0.0000000E+00;  0.0000000E+00;  0.0000000E+00;  1.0000000E+03;  4.0000001E-01;  0.0000000E+00;0;  0.0000000E+00;  0.0000000E+00;  0.0000000E+00;0;  0.0000000E+00;  1.0000000E+04;  0.0000000E+00;  0.0000000E+00;  1.0000000E+04;  0.0000000E+00;  1.0000000E+04;  0.0000000E+00;  0.0000000E+00;  0.0000000E+00;  0.0000000E+00;
  2.0799999E+00;  9.9999998E-03; -5.9999999E-02;750;  0.0000000E+00;  0.0000000E+00;  0.0000000E+00;  1.0000000E+03;  4.0000001E-01;  0.0000000E+00;0;  0.0000000E+00;  0.0000000E+00;  0.0000000E+00;0;  0.0000000E+00;  1.0000000E+04;  0.0000000E+00;  0.0000000E+00;  1.0000000E+04;  0.0000000E+00;  1.0000000E+04;  0.0000000E+00;  0.0000000E+00;  0.0000000E+00;  0.0000000E+00;
  2.0799999E+00;  9.9999998E-03; -3.9999999E-02;751;  0.0000000E+00;  0.0000000E+00;  0.0000000E+00;  1.0000000E+03;  4.0000001E-01;  0.0000000E+00;0;  0.0000000E+00;  0.0000000E+00;  0.0000000E+00;0;  0.0000000E+00;  1.0000000E+04;  0.0000000E+00;  0.0000000E+00;  1.0000000E+04;  0.0000000E+00;  1.0000000E+04;  0.0000000E+00;  0.0000000E+00;  0.0000000E+00;  0.0000000E+00;
  2.0799999E+00;  9.9999998E-03; -2.0000000E-02;752;  0.0000000E+00;  0.0000000E+00;  0.0000000E+00;  1.0000000E+03;  4.0000001E-01;  0.0000000E+00;0;  0.0000000E+00;  0.0000000E+00;  0.0000000E+00;0;  0.0000000E+00;  1.0000000E+04;  0.0000000E+00;  0.0000000E+00;  1.0000000E+04;  0.0000000E+00;  1.0000000E+04;  0.0000000E+00;  0.0000000E+00;  0.0000000E+00;  0.0000000E+00;
  2.0799999E+00;  9.9999998E-03;  0.0000000E+00;753;  0.0000000E+00;  0.0000000E+00;  0.0000000E+00;  1.0000000E+03;  4.0000001E-01;  0.0000000E+00;0;  0.0000000E+00;  0.0000000E+00;  0.0000000E+00;0;  0.0000000E+00;  1.0000000E+04;  0.0000000E+00;  0.0000000E+00;  1.0000000E+04;  0.0000000E+00;  1.0000000E+04;  0.0000000E+00;  0.0000000E+00;  0.0000000E+00;  0.0000000E+00;
  2.0799999E+00;  9.9999998E-03;  2.0000000E-02;754;  0.0000000E+00;  0.0000000E+00;  0.0000000E+00;  1.0000000E+03;  4.0000001E-01;  0.0000000E+00;0;  0.0000000E+00;  0.0000000E+00;  0.0000000E+00;0;  0.0000000E+00;  1.0000000E+04;  0.0000000E+00;  0.0000000E+00;  1.0000000E+04;  0.0000000E+00;  1.0000000E+04;  0.0000000E+00;  0.0000000E+00;  0.0000000E+00;  0.0000000E+00;
  2.0799999E+00;  9.9999998E-03;  3.9999999E-02;755;  0.0000000E+00;  0.0000000E+00;  0.0000000E+00;  1.0000000E+03;  4.0000001E-01;  0.0000000E+00;0;  0.0000000E+00;  0.0000000E+00;  0.0000000E+00;0;  0.0000000E+00;  1.0000000E+04;  0.0000000E+00;  0.0000000E+00;  1.0000000E+04;  0.0000000E+00;  1.0000000E+04;  0.0000000E+00;  0.0000000E+00;  0.0000000E+00;  0.0000000E+00;
  2.0799999E+00;  9.9999998E-03;  5.9999999E-02;756;  0.0000000E+00;  0.0000000E+00;  0.0000000E+00;  1.0000000E+03;  4.0000001E-01;  0.0000000E+00;0;  0.0000000E+00;  0.0000000E+00;  0.0000000E+00;0;  0.0000000E+00;  1.0000000E+04;  0.0000000E+00;  0.0000000E+00;  1.0000000E+04;  0.0000000E+00;  1.0000000E+04;  0.0000000E+00;  0.0000000E+00;  0.0000000E+00;  0.0000000E+00;
  2.0799999E+00;  9.9999998E-03;  7.9999998E-02;757;  0.0000000E+00;  0.0000000E+00;  0.0000000E+00;  1.0000000E+03;  4.0000001E-01;  0.0000000E+00;0;  0.0000000E+00;  0.0000000E+00;  0.0000000E+00;0;  0.0000000E+00;  1.0000000E+04;  0.0000000E+00;  0.0000000E+00;  1.0000000E+04;  0.0000000E+00;  1.0000000E+04;  0.0000000E+00;  0.0000000E+00;  0.0000000E+00;  0.0000000E+00;
  2.0799999E+00;  9.9999998E-03;  1.0000000E-01;758;  0.0000000E+00;  0.0000000E+00;  0.0000000E+00;  1.0000000E+03;  4.0000001E-01;  0.0000000E+00;0;  0.0000000E+00;  0.0000000E+00;  0.0000000E+00;0;  0.0000000E+00;  1.0000000E+04;  0.0000000E+00;  0.0000000E+00;  1.0000000E+04;  0.0000000E+00;  1.0000000E+04;  0.0000000E+00;  0.0000000E+00;  0.0000000E+00;  0.0000000E+00;
  2.0799999E+00;  9.9999998E-03;  1.2000000E-01;759;  0.0000000E+00;  0.0000000E+00;  0.0000000E+00;  1.0000000E+03;  4.0000001E-01;  0.0000000E+00;0;  0.0000000E+00;  0.0000000E+00;  0.0000000E+00;0;  0.0000000E+00;  1.0000000E+04;  0.0000000E+00;  0.0000000E+00;  1.0000000E+04;  0.0000000E+00;  1.0000000E+04;  0.0000000E+00;  0.0000000E+00;  0.0000000E+00;  0.0000000E+00;
  2.0799999E+00;  9.9999998E-03;  1.4000000E-01;760;  0.0000000E+00;  0.0000000E+00;  0.0000000E+00;  1.0000000E+03;  4.0000001E-01;  0.0000000E+00;0;  0.0000000E+00;  0.0000000E+00;  0.0000000E+00;0;  0.0000000E+00;  1.0000000E+04;  0.0000000E+00;  0.0000000E+00;  1.0000000E+04;  0.0000000E+00;  1.0000000E+04;  0.0000000E+00;  0.0000000E+00;  0.0000000E+00;  0.0000000E+00;
  2.0799999E+00;  9.9999998E-03;  1.6000000E-01;761;  0.0000000E+00;  0.0000000E+00;  0.0000000E+00;  1.0000000E+03;  4.0000001E-01;  0.0000000E+00;0;  0.0000000E+00;  0.0000000E+00;  0.0000000E+00;0;  0.0000000E+00;  1.0000000E+04;  0.0000000E+00;  0.0000000E+00;  1.0000000E+04;  0.0000000E+00;  1.0000000E+04;  0.0000000E+00;  0.0000000E+00;  0.0000000E+00;  0.0000000E+00;
  2.0799999E+00;  9.9999998E-03;  1.8000001E-01;762;  0.0000000E+00;  0.0000000E+00;  0.0000000E+00;  1.0000000E+03;  4.0000001E-01;  0.0000000E+00;0;  0.0000000E+00;  0.0000000E+00;  0.0000000E+00;0;  0.0000000E+00;  1.0000000E+04;  0.0000000E+00;  0.0000000E+00;  1.0000000E+04;  0.0000000E+00;  1.0000000E+04;  0.0000000E+00;  0.0000000E+00;  0.0000000E+00;  0.0000000E+00;
  2.0799999E+00;  9.9999998E-03;  2.0000000E-01;763;  0.0000000E+00;  0.0000000E+00;  0.0000000E+00;  1.0000000E+03;  4.0000001E-01;  0.0000000E+00;0;  0.0000000E+00;  0.0000000E+00;  0.0000000E+00;0;  0.0000000E+00;  1.0000000E+04;  0.0000000E+00;  0.0000000E+00;  1.0000000E+04;  0.0000000E+00;  1.0000000E+04;  0.0000000E+00;  0.0000000E+00;  0.0000000E+00;  0.0000000E+00;
  2.0799999E+00;  9.9999998E-03;  2.2000000E-01;764;  0.0000000E+00;  0.0000000E+00;  0.0000000E+00;  1.0000000E+03;  4.0000001E-01;  0.0000000E+00;0;  0.0000000E+00;  0.0000000E+00;  0.0000000E+00;0;  0.0000000E+00;  1.0000000E+04;  0.0000000E+00;  0.0000000E+00;  1.0000000E+04;  0.0000000E+00;  1.0000000E+04;  0.0000000E+00;  0.0000000E+00;  0.0000000E+00;  0.0000000E+00;
  2.0799999E+00;  9.9999998E-03;  2.3999999E-01;765;  0.0000000E+00;  0.0000000E+00;  0.0000000E+00;  1.0000000E+03;  4.0000001E-01;  0.0000000E+00;0;  0.0000000E+00;  0.0000000E+00;  0.0000000E+00;0;  0.0000000E+00;  1.0000000E+04;  0.0000000E+00;  0.0000000E+00;  1.0000000E+04;  0.0000000E+00;  1.0000000E+04;  0.0000000E+00;  0.0000000E+00;  0.0000000E+00;  0.0000000E+00;
  2.0799999E+00;  9.9999998E-03;  2.5999999E-01;766;  0.0000000E+00;  0.0000000E+00;  0.0000000E+00;  1.0000000E+03;  4.0000001E-01;  0.0000000E+00;0;  0.0000000E+00;  0.0000000E+00;  0.0000000E+00;0;  0.0000000E+00;  1.0000000E+04;  0.0000000E+00;  0.0000000E+00;  1.0000000E+04;  0.0000000E+00;  1.0000000E+04;  0.0000000E+00;  0.0000000E+00;  0.0000000E+00;  0.0000000E+00;
  2.0799999E+00;  9.9999998E-03;  2.8000000E-01;767;  0.0000000E+00;  0.0000000E+00;  0.0000000E+00;  1.0000000E+03;  4.0000001E-01;  0.0000000E+00;0;  0.0000000E+00;  0.0000000E+00;  0.0000000E+00;0;  0.0000000E+00;  1.0000000E+04;  0.0000000E+00;  0.0000000E+00;  1.0000000E+04;  0.0000000E+00;  1.0000000E+04;  0.0000000E+00;  0.0000000E+00;  0.0000000E+00;  0.0000000E+00;
  2.0799999E+00;  9.9999998E-03;  3.0000001E-01;768;  0.0000000E+00;  0.0000000E+00;  0.0000000E+00;  1.0000000E+03;  4.0000001E-01;  0.0000000E+00;0;  0.0000000E+00;  0.0000000E+00;  0.0000000E+00;0;  0.0000000E+00;  1.0000000E+04;  0.0000000E+00;  0.0000000E+00;  1.0000000E+04;  0.0000000E+00;  1.0000000E+04;  0.0000000E+00;  0.0000000E+00;  0.0000000E+00;  0.0000000E+00;
  2.0799999E+00;  9.9999998E-03;  3.1999999E-01;769;  0.0000000E+00;  0.0000000E+00;  0.0000000E+00;  1.0000000E+03;  4.0000001E-01;  0.0000000E+00;0;  0.0000000E+00;  0.0000000E+00;  0.0000000E+00;0;  0.0000000E+00;  1.0000000E+04;  0.0000000E+00;  0.0000000E+00;  1.0000000E+04;  0.0000000E+00;  1.0000000E+04;  0.0000000E+00;  0.0000000E+00;  0.0000000E+00;  0.0000000E+00;
  2.0799999E+00;  9.9999998E-03;  3.4000000E-01;770;  0.0000000E+00;  0.0000000E+00;  0.0000000E+00;  1.0000000E+03;  4.0000001E-01;  0.0000000E+00;0;  0.0000000E+00;  0.0000000E+00;  0.0000000E+00;0;  0.0000000E+00;  1.0000000E+04;  0.0000000E+00;  0.0000000E+00;  1.0000000E+04;  0.0000000E+00;  1.0000000E+04;  0.0000000E+00;  0.0000000E+00;  0.0000000E+00;  0.0000000E+00;
  2.0799999E+00;  9.9999998E-03;  3.6000001E-01;771;  0.0000000E+00;  0.0000000E+00;  0.0000000E+00;  1.0000000E+03;  4.0000001E-01;  0.0000000E+00;0;  0.0000000E+00;  0.0000000E+00;  0.0000000E+00;0;  0.0000000E+00;  1.0000000E+04;  0.0000000E+00;  0.0000000E+00;  1.0000000E+04;  0.0000000E+00;  1.0000000E+04;  0.0000000E+00;  0.0000000E+00;  0.0000000E+00;  0.0000000E+00;
  2.0799999E+00;  9.9999998E-03;  3.8000000E-01;772;  0.0000000E+00;  0.0000000E+00;  0.0000000E+00;  1.0000000E+03;  4.0000001E-01;  0.0000000E+00;0;  0.0000000E+00;  0.0000000E+00;  0.0000000E+00;0;  0.0000000E+00;  1.0000000E+04;  0.0000000E+00;  0.0000000E+00;  1.0000000E+04;  0.0000000E+00;  1.0000000E+04;  0.0000000E+00;  0.0000000E+00;  0.0000000E+00;  0.0000000E+00;
  2.0799999E+00;  9.9999998E-03;  4.0000001E-01;773;  0.0000000E+00;  0.0000000E+00;  0.0000000E+00;  1.0000000E+03;  4.0000001E-01;  0.0000000E+00;0;  0.0000000E+00;  0.0000000E+00;  0.0000000E+00;0;  0.0000000E+00;  1.0000000E+04;  0.0000000E+00;  0.0000000E+00;  1.0000000E+04;  0.0000000E+00;  1.0000000E+04;  0.0000000E+00;  0.0000000E+00;  0.0000000E+00;  0.0000000E+00;
  2.0999999E+00;  9.9999998E-03; -4.0000001E-01;774;  0.0000000E+00;  0.0000000E+00;  0.0000000E+00;  1.0000000E+03;  4.0000001E-01;  0.0000000E+00;0;  0.0000000E+00;  0.0000000E+00;  0.0000000E+00;0;  0.0000000E+00;  1.0000000E+04;  0.0000000E+00;  0.0000000E+00;  1.0000000E+04;  0.0000000E+00;  1.0000000E+04;  0.0000000E+00;  0.0000000E+00;  0.0000000E+00;  0.0000000E+00;
  2.0999999E+00;  9.9999998E-03; -3.8000000E-01;775;  0.0000000E+00;  0.0000000E+00;  0.0000000E+00;  1.0000000E+03;  4.0000001E-01;  0.0000000E+00;0;  0.0000000E+00;  0.0000000E+00;  0.0000000E+00;0;  0.0000000E+00;  1.0000000E+04;  0.0000000E+00;  0.0000000E+00;  1.0000000E+04;  0.0000000E+00;  1.0000000E+04;  0.0000000E+00;  0.0000000E+00;  0.0000000E+00;  0.0000000E+00;
  2.0999999E+00;  9.9999998E-03; -3.6000001E-01;776;  0.0000000E+00;  0.0000000E+00;  0.0000000E+00;  1.0000000E+03;  4.0000001E-01;  0.0000000E+00;0;  0.0000000E+00;  0.0000000E+00;  0.0000000E+00;0;  0.0000000E+00;  1.0000000E+04;  0.0000000E+00;  0.0000000E+00;  1.0000000E+04;  0.0000000E+00;  1.0000000E+04;  0.0000000E+00;  0.0000000E+00;  0.0000000E+00;  0.0000000E+00;
  2.0999999E+00;  9.9999998E-03; -3.4000000E-01;777;  0.0000000E+00;  0.0000000E+00;  0.0000000E+00;  1.0000000E+03;  4.0000001E-01;  0.0000000E+00;0;  0.0000000E+00;  0.0000000E+00;  0.0000000E+00;0;  0.0000000E+00;  1.0000000E+04;  0.0000000E+00;  0.0000000E+00;  1.0000000E+04;  0.0000000E+00;  1.0000000E+04;  0.0000000E+00;  0.0000000E+00;  0.0000000E+00;  0.0000000E+00;
  2.0999999E+00;  9.9999998E-03; -3.1999999E-01;778;  0.0000000E+00;  0.0000000E+00;  0.0000000E+00;  1.0000000E+03;  4.0000001E-01;  0.0000000E+00;0;  0.0000000E+00;  0.0000000E+00;  0.0000000E+00;0;  0.0000000E+00;  1.0000000E+04;  0.0000000E+00;  0.0000000E+00;  1.0000000E+04;  0.0000000E+00;  1.0000000E+04;  0.0000000E+00;  0.0000000E+00;  0.0000000E+00;  0.0000000E+00;
  2.0999999E+00;  9.9999998E-03; -3.0000001E-01;779;  0.0000000E+00;  0.0000000E+00;  0.0000000E+00;  1.0000000E+03;  4.0000001E-01;  0.0000000E+00;0;  0.0000000E+00;  0.0000000E+00;  0.0000000E+00;0;  0.0000000E+00;  1.0000000E+04;  0.0000000E+00;  0.0000000E+00;  1.0000000E+04;  0.0000000E+00;  1.0000000E+04;  0.0000000E+00;  0.0000000E+00;  0.0000000E+00;  0.0000000E+00;
  2.0999999E+00;  9.9999998E-03; -2.8000000E-01;780;  0.0000000E+00;  0.0000000E+00;  0.0000000E+00;  1.0000000E+03;  4.0000001E-01;  0.0000000E+00;0;  0.0000000E+00;  0.0000000E+00;  0.0000000E+00;0;  0.0000000E+00;  1.0000000E+04;  0.0000000E+00;  0.0000000E+00;  1.0000000E+04;  0.0000000E+00;  1.0000000E+04;  0.0000000E+00;  0.0000000E+00;  0.0000000E+00;  0.0000000E+00;
  2.0999999E+00;  9.9999998E-03; -2.5999999E-01;781;  0.0000000E+00;  0.0000000E+00;  0.0000000E+00;  1.0000000E+03;  4.0000001E-01;  0.0000000E+00;0;  0.0000000E+00;  0.0000000E+00;  0.0000000E+00;0;  0.0000000E+00;  1.0000000E+04;  0.0000000E+00;  0.0000000E+00;  1.0000000E+04;  0.0000000E+00;  1.0000000E+04;  0.0000000E+00;  0.0000000E+00;  0.0000000E+00;  0.0000000E+00;
  2.0999999E+00;  9.9999998E-03; -2.3999999E-01;782;  0.0000000E+00;  0.0000000E+00;  0.0000000E+00;  1.0000000E+03;  4.0000001E-01;  0.0000000E+00;0;  0.0000000E+00;  0.0000000E+00;  0.0000000E+00;0;  0.0000000E+00;  1.0000000E+04;  0.0000000E+00;  0.0000000E+00;  1.0000000E+04;  0.0000000E+00;  1.0000000E+04;  0.0000000E+00;  0.0000000E+00;  0.0000000E+00;  0.0000000E+00;
  2.0999999E+00;  9.9999998E-03; -2.2000000E-01;783;  0.0000000E+00;  0.0000000E+00;  0.0000000E+00;  1.0000000E+03;  4.0000001E-01;  0.0000000E+00;0;  0.0000000E+00;  0.0000000E+00;  0.0000000E+00;0;  0.0000000E+00;  1.0000000E+04;  0.0000000E+00;  0.0000000E+00;  1.0000000E+04;  0.0000000E+00;  1.0000000E+04;  0.0000000E+00;  0.0000000E+00;  0.0000000E+00;  0.0000000E+00;
  2.0999999E+00;  9.9999998E-03; -2.0000000E-01;784;  0.0000000E+00;  0.0000000E+00;  0.0000000E+00;  1.0000000E+03;  4.0000001E-01;  0.0000000E+00;0;  0.0000000E+00;  0.0000000E+00;  0.0000000E+00;0;  0.0000000E+00;  1.0000000E+04;  0.0000000E+00;  0.0000000E+00;  1.0000000E+04;  0.0000000E+00;  1.0000000E+04;  0.0000000E+00;  0.0000000E+00;  0.0000000E+00;  0.0000000E+00;
  2.0999999E+00;  9.9999998E-03; -1.8000001E-01;785;  0.0000000E+00;  0.0000000E+00;  0.0000000E+00;  1.0000000E+03;  4.0000001E-01;  0.0000000E+00;0;  0.0000000E+00;  0.0000000E+00;  0.0000000E+00;0;  0.0000000E+00;  1.0000000E+04;  0.0000000E+00;  0.0000000E+00;  1.0000000E+04;  0.0000000E+00;  1.0000000E+04;  0.0000000E+00;  0.0000000E+00;  0.0000000E+00;  0.0000000E+00;
  2.0999999E+00;  9.9999998E-03; -1.6000000E-01;786;  0.0000000E+00;  0.0000000E+00;  0.0000000E+00;  1.0000000E+03;  4.0000001E-01;  0.0000000E+00;0;  0.0000000E+00;  0.0000000E+00;  0.0000000E+00;0;  0.0000000E+00;  1.0000000E+04;  0.0000000E+00;  0.0000000E+00;  1.0000000E+04;  0.0000000E+00;  1.0000000E+04;  0.0000000E+00;  0.0000000E+00;  0.0000000E+00;  0.0000000E+00;
  2.0999999E+00;  9.9999998E-03; -1.4000000E-01;787;  0.0000000E+00;  0.0000000E+00;  0.0000000E+00;  1.0000000E+03;  4.0000001E-01;  0.0000000E+00;0;  0.0000000E+00;  0.0000000E+00;  0.0000000E+00;0;  0.0000000E+00;  1.0000000E+04;  0.0000000E+00;  0.0000000E+00;  1.0000000E+04;  0.0000000E+00;  1.0000000E+04;  0.0000000E+00;  0.0000000E+00;  0.0000000E+00;  0.0000000E+00;
  2.0999999E+00;  9.9999998E-03; -1.2000000E-01;788;  0.0000000E+00;  0.0000000E+00;  0.0000000E+00;  1.0000000E+03;  4.0000001E-01;  0.0000000E+00;0;  0.0000000E+00;  0.0000000E+00;  0.0000000E+00;0;  0.0000000E+00;  1.0000000E+04;  0.0000000E+00;  0.0000000E+00;  1.0000000E+04;  0.0000000E+00;  1.0000000E+04;  0.0000000E+00;  0.0000000E+00;  0.0000000E+00;  0.0000000E+00;
  2.0999999E+00;  9.9999998E-03; -1.0000000E-01;789;  0.0000000E+00;  0.0000000E+00;  0.0000000E+00;  1.0000000E+03;  4.0000001E-01;  0.0000000E+00;0;  0.0000000E+00;  0.0000000E+00;  0.0000000E+00;0;  0.0000000E+00;  1.0000000E+04;  0.0000000E+00;  0.0000000E+00;  1.0000000E+04;  0.0000000E+00;  1.0000000E+04;  0.0000000E+00;  0.0000000E+00;  0.0000000E+00;  0.0000000E+00;
  2.0999999E+00;  9.9999998E-03; -7.9999998E-02;790;  0.0000000E+00;  0.0000000E+00;  0.0000000E+00;  1.0000000E+03;  4.0000001E-01;  0.0000000E+00;0;  0.0000000E+00;  0.0000000E+00;  0.0000000E+00;0;  0.0000000E+00;  1.0000000E+04;  0.0000000E+00;  0.0000000E+00;  1.0000000E+04;  0.0000000E+00;  1.0000000E+04;  0.0000000E+00;  0.0000000E+00;  0.0000000E+00;  0.0000000E+00;
  2.0999999E+00;  9.9999998E-03; -5.9999999E-02;791;  0.0000000E+00;  0.0000000E+00;  0.0000000E+00;  1.0000000E+03;  4.0000001E-01;  0.0000000E+00;0;  0.0000000E+00;  0.0000000E+00;  0.0000000E+00;0;  0.0000000E+00;  1.0000000E+04;  0.0000000E+00;  0.0000000E+00;  1.0000000E+04;  0.0000000E+00;  1.0000000E+04;  0.0000000E+00;  0.0000000E+00;  0.0000000E+00;  0.0000000E+00;
  2.0999999E+00;  9.9999998E-03; -3.9999999E-02;792;  0.0000000E+00;  0.0000000E+00;  0.0000000E+00;  1.0000000E+03;  4.0000001E-01;  0.0000000E+00;0;  0.0000000E+00;  0.0000000E+00;  0.0000000E+00;0;  0.0000000E+00;  1.0000000E+04;  0.0000000E+00;  0.0000000E+00;  1.0000000E+04;  0.0000000E+00;  1.0000000E+04;  0.0000000E+00;  0.0000000E+00;  0.0000000E+00;  0.0000000E+00;
  2.0999999E+00;  9.9999998E-03; -2.0000000E-02;793;  0.0000000E+00;  0.0000000E+00;  0.0000000E+00;  1.0000000E+03;  4.0000001E-01;  0.0000000E+00;0;  0.0000000E+00;  0.0000000E+00;  0.0000000E+00;0;  0.0000000E+00;  1.0000000E+04;  0.0000000E+00;  0.0000000E+00;  1.0000000E+04;  0.0000000E+00;  1.0000000E+04;  0.0000000E+00;  0.0000000E+00;  0.0000000E+00;  0.0000000E+00;
  2.0999999E+00;  9.9999998E-03;  0.0000000E+00;794;  0.0000000E+00;  0.0000000E+00;  0.0000000E+00;  1.0000000E+03;  4.0000001E-01;  0.0000000E+00;0;  0.0000000E+00;  0.0000000E+00;  0.0000000E+00;0;  0.0000000E+00;  1.0000000E+04;  0.0000000E+00;  0.0000000E+00;  1.0000000E+04;  0.0000000E+00;  1.0000000E+04;  0.0000000E+00;  0.0000000E+00;  0.0000000E+00;  0.0000000E+00;
  2.0999999E+00;  9.9999998E-03;  2.0000000E-02;795;  0.0000000E+00;  0.0000000E+00;  0.0000000E+00;  1.0000000E+03;  4.0000001E-01;  0.0000000E+00;0;  0.0000000E+00;  0.0000000E+00;  0.0000000E+00;0;  0.0000000E+00;  1.0000000E+04;  0.0000000E+00;  0.0000000E+00;  1.0000000E+04;  0.0000000E+00;  1.0000000E+04;  0.0000000E+00;  0.0000000E+00;  0.0000000E+00;  0.0000000E+00;
  2.0999999E+00;  9.9999998E-03;  3.9999999E-02;796;  0.0000000E+00;  0.0000000E+00;  0.0000000E+00;  1.0000000E+03;  4.0000001E-01;  0.0000000E+00;0;  0.0000000E+00;  0.0000000E+00;  0.0000000E+00;0;  0.0000000E+00;  1.0000000E+04;  0.0000000E+00;  0.0000000E+00;  1.0000000E+04;  0.0000000E+00;  1.0000000E+04;  0.0000000E+00;  0.0000000E+00;  0.0000000E+00;  0.0000000E+00;
  2.0999999E+00;  9.9999998E-03;  5.9999999E-02;797;  0.0000000E+00;  0.0000000E+00;  0.0000000E+00;  1.0000000E+03;  4.0000001E-01;  0.0000000E+00;0;  0.0000000E+00;  0.0000000E+00;  0.0000000E+00;0;  0.0000000E+00;  1.0000000E+04;  0.0000000E+00;  0.0000000E+00;  1.0000000E+04;  0.0000000E+00;  1.0000000E+04;  0.0000000E+00;  0.0000000E+00;  0.0000000E+00;  0.0000000E+00;
  2.0999999E+00;  9.9999998E-03;  7.9999998E-02;798;  0.0000000E+00;  0.0000000E+00;  0.0000000E+00;  1.0000000E+03;  4.0000001E-01;  0.0000000E+00;0;  0.0000000E+00;  0.0000000E+00;  0.0000000E+00;0;  0.0000000E+00;  1.0000000E+04;  0.0000000E+00;  0.0000000E+00;  1.0000000E+04;  0.0000000E+00;  1.0000000E+04;  0.0000000E+00;  0.0000000E+00;  0.0000000E+00;  0.0000000E+00;
  2.0999999E+00;  9.9999998E-03;  1.0000000E-01;799;  0.0000000E+00;  0.0000000E+00;  0.0000000E+00;  1.0000000E+03;  4.0000001E-01;  0.0000000E+00;0;  0.0000000E+00;  0.0000000E+00;  0.0000000E+00;0;  0.0000000E+00;  1.0000000E+04;  0.0000000E+00;  0.0000000E+00;  1.0000000E+04;  0.0000000E+00;  1.0000000E+04;  0.0000000E+00;  0.0000000E+00;  0.0000000E+00;  0.0000000E+00;
  2.0999999E+00;  9.9999998E-03;  1.2000000E-01;800;  0.0000000E+00;  0.0000000E+00;  0.0000000E+00;  1.0000000E+03;  4.0000001E-01;  0.0000000E+00;0;  0.0000000E+00;  0.0000000E+00;  0.0000000E+00;0;  0.0000000E+00;  1.0000000E+04;  0.0000000E+00;  0.0000000E+00;  1.0000000E+04;  0.0000000E+00;  1.0000000E+04;  0.0000000E+00;  0.0000000E+00;  0.0000000E+00;  0.0000000E+00;
  2.0999999E+00;  9.9999998E-03;  1.4000000E-01;801;  0.0000000E+00;  0.0000000E+00;  0.0000000E+00;  1.0000000E+03;  4.0000001E-01;  0.0000000E+00;0;  0.0000000E+00;  0.0000000E+00;  0.0000000E+00;0;  0.0000000E+00;  1.0000000E+04;  0.0000000E+00;  0.0000000E+00;  1.0000000E+04;  0.0000000E+00;  1.0000000E+04;  0.0000000E+00;  0.0000000E+00;  0.0000000E+00;  0.0000000E+00;
  2.0999999E+00;  9.9999998E-03;  1.6000000E-01;802;  0.0000000E+00;  0.0000000E+00;  0.0000000E+00;  1.0000000E+03;  4.0000001E-01;  0.0000000E+00;0;  0.0000000E+00;  0.0000000E+00;  0.0000000E+00;0;  0.0000000E+00;  1.0000000E+04;  0.0000000E+00;  0.0000000E+00;  1.0000000E+04;  0.0000000E+00;  1.0000000E+04;  0.0000000E+00;  0.0000000E+00;  0.0000000E+00;  0.0000000E+00;
  2.0999999E+00;  9.9999998E-03;  1.8000001E-01;803;  0.0000000E+00;  0.0000000E+00;  0.0000000E+00;  1.0000000E+03;  4.0000001E-01;  0.0000000E+00;0;  0.0000000E+00;  0.0000000E+00;  0.0000000E+00;0;  0.0000000E+00;  1.0000000E+04;  0.0000000E+00;  0.0000000E+00;  1.0000000E+04;  0.0000000E+00;  1.0000000E+04;  0.0000000E+00;  0.0000000E+00;  0.0000000E+00;  0.0000000E+00;
  2.0999999E+00;  9.9999998E-03;  2.0000000E-01;804;  0.0000000E+00;  0.0000000E+00;  0.0000000E+00;  1.0000000E+03;  4.0000001E-01;  0.0000000E+00;0;  0.0000000E+00;  0.0000000E+00;  0.0000000E+00;0;  0.0000000E+00;  1.0000000E+04;  0.0000000E+00;  0.0000000E+00;  1.0000000E+04;  0.0000000E+00;  1.0000000E+04;  0.0000000E+00;  0.0000000E+00;  0.0000000E+00;  0.0000000E+00;
  2.0999999E+00;  9.9999998E-03;  2.2000000E-01;805;  0.0000000E+00;  0.0000000E+00;  0.0000000E+00;  1.0000000E+03;  4.0000001E-01;  0.0000000E+00;0;  0.0000000E+00;  0.0000000E+00;  0.0000000E+00;0;  0.0000000E+00;  1.0000000E+04;  0.0000000E+00;  0.0000000E+00;  1.0000000E+04;  0.0000000E+00;  1.0000000E+04;  0.0000000E+00;  0.0000000E+00;  0.0000000E+00;  0.0000000E+00;
  2.0999999E+00;  9.9999998E-03;  2.3999999E-01;806;  0.0000000E+00;  0.0000000E+00;  0.0000000E+00;  1.0000000E+03;  4.0000001E-01;  0.0000000E+00;0;  0.0000000E+00;  0.0000000E+00;  0.0000000E+00;0;  0.0000000E+00;  1.0000000E+04;  0.0000000E+00;  0.0000000E+00;  1.0000000E+04;  0.0000000E+00;  1.0000000E+04;  0.0000000E+00;  0.0000000E+00;  0.0000000E+00;  0.0000000E+00;
  2.0999999E+00;  9.9999998E-03;  2.5999999E-01;807;  0.0000000E+00;  0.0000000E+00;  0.0000000E+00;  1.0000000E+03;  4.0000001E-01;  0.0000000E+00;0;  0.0000000E+00;  0.0000000E+00;  0.0000000E+00;0;  0.0000000E+00;  1.0000000E+04;  0.0000000E+00;  0.0000000E+00;  1.0000000E+04;  0.0000000E+00;  1.0000000E+04;  0.0000000E+00;  0.0000000E+00;  0.0000000E+00;  0.0000000E+00;
  2.0999999E+00;  9.9999998E-03;  2.8000000E-01;808;  0.0000000E+00;  0.0000000E+00;  0.0000000E+00;  1.0000000E+03;  4.0000001E-01;  0.0000000E+00;0;  0.0000000E+00;  0.0000000E+00;  0.0000000E+00;0;  0.0000000E+00;  1.0000000E+04;  0.0000000E+00;  0.0000000E+00;  1.0000000E+04;  0.0000000E+00;  1.0000000E+04;  0.0000000E+00;  0.0000000E+00;  0.0000000E+00;  0.0000000E+00;
  2.0999999E+00;  9.9999998E-03;  3.0000001E-01;809;  0.0000000E+00;  0.0000000E+00;  0.0000000E+00;  1.0000000E+03;  4.0000001E-01;  0.0000000E+00;0;  0.0000000E+00;  0.0000000E+00;  0.0000000E+00;0;  0.0000000E+00;  1.0000000E+04;  0.0000000E+00;  0.0000000E+00;  1.0000000E+04;  0.0000000E+00;  1.0000000E+04;  0.0000000E+00;  0.0000000E+00;  0.0000000E+00;  0.0000000E+00;
  2.0999999E+00;  9.9999998E-03;  3.1999999E-01;810;  0.0000000E+00;  0.0000000E+00;  0.0000000E+00;  1.0000000E+03;  4.0000001E-01;  0.0000000E+00;0;  0.0000000E+00;  0.0000000E+00;  0.0000000E+00;0;  0.0000000E+00;  1.0000000E+04;  0.0000000E+00;  0.0000000E+00;  1.0000000E+04;  0.0000000E+00;  1.0000000E+04;  0.0000000E+00;  0.0000000E+00;  0.0000000E+00;  0.0000000E+00;
  2.0999999E+00;  9.9999998E-03;  3.4000000E-01;811;  0.0000000E+00;  0.0000000E+00;  0.0000000E+00;  1.0000000E+03;  4.0000001E-01;  0.0000000E+00;0;  0.0000000E+00;  0.0000000E+00;  0.0000000E+00;0;  0.0000000E+00;  1.0000000E+04;  0.0000000E+00;  0.0000000E+00;  1.0000000E+04;  0.0000000E+00;  1.0000000E+04;  0.0000000E+00;  0.0000000E+00;  0.0000000E+00;  0.0000000E+00;
  2.0999999E+00;  9.9999998E-03;  3.6000001E-01;812;  0.0000000E+00;  0.0000000E+00;  0.0000000E+00;  1.0000000E+03;  4.0000001E-01;  0.0000000E+00;0;  0.0000000E+00;  0.0000000E+00;  0.0000000E+00;0;  0.0000000E+00;  1.0000000E+04;  0.0000000E+00;  0.0000000E+00;  1.0000000E+04;  0.0000000E+00;  1.0000000E+04;  0.0000000E+00;  0.0000000E+00;  0.0000000E+00;  0.0000000E+00;
  2.0999999E+00;  9.9999998E-03;  3.8000000E-01;813;  0.0000000E+00;  0.0000000E+00;  0.0000000E+00;  1.0000000E+03;  4.0000001E-01;  0.0000000E+00;0;  0.0000000E+00;  0.0000000E+00;  0.0000000E+00;0;  0.0000000E+00;  1.0000000E+04;  0.0000000E+00;  0.0000000E+00;  1.0000000E+04;  0.0000000E+00;  1.0000000E+04;  0.0000000E+00;  0.0000000E+00;  0.0000000E+00;  0.0000000E+00;
  2.0999999E+00;  9.9999998E-03;  4.0000001E-01;814;  0.0000000E+00;  0.0000000E+00;  0.0000000E+00;  1.0000000E+03;  4.0000001E-01;  0.0000000E+00;0;  0.0000000E+00;  0.0000000E+00;  0.0000000E+00;0;  0.0000000E+00;  1.0000000E+04;  0.0000000E+00;  0.0000000E+00;  1.0000000E+04;  0.0000000E+00;  1.0000000E+04;  0.0000000E+00;  0.0000000E+00;  0.0000000E+00;  0.0000000E+00;
  2.1199999E+00;  9.9999998E-03; -4.1999999E-01;815;  0.0000000E+00;  0.0000000E+00;  0.0000000E+00;  1.0000000E+03;  4.0000001E-01;  0.0000000E+00;0;  0.0000000E+00;  0.0000000E+00;  0.0000000E+00;0;  0.0000000E+00;  1.0000000E+04;  0.0000000E+00;  0.0000000E+00;  1.0000000E+04;  0.0000000E+00;  1.0000000E+04;  0.0000000E+00;  0.0000000E+00;  0.0000000E+00;  0.0000000E+00;
  2.1199999E+00;  9.9999998E-03; -4.0000001E-01;816;  0.0000000E+00;  0.0000000E+00;  0.0000000E+00;  1.0000000E+03;  4.0000001E-01;  0.0000000E+00;0;  0.0000000E+00;  0.0000000E+00;  0.0000000E+00;0;  0.0000000E+00;  1.0000000E+04;  0.0000000E+00;  0.0000000E+00;  1.0000000E+04;  0.0000000E+00;  1.0000000E+04;  0.0000000E+00;  0.0000000E+00;  0.0000000E+00;  0.0000000E+00;
  2.1199999E+00;  9.9999998E-03; -3.8000000E-01;817;  0.0000000E+00;  0.0000000E+00;  0.0000000E+00;  1.0000000E+03;  4.0000001E-01;  0.0000000E+00;0;  0.0000000E+00;  0.0000000E+00;  0.0000000E+00;0;  0.0000000E+00;  1.0000000E+04;  0.0000000E+00;  0.0000000E+00;  1.0000000E+04;  0.0000000E+00;  1.0000000E+04;  0.0000000E+00;  0.0000000E+00;  0.0000000E+00;  0.0000000E+00;
  2.1199999E+00;  9.9999998E-03; -3.6000001E-01;818;  0.0000000E+00;  0.0000000E+00;  0.0000000E+00;  1.0000000E+03;  4.0000001E-01;  0.0000000E+00;0;  0.0000000E+00;  0.0000000E+00;  0.0000000E+00;0;  0.0000000E+00;  1.0000000E+04;  0.0000000E+00;  0.0000000E+00;  1.0000000E+04;  0.0000000E+00;  1.0000000E+04;  0.0000000E+00;  0.0000000E+00;  0.0000000E+00;  0.0000000E+00;
  2.1199999E+00;  9.9999998E-03; -3.4000000E-01;819;  0.0000000E+00;  0.0000000E+00;  0.0000000E+00;  1.0000000E+03;  4.0000001E-01;  0.0000000E+00;0;  0.0000000E+00;  0.0000000E+00;  0.0000000E+00;0;  0.0000000E+00;  1.0000000E+04;  0.0000000E+00;  0.0000000E+00;  1.0000000E+04;  0.0000000E+00;  1.0000000E+04;  0.0000000E+00;  0.0000000E+00;  0.0000000E+00;  0.0000000E+00;
  2.1199999E+00;  9.9999998E-03; -3.1999999E-01;820;  0.0000000E+00;  0.0000000E+00;  0.0000000E+00;  1.0000000E+03;  4.0000001E-01;  0.0000000E+00;0;  0.0000000E+00;  0.0000000E+00;  0.0000000E+00;0;  0.0000000E+00;  1.0000000E+04;  0.0000000E+00;  0.0000000E+00;  1.0000000E+04;  0.0000000E+00;  1.0000000E+04;  0.0000000E+00;  0.0000000E+00;  0.0000000E+00;  0.0000000E+00;
  2.1199999E+00;  9.9999998E-03; -3.0000001E-01;821;  0.0000000E+00;  0.0000000E+00;  0.0000000E+00;  1.0000000E+03;  4.0000001E-01;  0.0000000E+00;0;  0.0000000E+00;  0.0000000E+00;  0.0000000E+00;0;  0.0000000E+00;  1.0000000E+04;  0.0000000E+00;  0.0000000E+00;  1.0000000E+04;  0.0000000E+00;  1.0000000E+04;  0.0000000E+00;  0.0000000E+00;  0.0000000E+00;  0.0000000E+00;
  2.1199999E+00;  9.9999998E-03; -2.8000000E-01;822;  0.0000000E+00;  0.0000000E+00;  0.0000000E+00;  1.0000000E+03;  4.0000001E-01;  0.0000000E+00;0;  0.0000000E+00;  0.0000000E+00;  0.0000000E+00;0;  0.0000000E+00;  1.0000000E+04;  0.0000000E+00;  0.0000000E+00;  1.0000000E+04;  0.0000000E+00;  1.0000000E+04;  0.0000000E+00;  0.0000000E+00;  0.0000000E+00;  0.0000000E+00;
  2.1199999E+00;  9.9999998E-03; -2.5999999E-01;823;  0.0000000E+00;  0.0000000E+00;  0.0000000E+00;  1.0000000E+03;  4.0000001E-01;  0.0000000E+00;0;  0.0000000E+00;  0.0000000E+00;  0.0000000E+00;0;  0.0000000E+00;  1.0000000E+04;  0.0000000E+00;  0.0000000E+00;  1.0000000E+04;  0.0000000E+00;  1.0000000E+04;  0.0000000E+00;  0.0000000E+00;  0.0000000E+00;  0.0000000E+00;
  2.1199999E+00;  9.9999998E-03; -2.3999999E-01;824;  0.0000000E+00;  0.0000000E+00;  0.0000000E+00;  1.0000000E+03;  4.0000001E-01;  0.0000000E+00;0;  0.0000000E+00;  0.0000000E+00;  0.0000000E+00;0;  0.0000000E+00;  1.0000000E+04;  0.0000000E+00;  0.0000000E+00;  1.0000000E+04;  0.0000000E+00;  1.0000000E+04;  0.0000000E+00;  0.0000000E+00;  0.0000000E+00;  0.0000000E+00;
  2.1199999E+00;  9.9999998E-03; -2.2000000E-01;825;  0.0000000E+00;  0.0000000E+00;  0.0000000E+00;  1.0000000E+03;  4.0000001E-01;  0.0000000E+00;0;  0.0000000E+00;  0.0000000E+00;  0.0000000E+00;0;  0.0000000E+00;  1.0000000E+04;  0.0000000E+00;  0.0000000E+00;  1.0000000E+04;  0.0000000E+00;  1.0000000E+04;  0.0000000E+00;  0.0000000E+00;  0.0000000E+00;  0.0000000E+00;
  2.1199999E+00;  9.9999998E-03; -2.0000000E-01;826;  0.0000000E+00;  0.0000000E+00;  0.0000000E+00;  1.0000000E+03;  4.0000001E-01;  0.0000000E+00;0;  0.0000000E+00;  0.0000000E+00;  0.0000000E+00;0;  0.0000000E+00;  1.0000000E+04;  0.0000000E+00;  0.0000000E+00;  1.0000000E+04;  0.0000000E+00;  1.0000000E+04;  0.0000000E+00;  0.0000000E+00;  0.0000000E+00;  0.0000000E+00;
  2.1199999E+00;  9.9999998E-03; -1.8000001E-01;827;  0.0000000E+00;  0.0000000E+00;  0.0000000E+00;  1.0000000E+03;  4.0000001E-01;  0.0000000E+00;0;  0.0000000E+00;  0.0000000E+00;  0.0000000E+00;0;  0.0000000E+00;  1.0000000E+04;  0.0000000E+00;  0.0000000E+00;  1.0000000E+04;  0.0000000E+00;  1.0000000E+04;  0.0000000E+00;  0.0000000E+00;  0.0000000E+00;  0.0000000E+00;
  2.1199999E+00;  9.9999998E-03; -1.6000000E-01;828;  0.0000000E+00;  0.0000000E+00;  0.0000000E+00;  1.0000000E+03;  4.0000001E-01;  0.0000000E+00;0;  0.0000000E+00;  0.0000000E+00;  0.0000000E+00;0;  0.0000000E+00;  1.0000000E+04;  0.0000000E+00;  0.0000000E+00;  1.0000000E+04;  0.0000000E+00;  1.0000000E+04;  0.0000000E+00;  0.0000000E+00;  0.0000000E+00;  0.0000000E+00;
  2.1199999E+00;  9.9999998E-03; -1.4000000E-01;829;  0.0000000E+00;  0.0000000E+00;  0.0000000E+00;  1.0000000E+03;  4.0000001E-01;  0.0000000E+00;0;  0.0000000E+00;  0.0000000E+00;  0.0000000E+00;0;  0.0000000E+00;  1.0000000E+04;  0.0000000E+00;  0.0000000E+00;  1.0000000E+04;  0.0000000E+00;  1.0000000E+04;  0.0000000E+00;  0.0000000E+00;  0.0000000E+00;  0.0000000E+00;
  2.1199999E+00;  9.9999998E-03; -1.2000000E-01;830;  0.0000000E+00;  0.0000000E+00;  0.0000000E+00;  1.0000000E+03;  4.0000001E-01;  0.0000000E+00;0;  0.0000000E+00;  0.0000000E+00;  0.0000000E+00;0;  0.0000000E+00;  1.0000000E+04;  0.0000000E+00;  0.0000000E+00;  1.0000000E+04;  0.0000000E+00;  1.0000000E+04;  0.0000000E+00;  0.0000000E+00;  0.0000000E+00;  0.0000000E+00;
  2.1199999E+00;  9.9999998E-03; -1.0000000E-01;831;  0.0000000E+00;  0.0000000E+00;  0.0000000E+00;  1.0000000E+03;  4.0000001E-01;  0.0000000E+00;0;  0.0000000E+00;  0.0000000E+00;  0.0000000E+00;0;  0.0000000E+00;  1.0000000E+04;  0.0000000E+00;  0.0000000E+00;  1.0000000E+04;  0.0000000E+00;  1.0000000E+04;  0.0000000E+00;  0.0000000E+00;  0.0000000E+00;  0.0000000E+00;
  2.1199999E+00;  9.9999998E-03; -7.9999998E-02;832;  0.0000000E+00;  0.0000000E+00;  0.0000000E+00;  1.0000000E+03;  4.0000001E-01;  0.0000000E+00;0;  0.0000000E+00;  0.0000000E+00;  0.0000000E+00;0;  0.0000000E+00;  1.0000000E+04;  0.0000000E+00;  0.0000000E+00;  1.0000000E+04;  0.0000000E+00;  1.0000000E+04;  0.0000000E+00;  0.0000000E+00;  0.0000000E+00;  0.0000000E+00;
  2.1199999E+00;  9.9999998E-03; -5.9999999E-02;833;  0.0000000E+00;  0.0000000E+00;  0.0000000E+00;  1.0000000E+03;  4.0000001E-01;  0.0000000E+00;0;  0.0000000E+00;  0.0000000E+00;  0.0000000E+00;0;  0.0000000E+00;  1.0000000E+04;  0.0000000E+00;  0.0000000E+00;  1.0000000E+04;  0.0000000E+00;  1.0000000E+04;  0.0000000E+00;  0.0000000E+00;  0.0000000E+00;  0.0000000E+00;
  2.1199999E+00;  9.9999998E-03; -3.9999999E-02;834;  0.0000000E+00;  0.0000000E+00;  0.0000000E+00;  1.0000000E+03;  4.0000001E-01;  0.0000000E+00;0;  0.0000000E+00;  0.0000000E+00;  0.0000000E+00;0;  0.0000000E+00;  1.0000000E+04;  0.0000000E+00;  0.0000000E+00;  1.0000000E+04;  0.0000000E+00;  1.0000000E+04;  0.0000000E+00;  0.0000000E+00;  0.0000000E+00;  0.0000000E+00;
  2.1199999E+00;  9.9999998E-03; -2.0000000E-02;835;  0.0000000E+00;  0.0000000E+00;  0.0000000E+00;  1.0000000E+03;  4.0000001E-01;  0.0000000E+00;0;  0.0000000E+00;  0.0000000E+00;  0.0000000E+00;0;  0.0000000E+00;  1.0000000E+04;  0.0000000E+00;  0.0000000E+00;  1.0000000E+04;  0.0000000E+00;  1.0000000E+04;  0.0000000E+00;  0.0000000E+00;  0.0000000E+00;  0.0000000E+00;
  2.1199999E+00;  9.9999998E-03;  0.0000000E+00;836;  0.0000000E+00;  0.0000000E+00;  0.0000000E+00;  1.0000000E+03;  4.0000001E-01;  0.0000000E+00;0;  0.0000000E+00;  0.0000000E+00;  0.0000000E+00;0;  0.0000000E+00;  1.0000000E+04;  0.0000000E+00;  0.0000000E+00;  1.0000000E+04;  0.0000000E+00;  1.0000000E+04;  0.0000000E+00;  0.0000000E+00;  0.0000000E+00;  0.0000000E+00;
  2.1199999E+00;  9.9999998E-03;  2.0000000E-02;837;  0.0000000E+00;  0.0000000E+00;  0.0000000E+00;  1.0000000E+03;  4.0000001E-01;  0.0000000E+00;0;  0.0000000E+00;  0.0000000E+00;  0.0000000E+00;0;  0.0000000E+00;  1.0000000E+04;  0.0000000E+00;  0.0000000E+00;  1.0000000E+04;  0.0000000E+00;  1.0000000E+04;  0.0000000E+00;  0.0000000E+00;  0.0000000E+00;  0.0000000E+00;
  2.1199999E+00;  9.9999998E-03;  3.9999999E-02;838;  0.0000000E+00;  0.0000000E+00;  0.0000000E+00;  1.0000000E+03;  4.0000001E-01;  0.0000000E+00;0;  0.0000000E+00;  0.0000000E+00;  0.0000000E+00;0;  0.0000000E+00;  1.0000000E+04;  0.0000000E+00;  0.0000000E+00;  1.0000000E+04;  0.0000000E+00;  1.0000000E+04;  0.0000000E+00;  0.0000000E+00;  0.0000000E+00;  0.0000000E+00;
  2.1199999E+00;  9.9999998E-03;  5.9999999E-02;839;  0.0000000E+00;  0.0000000E+00;  0.0000000E+00;  1.0000000E+03;  4.0000001E-01;  0.0000000E+00;0;  0.0000000E+00;  0.0000000E+00;  0.0000000E+00;0;  0.0000000E+00;  1.0000000E+04;  0.0000000E+00;  0.0000000E+00;  1.0000000E+04;  0.0000000E+00;  1.0000000E+04;  0.0000000E+00;  0.0000000E+00;  0.0000000E+00;  0.0000000E+00;
  2.1199999E+00;  9.9999998E-03;  7.9999998E-02;840;  0.0000000E+00;  0.0000000E+00;  0.0000000E+00;  1.0000000E+03;  4.0000001E-01;  0.0000000E+00;0;  0.0000000E+00;  0.0000000E+00;  0.0000000E+00;0;  0.0000000E+00;  1.0000000E+04;  0.0000000E+00;  0.0000000E+00;  1.0000000E+04;  0.0000000E+00;  1.0000000E+04;  0.0000000E+00;  0.0000000E+00;  0.0000000E+00;  0.0000000E+00;
  2.1199999E+00;  9.9999998E-03;  1.0000000E-01;841;  0.0000000E+00;  0.0000000E+00;  0.0000000E+00;  1.0000000E+03;  4.0000001E-01;  0.0000000E+00;0;  0.0000000E+00;  0.0000000E+00;  0.0000000E+00;0;  0.0000000E+00;  1.0000000E+04;  0.0000000E+00;  0.0000000E+00;  1.0000000E+04;  0.0000000E+00;  1.0000000E+04;  0.0000000E+00;  0.0000000E+00;  0.0000000E+00;  0.0000000E+00;
  2.1199999E+00;  9.9999998E-03;  1.2000000E-01;842;  0.0000000E+00;  0.0000000E+00;  0.0000000E+00;  1.0000000E+03;  4.0000001E-01;  0.0000000E+00;0;  0.0000000E+00;  0.0000000E+00;  0.0000000E+00;0;  0.0000000E+00;  1.0000000E+04;  0.0000000E+00;  0.0000000E+00;  1.0000000E+04;  0.0000000E+00;  1.0000000E+04;  0.0000000E+00;  0.0000000E+00;  0.0000000E+00;  0.0000000E+00;
  2.1199999E+00;  9.9999998E-03;  1.4000000E-01;843;  0.0000000E+00;  0.0000000E+00;  0.0000000E+00;  1.0000000E+03;  4.0000001E-01;  0.0000000E+00;0;  0.0000000E+00;  0.0000000E+00;  0.0000000E+00;0;  0.0000000E+00;  1.0000000E+04;  0.0000000E+00;  0.0000000E+00;  1.0000000E+04;  0.0000000E+00;  1.0000000E+04;  0.0000000E+00;  0.0000000E+00;  0.0000000E+00;  0.0000000E+00;
  2.1199999E+00;  9.9999998E-03;  1.6000000E-01;844;  0.0000000E+00;  0.0000000E+00;  0.0000000E+00;  1.0000000E+03;  4.0000001E-01;  0.0000000E+00;0;  0.0000000E+00;  0.0000000E+00;  0.0000000E+00;0;  0.0000000E+00;  1.0000000E+04;  0.0000000E+00;  0.0000000E+00;  1.0000000E+04;  0.0000000E+00;  1.0000000E+04;  0.0000000E+00;  0.0000000E+00;  0.0000000E+00;  0.0000000E+00;
  2.1199999E+00;  9.9999998E-03;  1.8000001E-01;845;  0.0000000E+00;  0.0000000E+00;  0.0000000E+00;  1.0000000E+03;  4.0000001E-01;  0.0000000E+00;0;  0.0000000E+00;  0.0000000E+00;  0.0000000E+00;0;  0.0000000E+00;  1.0000000E+04;  0.0000000E+00;  0.0000000E+00;  1.0000000E+04;  0.0000000E+00;  1.0000000E+04;  0.0000000E+00;  0.0000000E+00;  0.0000000E+00;  0.0000000E+00;
  2.1199999E+00;  9.9999998E-03;  2.0000000E-01;846;  0.0000000E+00;  0.0000000E+00;  0.0000000E+00;  1.0000000E+03;  4.0000001E-01;  0.0000000E+00;0;  0.0000000E+00;  0.0000000E+00;  0.0000000E+00;0;  0.0000000E+00;  1.0000000E+04;  0.0000000E+00;  0.0000000E+00;  1.0000000E+04;  0.0000000E+00;  1.0000000E+04;  0.0000000E+00;  0.0000000E+00;  0.0000000E+00;  0.0000000E+00;
  2.1199999E+00;  9.9999998E-03;  2.2000000E-01;847;  0.0000000E+00;  0.0000000E+00;  0.0000000E+00;  1.0000000E+03;  4.0000001E-01;  0.0000000E+00;0;  0.0000000E+00;  0.0000000E+00;  0.0000000E+00;0;  0.0000000E+00;  1.0000000E+04;  0.0000000E+00;  0.0000000E+00;  1.0000000E+04;  0.0000000E+00;  1.0000000E+04;  0.0000000E+00;  0.0000000E+00;  0.0000000E+00;  0.0000000E+00;
  2.1199999E+00;  9.9999998E-03;  2.3999999E-01;848;  0.0000000E+00;  0.0000000E+00;  0.0000000E+00;  1.0000000E+03;  4.0000001E-01;  0.0000000E+00;0;  0.0000000E+00;  0.0000000E+00;  0.0000000E+00;0;  0.0000000E+00;  1.0000000E+04;  0.0000000E+00;  0.0000000E+00;  1.0000000E+04;  0.0000000E+00;  1.0000000E+04;  0.0000000E+00;  0.0000000E+00;  0.0000000E+00;  0.0000000E+00;
  2.1199999E+00;  9.9999998E-03;  2.5999999E-01;849;  0.0000000E+00;  0.0000000E+00;  0.0000000E+00;  1.0000000E+03;  4.0000001E-01;  0.0000000E+00;0;  0.0000000E+00;  0.0000000E+00;  0.0000000E+00;0;  0.0000000E+00;  1.0000000E+04;  0.0000000E+00;  0.0000000E+00;  1.0000000E+04;  0.0000000E+00;  1.0000000E+04;  0.0000000E+00;  0.0000000E+00;  0.0000000E+00;  0.0000000E+00;
  2.1199999E+00;  9.9999998E-03;  2.8000000E-01;850;  0.0000000E+00;  0.0000000E+00;  0.0000000E+00;  1.0000000E+03;  4.0000001E-01;  0.0000000E+00;0;  0.0000000E+00;  0.0000000E+00;  0.0000000E+00;0;  0.0000000E+00;  1.0000000E+04;  0.0000000E+00;  0.0000000E+00;  1.0000000E+04;  0.0000000E+00;  1.0000000E+04;  0.0000000E+00;  0.0000000E+00;  0.0000000E+00;  0.0000000E+00;
  2.1199999E+00;  9.9999998E-03;  3.0000001E-01;851;  0.0000000E+00;  0.0000000E+00;  0.0000000E+00;  1.0000000E+03;  4.0000001E-01;  0.0000000E+00;0;  0.0000000E+00;  0.0000000E+00;  0.0000000E+00;0;  0.0000000E+00;  1.0000000E+04;  0.0000000E+00;  0.0000000E+00;  1.0000000E+04;  0.0000000E+00;  1.0000000E+04;  0.0000000E+00;  0.0000000E+00;  0.0000000E+00;  0.0000000E+00;
  2.1199999E+00;  9.9999998E-03;  3.1999999E-01;852;  0.0000000E+00;  0.0000000E+00;  0.0000000E+00;  1.0000000E+03;  4.0000001E-01;  0.0000000E+00;0;  0.0000000E+00;  0.0000000E+00;  0.0000000E+00;0;  0.0000000E+00;  1.0000000E+04;  0.0000000E+00;  0.0000000E+00;  1.0000000E+04;  0.0000000E+00;  1.0000000E+04;  0.0000000E+00;  0.0000000E+00;  0.0000000E+00;  0.0000000E+00;
  2.1199999E+00;  9.9999998E-03;  3.4000000E-01;853;  0.0000000E+00;  0.0000000E+00;  0.0000000E+00;  1.0000000E+03;  4.0000001E-01;  0.0000000E+00;0;  0.0000000E+00;  0.0000000E+00;  0.0000000E+00;0;  0.0000000E+00;  1.0000000E+04;  0.0000000E+00;  0.0000000E+00;  1.0000000E+04;  0.0000000E+00;  1.0000000E+04;  0.0000000E+00;  0.0000000E+00;  0.0000000E+00;  0.0000000E+00;
  2.1199999E+00;  9.9999998E-03;  3.6000001E-01;854;  0.0000000E+00;  0.0000000E+00;  0.0000000E+00;  1.0000000E+03;  4.0000001E-01;  0.0000000E+00;0;  0.0000000E+00;  0.0000000E+00;  0.0000000E+00;0;  0.0000000E+00;  1.0000000E+04;  0.0000000E+00;  0.0000000E+00;  1.0000000E+04;  0.0000000E+00;  1.0000000E+04;  0.0000000E+00;  0.0000000E+00;  0.0000000E+00;  0.0000000E+00;
  2.1199999E+00;  9.9999998E-03;  3.8000000E-01;855;  0.0000000E+00;  0.0000000E+00;  0.0000000E+00;  1.0000000E+03;  4.0000001E-01;  0.0000000E+00;0;  0.0000000E+00;  0.0000000E+00;  0.0000000E+00;0;  0.0000000E+00;  1.0000000E+04;  0.0000000E+00;  0.0000000E+00;  1.0000000E+04;  0.0000000E+00;  1.0000000E+04;  0.0000000E+00;  0.0000000E+00;  0.0000000E+00;  0.0000000E+00;
  2.1199999E+00;  9.9999998E-03;  4.0000001E-01;856;  0.0000000E+00;  0.0000000E+00;  0.0000000E+00;  1.0000000E+03;  4.0000001E-01;  0.0000000E+00;0;  0.0000000E+00;  0.0000000E+00;  0.0000000E+00;0;  0.0000000E+00;  1.0000000E+04;  0.0000000E+00;  0.0000000E+00;  1.0000000E+04;  0.0000000E+00;  1.0000000E+04;  0.0000000E+00;  0.0000000E+00;  0.0000000E+00;  0.0000000E+00;
  2.1400001E+00;  9.9999998E-03; -3.8000000E-01;857;  0.0000000E+00;  0.0000000E+00;  0.0000000E+00;  1.0000000E+03;  4.0000001E-01;  0.0000000E+00;0;  0.0000000E+00;  0.0000000E+00;  0.0000000E+00;0;  0.0000000E+00;  1.0000000E+04;  0.0000000E+00;  0.0000000E+00;  1.0000000E+04;  0.0000000E+00;  1.0000000E+04;  0.0000000E+00;  0.0000000E+00;  0.0000000E+00;  0.0000000E+00;
  2.1400001E+00;  9.9999998E-03; -3.6000001E-01;858;  0.0000000E+00;  0.0000000E+00;  0.0000000E+00;  1.0000000E+03;  4.0000001E-01;  0.0000000E+00;0;  0.0000000E+00;  0.0000000E+00;  0.0000000E+00;0;  0.0000000E+00;  1.0000000E+04;  0.0000000E+00;  0.0000000E+00;  1.0000000E+04;  0.0000000E+00;  1.0000000E+04;  0.0000000E+00;  0.0000000E+00;  0.0000000E+00;  0.0000000E+00;
  2.1400001E+00;  9.9999998E-03; -3.4000000E-01;859;  0.0000000E+00;  0.0000000E+00;  0.0000000E+00;  1.0000000E+03;  4.0000001E-01;  0.0000000E+00;0;  0.0000000E+00;  0.0000000E+00;  0.0000000E+00;0;  0.0000000E+00;  1.0000000E+04;  0.0000000E+00;  0.0000000E+00;  1.0000000E+04;  0.0000000E+00;  1.0000000E+04;  0.0000000E+00;  0.0000000E+00;  0.0000000E+00;  0.0000000E+00;
  2.1400001E+00;  9.9999998E-03; -3.1999999E-01;860;  0.0000000E+00;  0.0000000E+00;  0.0000000E+00;  1.0000000E+03;  4.0000001E-01;  0.0000000E+00;0;  0.0000000E+00;  0.0000000E+00;  0.0000000E+00;0;  0.0000000E+00;  1.0000000E+04;  0.0000000E+00;  0.0000000E+00;  1.0000000E+04;  0.0000000E+00;  1.0000000E+04;  0.0000000E+00;  0.0000000E+00;  0.0000000E+00;  0.0000000E+00;
  2.1400001E+00;  9.9999998E-03; -3.0000001E-01;861;  0.0000000E+00;  0.0000000E+00;  0.0000000E+00;  1.0000000E+03;  4.0000001E-01;  0.0000000E+00;0;  0.0000000E+00;  0.0000000E+00;  0.0000000E+00;0;  0.0000000E+00;  1.0000000E+04;  0.0000000E+00;  0.0000000E+00;  1.0000000E+04;  0.0000000E+00;  1.0000000E+04;  0.0000000E+00;  0.0000000E+00;  0.0000000E+00;  0.0000000E+00;
  2.1400001E+00;  9.9999998E-03; -2.8000000E-01;862;  0.0000000E+00;  0.0000000E+00;  0.0000000E+00;  1.0000000E+03;  4.0000001E-01;  0.0000000E+00;0;  0.0000000E+00;  0.0000000E+00;  0.0000000E+00;0;  0.0000000E+00;  1.0000000E+04;  0.0000000E+00;  0.0000000E+00;  1.0000000E+04;  0.0000000E+00;  1.0000000E+04;  0.0000000E+00;  0.0000000E+00;  0.0000000E+00;  0.0000000E+00;
  2.1400001E+00;  9.9999998E-03; -2.5999999E-01;863;  0.0000000E+00;  0.0000000E+00;  0.0000000E+00;  1.0000000E+03;  4.0000001E-01;  0.0000000E+00;0;  0.0000000E+00;  0.0000000E+00;  0.0000000E+00;0;  0.0000000E+00;  1.0000000E+04;  0.0000000E+00;  0.0000000E+00;  1.0000000E+04;  0.0000000E+00;  1.0000000E+04;  0.0000000E+00;  0.0000000E+00;  0.0000000E+00;  0.0000000E+00;
  2.1400001E+00;  9.9999998E-03; -2.3999999E-01;864;  0.0000000E+00;  0.0000000E+00;  0.0000000E+00;  1.0000000E+03;  4.0000001E-01;  0.0000000E+00;0;  0.0000000E+00;  0.0000000E+00;  0.0000000E+00;0;  0.0000000E+00;  1.0000000E+04;  0.0000000E+00;  0.0000000E+00;  1.0000000E+04;  0.0000000E+00;  1.0000000E+04;  0.0000000E+00;  0.0000000E+00;  0.0000000E+00;  0.0000000E+00;
  2.1400001E+00;  9.9999998E-03; -2.2000000E-01;865;  0.0000000E+00;  0.0000000E+00;  0.0000000E+00;  1.0000000E+03;  4.0000001E-01;  0.0000000E+00;0;  0.0000000E+00;  0.0000000E+00;  0.0000000E+00;0;  0.0000000E+00;  1.0000000E+04;  0.0000000E+00;  0.0000000E+00;  1.0000000E+04;  0.0000000E+00;  1.0000000E+04;  0.0000000E+00;  0.0000000E+00;  0.0000000E+00;  0.0000000E+00;
  2.1400001E+00;  9.9999998E-03; -2.0000000E-01;866;  0.0000000E+00;  0.0000000E+00;  0.0000000E+00;  1.0000000E+03;  4.0000001E-01;  0.0000000E+00;0;  0.0000000E+00;  0.0000000E+00;  0.0000000E+00;0;  0.0000000E+00;  1.0000000E+04;  0.0000000E+00;  0.0000000E+00;  1.0000000E+04;  0.0000000E+00;  1.0000000E+04;  0.0000000E+00;  0.0000000E+00;  0.0000000E+00;  0.0000000E+00;
  2.1400001E+00;  9.9999998E-03; -1.8000001E-01;867;  0.0000000E+00;  0.0000000E+00;  0.0000000E+00;  1.0000000E+03;  4.0000001E-01;  0.0000000E+00;0;  0.0000000E+00;  0.0000000E+00;  0.0000000E+00;0;  0.0000000E+00;  1.0000000E+04;  0.0000000E+00;  0.0000000E+00;  1.0000000E+04;  0.0000000E+00;  1.0000000E+04;  0.0000000E+00;  0.0000000E+00;  0.0000000E+00;  0.0000000E+00;
  2.1400001E+00;  9.9999998E-03; -1.6000000E-01;868;  0.0000000E+00;  0.0000000E+00;  0.0000000E+00;  1.0000000E+03;  4.0000001E-01;  0.0000000E+00;0;  0.0000000E+00;  0.0000000E+00;  0.0000000E+00;0;  0.0000000E+00;  1.0000000E+04;  0.0000000E+00;  0.0000000E+00;  1.0000000E+04;  0.0000000E+00;  1.0000000E+04;  0.0000000E+00;  0.0000000E+00;  0.0000000E+00;  0.0000000E+00;
  2.1400001E+00;  9.9999998E-03; -1.4000000E-01;869;  0.0000000E+00;  0.0000000E+00;  0.0000000E+00;  1.0000000E+03;  4.0000001E-01;  0.0000000E+00;0;  0.0000000E+00;  0.0000000E+00;  0.0000000E+00;0;  0.0000000E+00;  1.0000000E+04;  0.0000000E+00;  0.0000000E+00;  1.0000000E+04;  0.0000000E+00;  1.0000000E+04;  0.0000000E+00;  0.0000000E+00;  0.0000000E+00;  0.0000000E+00;
  2.1400001E+00;  9.9999998E-03; -1.2000000E-01;870;  0.0000000E+00;  0.0000000E+00;  0.0000000E+00;  1.0000000E+03;  4.0000001E-01;  0.0000000E+00;0;  0.0000000E+00;  0.0000000E+00;  0.0000000E+00;0;  0.0000000E+00;  1.0000000E+04;  0.0000000E+00;  0.0000000E+00;  1.0000000E+04;  0.0000000E+00;  1.0000000E+04;  0.0000000E+00;  0.0000000E+00;  0.0000000E+00;  0.0000000E+00;
  2.1400001E+00;  9.9999998E-03; -1.0000000E-01;871;  0.0000000E+00;  0.0000000E+00;  0.0000000E+00;  1.0000000E+03;  4.0000001E-01;  0.0000000E+00;0;  0.0000000E+00;  0.0000000E+00;  0.0000000E+00;0;  0.0000000E+00;  1.0000000E+04;  0.0000000E+00;  0.0000000E+00;  1.0000000E+04;  0.0000000E+00;  1.0000000E+04;  0.0000000E+00;  0.0000000E+00;  0.0000000E+00;  0.0000000E+00;
  2.1400001E+00;  9.9999998E-03; -7.9999998E-02;872;  0.0000000E+00;  0.0000000E+00;  0.0000000E+00;  1.0000000E+03;  4.0000001E-01;  0.0000000E+00;0;  0.0000000E+00;  0.0000000E+00;  0.0000000E+00;0;  0.0000000E+00;  1.0000000E+04;  0.0000000E+00;  0.0000000E+00;  1.0000000E+04;  0.0000000E+00;  1.0000000E+04;  0.0000000E+00;  0.0000000E+00;  0.0000000E+00;  0.0000000E+00;
  2.1400001E+00;  9.9999998E-03; -5.9999999E-02;873;  0.0000000E+00;  0.0000000E+00;  0.0000000E+00;  1.0000000E+03;  4.0000001E-01;  0.0000000E+00;0;  0.0000000E+00;  0.0000000E+00;  0.0000000E+00;0;  0.0000000E+00;  1.0000000E+04;  0.0000000E+00;  0.0000000E+00;  1.0000000E+04;  0.0000000E+00;  1.0000000E+04;  0.0000000E+00;  0.0000000E+00;  0.0000000E+00;  0.0000000E+00;
  2.1400001E+00;  9.9999998E-03; -3.9999999E-02;874;  0.0000000E+00;  0.0000000E+00;  0.0000000E+00;  1.0000000E+03;  4.0000001E-01;  0.0000000E+00;0;  0.0000000E+00;  0.0000000E+00;  0.0000000E+00;0;  0.0000000E+00;  1.0000000E+04;  0.0000000E+00;  0.0000000E+00;  1.0000000E+04;  0.0000000E+00;  1.0000000E+04;  0.0000000E+00;  0.0000000E+00;  0.0000000E+00;  0.0000000E+00;
  2.1400001E+00;  9.9999998E-03; -2.0000000E-02;875;  0.0000000E+00;  0.0000000E+00;  0.0000000E+00;  1.0000000E+03;  4.0000001E-01;  0.0000000E+00;0;  0.0000000E+00;  0.0000000E+00;  0.0000000E+00;0;  0.0000000E+00;  1.0000000E+04;  0.0000000E+00;  0.0000000E+00;  1.0000000E+04;  0.0000000E+00;  1.0000000E+04;  0.0000000E+00;  0.0000000E+00;  0.0000000E+00;  0.0000000E+00;
  2.1400001E+00;  9.9999998E-03;  0.0000000E+00;876;  0.0000000E+00;  0.0000000E+00;  0.0000000E+00;  1.0000000E+03;  4.0000001E-01;  0.0000000E+00;0;  0.0000000E+00;  0.0000000E+00;  0.0000000E+00;0;  0.0000000E+00;  1.0000000E+04;  0.0000000E+00;  0.0000000E+00;  1.0000000E+04;  0.0000000E+00;  1.0000000E+04;  0.0000000E+00;  0.0000000E+00;  0.0000000E+00;  0.0000000E+00;
  2.1400001E+00;  9.9999998E-03;  2.0000000E-02;877;  0.0000000E+00;  0.0000000E+00;  0.0000000E+00;  1.0000000E+03;  4.0000001E-01;  0.0000000E+00;0;  0.0000000E+00;  0.0000000E+00;  0.0000000E+00;0;  0.0000000E+00;  1.0000000E+04;  0.0000000E+00;  0.0000000E+00;  1.0000000E+04;  0.0000000E+00;  1.0000000E+04;  0.0000000E+00;  0.0000000E+00;  0.0000000E+00;  0.0000000E+00;
  2.1400001E+00;  9.9999998E-03;  3.9999999E-02;878;  0.0000000E+00;  0.0000000E+00;  0.0000000E+00;  1.0000000E+03;  4.0000001E-01;  0.0000000E+00;0;  0.0000000E+00;  0.0000000E+00;  0.0000000E+00;0;  0.0000000E+00;  1.0000000E+04;  0.0000000E+00;  0.0000000E+00;  1.0000000E+04;  0.0000000E+00;  1.0000000E+04;  0.0000000E+00;  0.0000000E+00;  0.0000000E+00;  0.0000000E+00;
  2.1400001E+00;  9.9999998E-03;  5.9999999E-02;879;  0.0000000E+00;  0.0000000E+00;  0.0000000E+00;  1.0000000E+03;  4.0000001E-01;  0.0000000E+00;0;  0.0000000E+00;  0.0000000E+00;  0.0000000E+00;0;  0.0000000E+00;  1.0000000E+04;  0.0000000E+00;  0.0000000E+00;  1.0000000E+04;  0.0000000E+00;  1.0000000E+04;  0.0000000E+00;  0.0000000E+00;  0.0000000E+00;  0.0000000E+00;
  2.1400001E+00;  9.9999998E-03;  7.9999998E-02;880;  0.0000000E+00;  0.0000000E+00;  0.0000000E+00;  1.0000000E+03;  4.0000001E-01;  0.0000000E+00;0;  0.0000000E+00;  0.0000000E+00;  0.0000000E+00;0;  0.0000000E+00;  1.0000000E+04;  0.0000000E+00;  0.0000000E+00;  1.0000000E+04;  0.0000000E+00;  1.0000000E+04;  0.0000000E+00;  0.0000000E+00;  0.0000000E+00;  0.0000000E+00;
  2.1400001E+00;  9.9999998E-03;  1.0000000E-01;881;  0.0000000E+00;  0.0000000E+00;  0.0000000E+00;  1.0000000E+03;  4.0000001E-01;  0.0000000E+00;0;  0.0000000E+00;  0.0000000E+00;  0.0000000E+00;0;  0.0000000E+00;  1.0000000E+04;  0.0000000E+00;  0.0000000E+00;  1.0000000E+04;  0.0000000E+00;  1.0000000E+04;  0.0000000E+00;  0.0000000E+00;  0.0000000E+00;  0.0000000E+00;
  2.1400001E+00;  9.9999998E-03;  1.2000000E-01;882;  0.0000000E+00;  0.0000000E+00;  0.0000000E+00;  1.0000000E+03;  4.0000001E-01;  0.0000000E+00;0;  0.0000000E+00;  0.0000000E+00;  0.0000000E+00;0;  0.0000000E+00;  1.0000000E+04;  0.0000000E+00;  0.0000000E+00;  1.0000000E+04;  0.0000000E+00;  1.0000000E+04;  0.0000000E+00;  0.0000000E+00;  0.0000000E+00;  0.0000000E+00;
  2.1400001E+00;  9.9999998E-03;  1.4000000E-01;883;  0.0000000E+00;  0.0000000E+00;  0.0000000E+00;  1.0000000E+03;  4.0000001E-01;  0.0000000E+00;0;  0.0000000E+00;  0.0000000E+00;  0.0000000E+00;0;  0.0000000E+00;  1.0000000E+04;  0.0000000E+00;  0.0000000E+00;  1.0000000E+04;  0.0000000E+00;  1.0000000E+04;  0.0000000E+00;  0.0000000E+00;  0.0000000E+00;  0.0000000E+00;
  2.1400001E+00;  9.9999998E-03;  1.6000000E-01;884;  0.0000000E+00;  0.0000000E+00;  0.0000000E+00;  1.0000000E+03;  4.0000001E-01;  0.0000000E+00;0;  0.0000000E+00;  0.0000000E+00;  0.0000000E+00;0;  0.0000000E+00;  1.0000000E+04;  0.0000000E+00;  0.0000000E+00;  1.0000000E+04;  0.0000000E+00;  1.0000000E+04;  0.0000000E+00;  0.0000000E+00;  0.0000000E+00;  0.0000000E+00;
  2.1400001E+00;  9.9999998E-03;  1.8000001E-01;885;  0.0000000E+00;  0.0000000E+00;  0.0000000E+00;  1.0000000E+03;  4.0000001E-01;  0.0000000E+00;0;  0.0000000E+00;  0.0000000E+00;  0.0000000E+00;0;  0.0000000E+00;  1.0000000E+04;  0.0000000E+00;  0.0000000E+00;  1.0000000E+04;  0.0000000E+00;  1.0000000E+04;  0.0000000E+00;  0.0000000E+00;  0.0000000E+00;  0.0000000E+00;
  2.1400001E+00;  9.9999998E-03;  2.0000000E-01;886;  0.0000000E+00;  0.0000000E+00;  0.0000000E+00;  1.0000000E+03;  4.0000001E-01;  0.0000000E+00;0;  0.0000000E+00;  0.0000000E+00;  0.0000000E+00;0;  0.0000000E+00;  1.0000000E+04;  0.0000000E+00;  0.0000000E+00;  1.0000000E+04;  0.0000000E+00;  1.0000000E+04;  0.0000000E+00;  0.0000000E+00;  0.0000000E+00;  0.0000000E+00;
  2.1400001E+00;  9.9999998E-03;  2.2000000E-01;887;  0.0000000E+00;  0.0000000E+00;  0.0000000E+00;  1.0000000E+03;  4.0000001E-01;  0.0000000E+00;0;  0.0000000E+00;  0.0000000E+00;  0.0000000E+00;0;  0.0000000E+00;  1.0000000E+04;  0.0000000E+00;  0.0000000E+00;  1.0000000E+04;  0.0000000E+00;  1.0000000E+04;  0.0000000E+00;  0.0000000E+00;  0.0000000E+00;  0.0000000E+00;
  2.1400001E+00;  9.9999998E-03;  2.3999999E-01;888;  0.0000000E+00;  0.0000000E+00;  0.0000000E+00;  1.0000000E+03;  4.0000001E-01;  0.0000000E+00;0;  0.0000000E+00;  0.0000000E+00;  0.0000000E+00;0;  0.0000000E+00;  1.0000000E+04;  0.0000000E+00;  0.0000000E+00;  1.0000000E+04;  0.0000000E+00;  1.0000000E+04;  0.0000000E+00;  0.0000000E+00;  0.0000000E+00;  0.0000000E+00;
  2.1400001E+00;  9.9999998E-03;  2.5999999E-01;889;  0.0000000E+00;  0.0000000E+00;  0.0000000E+00;  1.0000000E+03;  4.0000001E-01;  0.0000000E+00;0;  0.0000000E+00;  0.0000000E+00;  0.0000000E+00;0;  0.0000000E+00;  1.0000000E+04;  0.0000000E+00;  0.0000000E+00;  1.0000000E+04;  0.0000000E+00;  1.0000000E+04;  0.0000000E+00;  0.0000000E+00;  0.0000000E+00;  0.0000000E+00;
  2.1400001E+00;  9.9999998E-03;  2.8000000E-01;890;  0.0000000E+00;  0.0000000E+00;  0.0000000E+00;  1.0000000E+03;  4.0000001E-01;  0.0000000E+00;0;  0.0000000E+00;  0.0000000E+00;  0.0000000E+00;0;  0.0000000E+00;  1.0000000E+04;  0.0000000E+00;  0.0000000E+00;  1.0000000E+04;  0.0000000E+00;  1.0000000E+04;  0.0000000E+00;  0.0000000E+00;  0.0000000E+00;  0.0000000E+00;
  2.1400001E+00;  9.9999998E-03;  3.0000001E-01;891;  0.0000000E+00;  0.0000000E+00;  0.0000000E+00;  1.0000000E+03;  4.0000001E-01;  0.0000000E+00;0;  0.0000000E+00;  0.0000000E+00;  0.0000000E+00;0;  0.0000000E+00;  1.0000000E+04;  0.0000000E+00;  0.0000000E+00;  1.0000000E+04;  0.0000000E+00;  1.0000000E+04;  0.0000000E+00;  0.0000000E+00;  0.0000000E+00;  0.0000000E+00;
  2.1400001E+00;  9.9999998E-03;  3.1999999E-01;892;  0.0000000E+00;  0.0000000E+00;  0.0000000E+00;  1.0000000E+03;  4.0000001E-01;  0.0000000E+00;0;  0.0000000E+00;  0.0000000E+00;  0.0000000E+00;0;  0.0000000E+00;  1.0000000E+04;  0.0000000E+00;  0.0000000E+00;  1.0000000E+04;  0.0000000E+00;  1.0000000E+04;  0.0000000E+00;  0.0000000E+00;  0.0000000E+00;  0.0000000E+00;
  2.1400001E+00;  9.9999998E-03;  3.4000000E-01;893;  0.0000000E+00;  0.0000000E+00;  0.0000000E+00;  1.0000000E+03;  4.0000001E-01;  0.0000000E+00;0;  0.0000000E+00;  0.0000000E+00;  0.0000000E+00;0;  0.0000000E+00;  1.0000000E+04;  0.0000000E+00;  0.0000000E+00;  1.0000000E+04;  0.0000000E+00;  1.0000000E+04;  0.0000000E+00;  0.0000000E+00;  0.0000000E+00;  0.0000000E+00;
  2.1400001E+00;  9.9999998E-03;  3.6000001E-01;894;  0.0000000E+00;  0.0000000E+00;  0.0000000E+00;  1.0000000E+03;  4.0000001E-01;  0.0000000E+00;0;  0.0000000E+00;  0.0000000E+00;  0.0000000E+00;0;  0.0000000E+00;  1.0000000E+04;  0.0000000E+00;  0.0000000E+00;  1.0000000E+04;  0.0000000E+00;  1.0000000E+04;  0.0000000E+00;  0.0000000E+00;  0.0000000E+00;  0.0000000E+00;
  2.1400001E+00;  9.9999998E-03;  3.8000000E-01;895;  0.0000000E+00;  0.0000000E+00;  0.0000000E+00;  1.0000000E+03;  4.0000001E-01;  0.0000000E+00;0;  0.0000000E+00;  0.0000000E+00;  0.0000000E+00;0;  0.0000000E+00;  1.0000000E+04;  0.0000000E+00;  0.0000000E+00;  1.0000000E+04;  0.0000000E+00;  1.0000000E+04;  0.0000000E+00;  0.0000000E+00;  0.0000000E+00;  0.0000000E+00;
  2.1400001E+00;  9.9999998E-03;  4.0000001E-01;896;  0.0000000E+00;  0.0000000E+00;  0.0000000E+00;  1.0000000E+03;  4.0000001E-01;  0.0000000E+00;0;  0.0000000E+00;  0.0000000E+00;  0.0000000E+00;0;  0.0000000E+00;  1.0000000E+04;  0.0000000E+00;  0.0000000E+00;  1.0000000E+04;  0.0000000E+00;  1.0000000E+04;  0.0000000E+00;  0.0000000E+00;  0.0000000E+00;  0.0000000E+00;
  2.1600001E+00;  9.9999998E-03; -2.8000000E-01;897;  0.0000000E+00;  0.0000000E+00;  0.0000000E+00;  1.0000000E+03;  4.0000001E-01;  0.0000000E+00;0;  0.0000000E+00;  0.0000000E+00;  0.0000000E+00;0;  0.0000000E+00;  1.0000000E+04;  0.0000000E+00;  0.0000000E+00;  1.0000000E+04;  0.0000000E+00;  1.0000000E+04;  0.0000000E+00;  0.0000000E+00;  0.0000000E+00;  0.0000000E+00;
  2.1600001E+00;  9.9999998E-03; -2.5999999E-01;898;  0.0000000E+00;  0.0000000E+00;  0.0000000E+00;  1.0000000E+03;  4.0000001E-01;  0.0000000E+00;0;  0.0000000E+00;  0.0000000E+00;  0.0000000E+00;0;  0.0000000E+00;  1.0000000E+04;  0.0000000E+00;  0.0000000E+00;  1.0000000E+04;  0.0000000E+00;  1.0000000E+04;  0.0000000E+00;  0.0000000E+00;  0.0000000E+00;  0.0000000E+00;
  2.1600001E+00;  9.9999998E-03; -2.3999999E-01;899;  0.0000000E+00;  0.0000000E+00;  0.0000000E+00;  1.0000000E+03;  4.0000001E-01;  0.0000000E+00;0;  0.0000000E+00;  0.0000000E+00;  0.0000000E+00;0;  0.0000000E+00;  1.0000000E+04;  0.0000000E+00;  0.0000000E+00;  1.0000000E+04;  0.0000000E+00;  1.0000000E+04;  0.0000000E+00;  0.0000000E+00;  0.0000000E+00;  0.0000000E+00;
  2.1600001E+00;  9.9999998E-03; -2.2000000E-01;900;  0.0000000E+00;  0.0000000E+00;  0.0000000E+00;  1.0000000E+03;  4.0000001E-01;  0.0000000E+00;0;  0.0000000E+00;  0.0000000E+00;  0.0000000E+00;0;  0.0000000E+00;  1.0000000E+04;  0.0000000E+00;  0.0000000E+00;  1.0000000E+04;  0.0000000E+00;  1.0000000E+04;  0.0000000E+00;  0.0000000E+00;  0.0000000E+00;  0.0000000E+00;
  2.1600001E+00;  9.9999998E-03; -2.0000000E-01;901;  0.0000000E+00;  0.0000000E+00;  0.0000000E+00;  1.0000000E+03;  4.0000001E-01;  0.0000000E+00;0;  0.0000000E+00;  0.0000000E+00;  0.0000000E+00;0;  0.0000000E+00;  1.0000000E+04;  0.0000000E+00;  0.0000000E+00;  1.0000000E+04;  0.0000000E+00;  1.0000000E+04;  0.0000000E+00;  0.0000000E+00;  0.0000000E+00;  0.0000000E+00;
  2.1600001E+00;  9.9999998E-03; -1.8000001E-01;902;  0.0000000E+00;  0.0000000E+00;  0.0000000E+00;  1.0000000E+03;  4.0000001E-01;  0.0000000E+00;0;  0.0000000E+00;  0.0000000E+00;  0.0000000E+00;0;  0.0000000E+00;  1.0000000E+04;  0.0000000E+00;  0.0000000E+00;  1.0000000E+04;  0.0000000E+00;  1.0000000E+04;  0.0000000E+00;  0.0000000E+00;  0.0000000E+00;  0.0000000E+00;
  2.1600001E+00;  9.9999998E-03; -1.6000000E-01;903;  0.0000000E+00;  0.0000000E+00;  0.0000000E+00;  1.0000000E+03;  4.0000001E-01;  0.0000000E+00;0;  0.0000000E+00;  0.0000000E+00;  0.0000000E+00;0;  0.0000000E+00;  1.0000000E+04;  0.0000000E+00;  0.0000000E+00;  1.0000000E+04;  0.0000000E+00;  1.0000000E+04;  0.0000000E+00;  0.0000000E+00;  0.0000000E+00;  0.0000000E+00;
  2.1600001E+00;  9.9999998E-03; -1.4000000E-01;904;  0.0000000E+00;  0.0000000E+00;  0.0000000E+00;  1.0000000E+03;  4.0000001E-01;  0.0000000E+00;0;  0.0000000E+00;  0.0000000E+00;  0.0000000E+00;0;  0.0000000E+00;  1.0000000E+04;  0.0000000E+00;  0.0000000E+00;  1.0000000E+04;  0.0000000E+00;  1.0000000E+04;  0.0000000E+00;  0.0000000E+00;  0.0000000E+00;  0.0000000E+00;
  2.1600001E+00;  9.9999998E-03; -1.2000000E-01;905;  0.0000000E+00;  0.0000000E+00;  0.0000000E+00;  1.0000000E+03;  4.0000001E-01;  0.0000000E+00;0;  0.0000000E+00;  0.0000000E+00;  0.0000000E+00;0;  0.0000000E+00;  1.0000000E+04;  0.0000000E+00;  0.0000000E+00;  1.0000000E+04;  0.0000000E+00;  1.0000000E+04;  0.0000000E+00;  0.0000000E+00;  0.0000000E+00;  0.0000000E+00;
  2.1600001E+00;  9.9999998E-03; -1.0000000E-01;906;  0.0000000E+00;  0.0000000E+00;  0.0000000E+00;  1.0000000E+03;  4.0000001E-01;  0.0000000E+00;0;  0.0000000E+00;  0.0000000E+00;  0.0000000E+00;0;  0.0000000E+00;  1.0000000E+04;  0.0000000E+00;  0.0000000E+00;  1.0000000E+04;  0.0000000E+00;  1.0000000E+04;  0.0000000E+00;  0.0000000E+00;  0.0000000E+00;  0.0000000E+00;
  2.1600001E+00;  9.9999998E-03; -7.9999998E-02;907;  0.0000000E+00;  0.0000000E+00;  0.0000000E+00;  1.0000000E+03;  4.0000001E-01;  0.0000000E+00;0;  0.0000000E+00;  0.0000000E+00;  0.0000000E+00;0;  0.0000000E+00;  1.0000000E+04;  0.0000000E+00;  0.0000000E+00;  1.0000000E+04;  0.0000000E+00;  1.0000000E+04;  0.0000000E+00;  0.0000000E+00;  0.0000000E+00;  0.0000000E+00;
  2.1600001E+00;  9.9999998E-03; -5.9999999E-02;908;  0.0000000E+00;  0.0000000E+00;  0.0000000E+00;  1.0000000E+03;  4.0000001E-01;  0.0000000E+00;0;  0.0000000E+00;  0.0000000E+00;  0.0000000E+00;0;  0.0000000E+00;  1.0000000E+04;  0.0000000E+00;  0.0000000E+00;  1.0000000E+04;  0.0000000E+00;  1.0000000E+04;  0.0000000E+00;  0.0000000E+00;  0.0000000E+00;  0.0000000E+00;
  2.1600001E+00;  9.9999998E-03; -3.9999999E-02;909;  0.0000000E+00;  0.0000000E+00;  0.0000000E+00;  1.0000000E+03;  4.0000001E-01;  0.0000000E+00;0;  0.0000000E+00;  0.0000000E+00;  0.0000000E+00;0;  0.0000000E+00;  1.0000000E+04;  0.0000000E+00;  0.0000000E+00;  1.0000000E+04;  0.0000000E+00;  1.0000000E+04;  0.0000000E+00;  0.0000000E+00;  0.0000000E+00;  0.0000000E+00;
  2.1600001E+00;  9.9999998E-03; -2.0000000E-02;910;  0.0000000E+00;  0.0000000E+00;  0.0000000E+00;  1.0000000E+03;  4.0000001E-01;  0.0000000E+00;0;  0.0000000E+00;  0.0000000E+00;  0.0000000E+00;0;  0.0000000E+00;  1.0000000E+04;  0.0000000E+00;  0.0000000E+00;  1.0000000E+04;  0.0000000E+00;  1.0000000E+04;  0.0000000E+00;  0.0000000E+00;  0.0000000E+00;  0.0000000E+00;
  2.1600001E+00;  9.9999998E-03;  0.0000000E+00;911;  0.0000000E+00;  0.0000000E+00;  0.0000000E+00;  1.0000000E+03;  4.0000001E-01;  0.0000000E+00;0;  0.0000000E+00;  0.0000000E+00;  0.0000000E+00;0;  0.0000000E+00;  1.0000000E+04;  0.0000000E+00;  0.0000000E+00;  1.0000000E+04;  0.0000000E+00;  1.0000000E+04;  0.0000000E+00;  0.0000000E+00;  0.0000000E+00;  0.0000000E+00;
  2.1600001E+00;  9.9999998E-03;  2.0000000E-02;912;  0.0000000E+00;  0.0000000E+00;  0.0000000E+00;  1.0000000E+03;  4.0000001E-01;  0.0000000E+00;0;  0.0000000E+00;  0.0000000E+00;  0.0000000E+00;0;  0.0000000E+00;  1.0000000E+04;  0.0000000E+00;  0.0000000E+00;  1.0000000E+04;  0.0000000E+00;  1.0000000E+04;  0.0000000E+00;  0.0000000E+00;  0.0000000E+00;  0.0000000E+00;
  2.1600001E+00;  9.9999998E-03;  3.9999999E-02;913;  0.0000000E+00;  0.0000000E+00;  0.0000000E+00;  1.0000000E+03;  4.0000001E-01;  0.0000000E+00;0;  0.0000000E+00;  0.0000000E+00;  0.0000000E+00;0;  0.0000000E+00;  1.0000000E+04;  0.0000000E+00;  0.0000000E+00;  1.0000000E+04;  0.0000000E+00;  1.0000000E+04;  0.0000000E+00;  0.0000000E+00;  0.0000000E+00;  0.0000000E+00;
  2.1600001E+00;  9.9999998E-03;  5.9999999E-02;914;  0.0000000E+00;  0.0000000E+00;  0.0000000E+00;  1.0000000E+03;  4.0000001E-01;  0.0000000E+00;0;  0.0000000E+00;  0.0000000E+00;  0.0000000E+00;0;  0.0000000E+00;  1.0000000E+04;  0.0000000E+00;  0.0000000E+00;  1.0000000E+04;  0.0000000E+00;  1.0000000E+04;  0.0000000E+00;  0.0000000E+00;  0.0000000E+00;  0.0000000E+00;
  2.1600001E+00;  9.9999998E-03;  7.9999998E-02;915;  0.0000000E+00;  0.0000000E+00;  0.0000000E+00;  1.0000000E+03;  4.0000001E-01;  0.0000000E+00;0;  0.0000000E+00;  0.0000000E+00;  0.0000000E+00;0;  0.0000000E+00;  1.0000000E+04;  0.0000000E+00;  0.0000000E+00;  1.0000000E+04;  0.0000000E+00;  1.0000000E+04;  0.0000000E+00;  0.0000000E+00;  0.0000000E+00;  0.0000000E+00;
  2.1600001E+00;  9.9999998E-03;  1.0000000E-01;916;  0.0000000E+00;  0.0000000E+00;  0.0000000E+00;  1.0000000E+03;  4.0000001E-01;  0.0000000E+00;0;  0.0000000E+00;  0.0000000E+00;  0.0000000E+00;0;  0.0000000E+00;  1.0000000E+04;  0.0000000E+00;  0.0000000E+00;  1.0000000E+04;  0.0000000E+00;  1.0000000E+04;  0.0000000E+00;  0.0000000E+00;  0.0000000E+00;  0.0000000E+00;
  2.1600001E+00;  9.9999998E-03;  1.2000000E-01;917;  0.0000000E+00;  0.0000000E+00;  0.0000000E+00;  1.0000000E+03;  4.0000001E-01;  0.0000000E+00;0;  0.0000000E+00;  0.0000000E+00;  0.0000000E+00;0;  0.0000000E+00;  1.0000000E+04;  0.0000000E+00;  0.0000000E+00;  1.0000000E+04;  0.0000000E+00;  1.0000000E+04;  0.0000000E+00;  0.0000000E+00;  0.0000000E+00;  0.0000000E+00;
  2.1600001E+00;  9.9999998E-03;  1.4000000E-01;918;  0.0000000E+00;  0.0000000E+00;  0.0000000E+00;  1.0000000E+03;  4.0000001E-01;  0.0000000E+00;0;  0.0000000E+00;  0.0000000E+00;  0.0000000E+00;0;  0.0000000E+00;  1.0000000E+04;  0.0000000E+00;  0.0000000E+00;  1.0000000E+04;  0.0000000E+00;  1.0000000E+04;  0.0000000E+00;  0.0000000E+00;  0.0000000E+00;  0.0000000E+00;
  2.1600001E+00;  9.9999998E-03;  1.6000000E-01;919;  0.0000000E+00;  0.0000000E+00;  0.0000000E+00;  1.0000000E+03;  4.0000001E-01;  0.0000000E+00;0;  0.0000000E+00;  0.0000000E+00;  0.0000000E+00;0;  0.0000000E+00;  1.0000000E+04;  0.0000000E+00;  0.0000000E+00;  1.0000000E+04;  0.0000000E+00;  1.0000000E+04;  0.0000000E+00;  0.0000000E+00;  0.0000000E+00;  0.0000000E+00;
  2.1600001E+00;  9.9999998E-03;  1.8000001E-01;920;  0.0000000E+00;  0.0000000E+00;  0.0000000E+00;  1.0000000E+03;  4.0000001E-01;  0.0000000E+00;0;  0.0000000E+00;  0.0000000E+00;  0.0000000E+00;0;  0.0000000E+00;  1.0000000E+04;  0.0000000E+00;  0.0000000E+00;  1.0000000E+04;  0.0000000E+00;  1.0000000E+04;  0.0000000E+00;  0.0000000E+00;  0.0000000E+00;  0.0000000E+00;
  2.1600001E+00;  9.9999998E-03;  2.0000000E-01;921;  0.0000000E+00;  0.0000000E+00;  0.0000000E+00;  1.0000000E+03;  4.0000001E-01;  0.0000000E+00;0;  0.0000000E+00;  0.0000000E+00;  0.0000000E+00;0;  0.0000000E+00;  1.0000000E+04;  0.0000000E+00;  0.0000000E+00;  1.0000000E+04;  0.0000000E+00;  1.0000000E+04;  0.0000000E+00;  0.0000000E+00;  0.0000000E+00;  0.0000000E+00;
  2.1600001E+00;  9.9999998E-03;  2.2000000E-01;922;  0.0000000E+00;  0.0000000E+00;  0.0000000E+00;  1.0000000E+03;  4.0000001E-01;  0.0000000E+00;0;  0.0000000E+00;  0.0000000E+00;  0.0000000E+00;0;  0.0000000E+00;  1.0000000E+04;  0.0000000E+00;  0.0000000E+00;  1.0000000E+04;  0.0000000E+00;  1.0000000E+04;  0.0000000E+00;  0.0000000E+00;  0.0000000E+00;  0.0000000E+00;
  2.1600001E+00;  9.9999998E-03;  2.3999999E-01;923;  0.0000000E+00;  0.0000000E+00;  0.0000000E+00;  1.0000000E+03;  4.0000001E-01;  0.0000000E+00;0;  0.0000000E+00;  0.0000000E+00;  0.0000000E+00;0;  0.0000000E+00;  1.0000000E+04;  0.0000000E+00;  0.0000000E+00;  1.0000000E+04;  0.0000000E+00;  1.0000000E+04;  0.0000000E+00;  0.0000000E+00;  0.0000000E+00;  0.0000000E+00;
  2.1600001E+00;  9.9999998E-03;  2.5999999E-01;924;  0.0000000E+00;  0.0000000E+00;  0.0000000E+00;  1.0000000E+03;  4.0000001E-01;  0.0000000E+00;0;  0.0000000E+00;  0.0000000E+00;  0.0000000E+00;0;  0.0000000E+00;  1.0000000E+04;  0.0000000E+00;  0.0000000E+00;  1.0000000E+04;  0.0000000E+00;  1.0000000E+04;  0.0000000E+00;  0.0000000E+00;  0.0000000E+00;  0.0000000E+00;
  2.1600001E+00;  9.9999998E-03;  2.8000000E-01;925;  0.0000000E+00;  0.0000000E+00;  0.0000000E+00;  1.0000000E+03;  4.0000001E-01;  0.0000000E+00;0;  0.0000000E+00;  0.0000000E+00;  0.0000000E+00;0;  0.0000000E+00;  1.0000000E+04;  0.0000000E+00;  0.0000000E+00;  1.0000000E+04;  0.0000000E+00;  1.0000000E+04;  0.0000000E+00;  0.0000000E+00;  0.0000000E+00;  0.0000000E+00;
  2.1600001E+00;  9.9999998E-03;  3.0000001E-01;926;  0.0000000E+00;  0.0000000E+00;  0.0000000E+00;  1.0000000E+03;  4.0000001E-01;  0.0000000E+00;0;  0.0000000E+00;  0.0000000E+00;  0.0000000E+00;0;  0.0000000E+00;  1.0000000E+04;  0.0000000E+00;  0.0000000E+00;  1.0000000E+04;  0.0000000E+00;  1.0000000E+04;  0.0000000E+00;  0.0000000E+00;  0.0000000E+00;  0.0000000E+00;
  2.1600001E+00;  9.9999998E-03;  3.1999999E-01;927;  0.0000000E+00;  0.0000000E+00;  0.0000000E+00;  1.0000000E+03;  4.0000001E-01;  0.0000000E+00;0;  0.0000000E+00;  0.0000000E+00;  0.0000000E+00;0;  0.0000000E+00;  1.0000000E+04;  0.0000000E+00;  0.0000000E+00;  1.0000000E+04;  0.0000000E+00;  1.0000000E+04;  0.0000000E+00;  0.0000000E+00;  0.0000000E+00;  0.0000000E+00;
  2.1600001E+00;  9.9999998E-03;  3.4000000E-01;928;  0.0000000E+00;  0.0000000E+00;  0.0000000E+00;  1.0000000E+03;  4.0000001E-01;  0.0000000E+00;0;  0.0000000E+00;  0.0000000E+00;  0.0000000E+00;0;  0.0000000E+00;  1.0000000E+04;  0.0000000E+00;  0.0000000E+00;  1.0000000E+04;  0.0000000E+00;  1.0000000E+04;  0.0000000E+00;  0.0000000E+00;  0.0000000E+00;  0.0000000E+00;
  2.1600001E+00;  9.9999998E-03;  3.6000001E-01;929;  0.0000000E+00;  0.0000000E+00;  0.0000000E+00;  1.0000000E+03;  4.0000001E-01;  0.0000000E+00;0;  0.0000000E+00;  0.0000000E+00;  0.0000000E+00;0;  0.0000000E+00;  1.0000000E+04;  0.0000000E+00;  0.0000000E+00;  1.0000000E+04;  0.0000000E+00;  1.0000000E+04;  0.0000000E+00;  0.0000000E+00;  0.0000000E+00;  0.0000000E+00;
  2.1600001E+00;  9.9999998E-03;  3.8000000E-01;930;  0.0000000E+00;  0.0000000E+00;  0.0000000E+00;  1.0000000E+03;  4.0000001E-01;  0.0000000E+00;0;  0.0000000E+00;  0.0000000E+00;  0.0000000E+00;0;  0.0000000E+00;  1.0000000E+04;  0.0000000E+00;  0.0000000E+00;  1.0000000E+04;  0.0000000E+00;  1.0000000E+04;  0.0000000E+00;  0.0000000E+00;  0.0000000E+00;  0.0000000E+00;
  2.1600001E+00;  9.9999998E-03;  4.0000001E-01;931;  0.0000000E+00;  0.0000000E+00;  0.0000000E+00;  1.0000000E+03;  4.0000001E-01;  0.0000000E+00;0;  0.0000000E+00;  0.0000000E+00;  0.0000000E+00;0;  0.0000000E+00;  1.0000000E+04;  0.0000000E+00;  0.0000000E+00;  1.0000000E+04;  0.0000000E+00;  1.0000000E+04;  0.0000000E+00;  0.0000000E+00;  0.0000000E+00;  0.0000000E+00;
  2.1800001E+00;  9.9999998E-03; -1.8000001E-01;932;  0.0000000E+00;  0.0000000E+00;  0.0000000E+00;  1.0000000E+03;  4.0000001E-01;  0.0000000E+00;0;  0.0000000E+00;  0.0000000E+00;  0.0000000E+00;0;  0.0000000E+00;  1.0000000E+04;  0.0000000E+00;  0.0000000E+00;  1.0000000E+04;  0.0000000E+00;  1.0000000E+04;  0.0000000E+00;  0.0000000E+00;  0.0000000E+00;  0.0000000E+00;
  2.1800001E+00;  9.9999998E-03; -1.6000000E-01;933;  0.0000000E+00;  0.0000000E+00;  0.0000000E+00;  1.0000000E+03;  4.0000001E-01;  0.0000000E+00;0;  0.0000000E+00;  0.0000000E+00;  0.0000000E+00;0;  0.0000000E+00;  1.0000000E+04;  0.0000000E+00;  0.0000000E+00;  1.0000000E+04;  0.0000000E+00;  1.0000000E+04;  0.0000000E+00;  0.0000000E+00;  0.0000000E+00;  0.0000000E+00;
  2.1800001E+00;  9.9999998E-03; -1.4000000E-01;934;  0.0000000E+00;  0.0000000E+00;  0.0000000E+00;  1.0000000E+03;  4.0000001E-01;  0.0000000E+00;0;  0.0000000E+00;  0.0000000E+00;  0.0000000E+00;0;  0.0000000E+00;  1.0000000E+04;  0.0000000E+00;  0.0000000E+00;  1.0000000E+04;  0.0000000E+00;  1.0000000E+04;  0.0000000E+00;  0.0000000E+00;  0.0000000E+00;  0.0000000E+00;
  2.1800001E+00;  9.9999998E-03; -1.2000000E-01;935;  0.0000000E+00;  0.0000000E+00;  0.0000000E+00;  1.0000000E+03;  4.0000001E-01;  0.0000000E+00;0;  0.0000000E+00;  0.0000000E+00;  0.0000000E+00;0;  0.0000000E+00;  1.0000000E+04;  0.0000000E+00;  0.0000000E+00;  1.0000000E+04;  0.0000000E+00;  1.0000000E+04;  0.0000000E+00;  0.0000000E+00;  0.0000000E+00;  0.0000000E+00;
  2.1800001E+00;  9.9999998E-03; -1.0000000E-01;936;  0.0000000E+00;  0.0000000E+00;  0.0000000E+00;  1.0000000E+03;  4.0000001E-01;  0.0000000E+00;0;  0.0000000E+00;  0.0000000E+00;  0.0000000E+00;0;  0.0000000E+00;  1.0000000E+04;  0.0000000E+00;  0.0000000E+00;  1.0000000E+04;  0.0000000E+00;  1.0000000E+04;  0.0000000E+00;  0.0000000E+00;  0.0000000E+00;  0.0000000E+00;
  2.1800001E+00;  9.9999998E-03; -7.9999998E-02;937;  0.0000000E+00;  0.0000000E+00;  0.0000000E+00;  1.0000000E+03;  4.0000001E-01;  0.0000000E+00;0;  0.0000000E+00;  0.0000000E+00;  0.0000000E+00;0;  0.0000000E+00;  1.0000000E+04;  0.0000000E+00;  0.0000000E+00;  1.0000000E+04;  0.0000000E+00;  1.0000000E+04;  0.0000000E+00;  0.0000000E+00;  0.0000000E+00;  0.0000000E+00;
  2.1800001E+00;  9.9999998E-03; -5.9999999E-02;938;  0.0000000E+00;  0.0000000E+00;  0.0000000E+00;  1.0000000E+03;  4.0000001E-01;  0.0000000E+00;0;  0.0000000E+00;  0.0000000E+00;  0.0000000E+00;0;  0.0000000E+00;  1.0000000E+04;  0.0000000E+00;  0.0000000E+00;  1.0000000E+04;  0.0000000E+00;  1.0000000E+04;  0.0000000E+00;  0.0000000E+00;  0.0000000E+00;  0.0000000E+00;
  2.1800001E+00;  9.9999998E-03; -3.9999999E-02;939;  0.0000000E+00;  0.0000000E+00;  0.0000000E+00;  1.0000000E+03;  4.0000001E-01;  0.0000000E+00;0;  0.0000000E+00;  0.0000000E+00;  0.0000000E+00;0;  0.0000000E+00;  1.0000000E+04;  0.0000000E+00;  0.0000000E+00;  1.0000000E+04;  0.0000000E+00;  1.0000000E+04;  0.0000000E+00;  0.0000000E+00;  0.0000000E+00;  0.0000000E+00;
  2.1800001E+00;  9.9999998E-03; -2.0000000E-02;940;  0.0000000E+00;  0.0000000E+00;  0.0000000E+00;  1.0000000E+03;  4.0000001E-01;  0.0000000E+00;0;  0.0000000E+00;  0.0000000E+00;  0.0000000E+00;0;  0.0000000E+00;  1.0000000E+04;  0.0000000E+00;  0.0000000E+00;  1.0000000E+04;  0.0000000E+00;  1.0000000E+04;  0.0000000E+00;  0.0000000E+00;  0.0000000E+00;  0.0000000E+00;
  2.1800001E+00;  9.9999998E-03;  0.0000000E+00;941;  0.0000000E+00;  0.0000000E+00;  0.0000000E+00;  1.0000000E+03;  4.0000001E-01;  0.0000000E+00;0;  0.0000000E+00;  0.0000000E+00;  0.0000000E+00;0;  0.0000000E+00;  1.0000000E+04;  0.0000000E+00;  0.0000000E+00;  1.0000000E+04;  0.0000000E+00;  1.0000000E+04;  0.0000000E+00;  0.0000000E+00;  0.0000000E+00;  0.0000000E+00;
  2.1800001E+00;  9.9999998E-03;  2.0000000E-02;942;  0.0000000E+00;  0.0000000E+00;  0.0000000E+00;  1.0000000E+03;  4.0000001E-01;  0.0000000E+00;0;  0.0000000E+00;  0.0000000E+00;  0.0000000E+00;0;  0.0000000E+00;  1.0000000E+04;  0.0000000E+00;  0.0000000E+00;  1.0000000E+04;  0.0000000E+00;  1.0000000E+04;  0.0000000E+00;  0.0000000E+00;  0.0000000E+00;  0.0000000E+00;
  2.1800001E+00;  9.9999998E-03;  3.9999999E-02;943;  0.0000000E+00;  0.0000000E+00;  0.0000000E+00;  1.0000000E+03;  4.0000001E-01;  0.0000000E+00;0;  0.0000000E+00;  0.0000000E+00;  0.0000000E+00;0;  0.0000000E+00;  1.0000000E+04;  0.0000000E+00;  0.0000000E+00;  1.0000000E+04;  0.0000000E+00;  1.0000000E+04;  0.0000000E+00;  0.0000000E+00;  0.0000000E+00;  0.0000000E+00;
  2.1800001E+00;  9.9999998E-03;  5.9999999E-02;944;  0.0000000E+00;  0.0000000E+00;  0.0000000E+00;  1.0000000E+03;  4.0000001E-01;  0.0000000E+00;0;  0.0000000E+00;  0.0000000E+00;  0.0000000E+00;0;  0.0000000E+00;  1.0000000E+04;  0.0000000E+00;  0.0000000E+00;  1.0000000E+04;  0.0000000E+00;  1.0000000E+04;  0.0000000E+00;  0.0000000E+00;  0.0000000E+00;  0.0000000E+00;
  2.1800001E+00;  9.9999998E-03;  7.9999998E-02;945;  0.0000000E+00;  0.0000000E+00;  0.0000000E+00;  1.0000000E+03;  4.0000001E-01;  0.0000000E+00;0;  0.0000000E+00;  0.0000000E+00;  0.0000000E+00;0;  0.0000000E+00;  1.0000000E+04;  0.0000000E+00;  0.0000000E+00;  1.0000000E+04;  0.0000000E+00;  1.0000000E+04;  0.0000000E+00;  0.0000000E+00;  0.0000000E+00;  0.0000000E+00;
  2.1800001E+00;  9.9999998E-03;  1.0000000E-01;946;  0.0000000E+00;  0.0000000E+00;  0.0000000E+00;  1.0000000E+03;  4.0000001E-01;  0.0000000E+00;0;  0.0000000E+00;  0.0000000E+00;  0.0000000E+00;0;  0.0000000E+00;  1.0000000E+04;  0.0000000E+00;  0.0000000E+00;  1.0000000E+04;  0.0000000E+00;  1.0000000E+04;  0.0000000E+00;  0.0000000E+00;  0.0000000E+00;  0.0000000E+00;
  2.1800001E+00;  9.9999998E-03;  1.2000000E-01;947;  0.0000000E+00;  0.0000000E+00;  0.0000000E+00;  1.0000000E+03;  4.0000001E-01;  0.0000000E+00;0;  0.0000000E+00;  0.0000000E+00;  0.0000000E+00;0;  0.0000000E+00;  1.0000000E+04;  0.0000000E+00;  0.0000000E+00;  1.0000000E+04;  0.0000000E+00;  1.0000000E+04;  0.0000000E+00;  0.0000000E+00;  0.0000000E+00;  0.0000000E+00;
  2.1800001E+00;  9.9999998E-03;  1.4000000E-01;948;  0.0000000E+00;  0.0000000E+00;  0.0000000E+00;  1.0000000E+03;  4.0000001E-01;  0.0000000E+00;0;  0.0000000E+00;  0.0000000E+00;  0.0000000E+00;0;  0.0000000E+00;  1.0000000E+04;  0.0000000E+00;  0.0000000E+00;  1.0000000E+04;  0.0000000E+00;  1.0000000E+04;  0.0000000E+00;  0.0000000E+00;  0.0000000E+00;  0.0000000E+00;
  2.1800001E+00;  9.9999998E-03;  1.6000000E-01;949;  0.0000000E+00;  0.0000000E+00;  0.0000000E+00;  1.0000000E+03;  4.0000001E-01;  0.0000000E+00;0;  0.0000000E+00;  0.0000000E+00;  0.0000000E+00;0;  0.0000000E+00;  1.0000000E+04;  0.0000000E+00;  0.0000000E+00;  1.0000000E+04;  0.0000000E+00;  1.0000000E+04;  0.0000000E+00;  0.0000000E+00;  0.0000000E+00;  0.0000000E+00;
  2.1800001E+00;  9.9999998E-03;  1.8000001E-01;950;  0.0000000E+00;  0.0000000E+00;  0.0000000E+00;  1.0000000E+03;  4.0000001E-01;  0.0000000E+00;0;  0.0000000E+00;  0.0000000E+00;  0.0000000E+00;0;  0.0000000E+00;  1.0000000E+04;  0.0000000E+00;  0.0000000E+00;  1.0000000E+04;  0.0000000E+00;  1.0000000E+04;  0.0000000E+00;  0.0000000E+00;  0.0000000E+00;  0.0000000E+00;
  2.1800001E+00;  9.9999998E-03;  2.0000000E-01;951;  0.0000000E+00;  0.0000000E+00;  0.0000000E+00;  1.0000000E+03;  4.0000001E-01;  0.0000000E+00;0;  0.0000000E+00;  0.0000000E+00;  0.0000000E+00;0;  0.0000000E+00;  1.0000000E+04;  0.0000000E+00;  0.0000000E+00;  1.0000000E+04;  0.0000000E+00;  1.0000000E+04;  0.0000000E+00;  0.0000000E+00;  0.0000000E+00;  0.0000000E+00;
  2.1800001E+00;  9.9999998E-03;  2.2000000E-01;952;  0.0000000E+00;  0.0000000E+00;  0.0000000E+00;  1.0000000E+03;  4.0000001E-01;  0.0000000E+00;0;  0.0000000E+00;  0.0000000E+00;  0.0000000E+00;0;  0.0000000E+00;  1.0000000E+04;  0.0000000E+00;  0.0000000E+00;  1.0000000E+04;  0.0000000E+00;  1.0000000E+04;  0.0000000E+00;  0.0000000E+00;  0.0000000E+00;  0.0000000E+00;
  2.1800001E+00;  9.9999998E-03;  2.3999999E-01;953;  0.0000000E+00;  0.0000000E+00;  0.0000000E+00;  1.0000000E+03;  4.0000001E-01;  0.0000000E+00;0;  0.0000000E+00;  0.0000000E+00;  0.0000000E+00;0;  0.0000000E+00;  1.0000000E+04;  0.0000000E+00;  0.0000000E+00;  1.0000000E+04;  0.0000000E+00;  1.0000000E+04;  0.0000000E+00;  0.0000000E+00;  0.0000000E+00;  0.0000000E+00;
  2.1800001E+00;  9.9999998E-03;  2.5999999E-01;954;  0.0000000E+00;  0.0000000E+00;  0.0000000E+00;  1.0000000E+03;  4.0000001E-01;  0.0000000E+00;0;  0.0000000E+00;  0.0000000E+00;  0.0000000E+00;0;  0.0000000E+00;  1.0000000E+04;  0.0000000E+00;  0.0000000E+00;  1.0000000E+04;  0.0000000E+00;  1.0000000E+04;  0.0000000E+00;  0.0000000E+00;  0.0000000E+00;  0.0000000E+00;
  2.1800001E+00;  9.9999998E-03;  2.8000000E-01;955;  0.0000000E+00;  0.0000000E+00;  0.0000000E+00;  1.0000000E+03;  4.0000001E-01;  0.0000000E+00;0;  0.0000000E+00;  0.0000000E+00;  0.0000000E+00;0;  0.0000000E+00;  1.0000000E+04;  0.0000000E+00;  0.0000000E+00;  1.0000000E+04;  0.0000000E+00;  1.0000000E+04;  0.0000000E+00;  0.0000000E+00;  0.0000000E+00;  0.0000000E+00;
  2.1800001E+00;  9.9999998E-03;  3.0000001E-01;956;  0.0000000E+00;  0.0000000E+00;  0.0000000E+00;  1.0000000E+03;  4.0000001E-01;  0.0000000E+00;0;  0.0000000E+00;  0.0000000E+00;  0.0000000E+00;0;  0.0000000E+00;  1.0000000E+04;  0.0000000E+00;  0.0000000E+00;  1.0000000E+04;  0.0000000E+00;  1.0000000E+04;  0.0000000E+00;  0.0000000E+00;  0.0000000E+00;  0.0000000E+00;
  2.1800001E+00;  9.9999998E-03;  3.1999999E-01;957;  0.0000000E+00;  0.0000000E+00;  0.0000000E+00;  1.0000000E+03;  4.0000001E-01;  0.0000000E+00;0;  0.0000000E+00;  0.0000000E+00;  0.0000000E+00;0;  0.0000000E+00;  1.0000000E+04;  0.0000000E+00;  0.0000000E+00;  1.0000000E+04;  0.0000000E+00;  1.0000000E+04;  0.0000000E+00;  0.0000000E+00;  0.0000000E+00;  0.0000000E+00;
  2.1800001E+00;  9.9999998E-03;  3.4000000E-01;958;  0.0000000E+00;  0.0000000E+00;  0.0000000E+00;  1.0000000E+03;  4.0000001E-01;  0.0000000E+00;0;  0.0000000E+00;  0.0000000E+00;  0.0000000E+00;0;  0.0000000E+00;  1.0000000E+04;  0.0000000E+00;  0.0000000E+00;  1.0000000E+04;  0.0000000E+00;  1.0000000E+04;  0.0000000E+00;  0.0000000E+00;  0.0000000E+00;  0.0000000E+00;
  2.1800001E+00;  9.9999998E-03;  3.6000001E-01;959;  0.0000000E+00;  0.0000000E+00;  0.0000000E+00;  1.0000000E+03;  4.0000001E-01;  0.0000000E+00;0;  0.0000000E+00;  0.0000000E+00;  0.0000000E+00;0;  0.0000000E+00;  1.0000000E+04;  0.0000000E+00;  0.0000000E+00;  1.0000000E+04;  0.0000000E+00;  1.0000000E+04;  0.0000000E+00;  0.0000000E+00;  0.0000000E+00;  0.0000000E+00;
  2.1800001E+00;  9.9999998E-03;  3.8000000E-01;960;  0.0000000E+00;  0.0000000E+00;  0.0000000E+00;  1.0000000E+03;  4.0000001E-01;  0.0000000E+00;0;  0.0000000E+00;  0.0000000E+00;  0.0000000E+00;0;  0.0000000E+00;  1.0000000E+04;  0.0000000E+00;  0.0000000E+00;  1.0000000E+04;  0.0000000E+00;  1.0000000E+04;  0.0000000E+00;  0.0000000E+00;  0.0000000E+00;  0.0000000E+00;
  2.1800001E+00;  9.9999998E-03;  4.0000001E-01;961;  0.0000000E+00;  0.0000000E+00;  0.0000000E+00;  1.0000000E+03;  4.0000001E-01;  0.0000000E+00;0;  0.0000000E+00;  0.0000000E+00;  0.0000000E+00;0;  0.0000000E+00;  1.0000000E+04;  0.0000000E+00;  0.0000000E+00;  1.0000000E+04;  0.0000000E+00;  1.0000000E+04;  0.0000000E+00;  0.0000000E+00;  0.0000000E+00;  0.0000000E+00;
  2.2000000E+00;  9.9999998E-03; -7.9999998E-02;962;  0.0000000E+00;  0.0000000E+00;  0.0000000E+00;  1.0000000E+03;  4.0000001E-01;  0.0000000E+00;0;  0.0000000E+00;  0.0000000E+00;  0.0000000E+00;0;  0.0000000E+00;  1.0000000E+04;  0.0000000E+00;  0.0000000E+00;  1.0000000E+04;  0.0000000E+00;  1.0000000E+04;  0.0000000E+00;  0.0000000E+00;  0.0000000E+00;  0.0000000E+00;
  2.2000000E+00;  9.9999998E-03; -5.9999999E-02;963;  0.0000000E+00;  0.0000000E+00;  0.0000000E+00;  1.0000000E+03;  4.0000001E-01;  0.0000000E+00;0;  0.0000000E+00;  0.0000000E+00;  0.0000000E+00;0;  0.0000000E+00;  1.0000000E+04;  0.0000000E+00;  0.0000000E+00;  1.0000000E+04;  0.0000000E+00;  1.0000000E+04;  0.0000000E+00;  0.0000000E+00;  0.0000000E+00;  0.0000000E+00;
  2.2000000E+00;  9.9999998E-03; -3.9999999E-02;964;  0.0000000E+00;  0.0000000E+00;  0.0000000E+00;  1.0000000E+03;  4.0000001E-01;  0.0000000E+00;0;  0.0000000E+00;  0.0000000E+00;  0.0000000E+00;0;  0.0000000E+00;  1.0000000E+04;  0.0000000E+00;  0.0000000E+00;  1.0000000E+04;  0.0000000E+00;  1.0000000E+04;  0.0000000E+00;  0.0000000E+00;  0.0000000E+00;  0.0000000E+00;
  2.2000000E+00;  9.9999998E-03; -2.0000000E-02;965;  0.0000000E+00;  0.0000000E+00;  0.0000000E+00;  1.0000000E+03;  4.0000001E-01;  0.0000000E+00;0;  0.0000000E+00;  0.0000000E+00;  0.0000000E+00;0;  0.0000000E+00;  1.0000000E+04;  0.0000000E+00;  0.0000000E+00;  1.0000000E+04;  0.0000000E+00;  1.0000000E+04;  0.0000000E+00;  0.0000000E+00;  0.0000000E+00;  0.0000000E+00;
  2.2000000E+00;  9.9999998E-03;  0.0000000E+00;966;  0.0000000E+00;  0.0000000E+00;  0.0000000E+00;  1.0000000E+03;  4.0000001E-01;  0.0000000E+00;0;  0.0000000E+00;  0.0000000E+00;  0.0000000E+00;0;  0.0000000E+00;  1.0000000E+04;  0.0000000E+00;  0.0000000E+00;  1.0000000E+04;  0.0000000E+00;  1.0000000E+04;  0.0000000E+00;  0.0000000E+00;  0.0000000E+00;  0.0000000E+00;
  2.2000000E+00;  9.9999998E-03;  2.0000000E-02;967;  0.0000000E+00;  0.0000000E+00;  0.0000000E+00;  1.0000000E+03;  4.0000001E-01;  0.0000000E+00;0;  0.0000000E+00;  0.0000000E+00;  0.0000000E+00;0;  0.0000000E+00;  1.0000000E+04;  0.0000000E+00;  0.0000000E+00;  1.0000000E+04;  0.0000000E+00;  1.0000000E+04;  0.0000000E+00;  0.0000000E+00;  0.0000000E+00;  0.0000000E+00;
  2.2000000E+00;  9.9999998E-03;  3.9999999E-02;968;  0.0000000E+00;  0.0000000E+00;  0.0000000E+00;  1.0000000E+03;  4.0000001E-01;  0.0000000E+00;0;  0.0000000E+00;  0.0000000E+00;  0.0000000E+00;0;  0.0000000E+00;  1.0000000E+04;  0.0000000E+00;  0.0000000E+00;  1.0000000E+04;  0.0000000E+00;  1.0000000E+04;  0.0000000E+00;  0.0000000E+00;  0.0000000E+00;  0.0000000E+00;
  2.2000000E+00;  9.9999998E-03;  5.9999999E-02;969;  0.0000000E+00;  0.0000000E+00;  0.0000000E+00;  1.0000000E+03;  4.0000001E-01;  0.0000000E+00;0;  0.0000000E+00;  0.0000000E+00;  0.0000000E+00;0;  0.0000000E+00;  1.0000000E+04;  0.0000000E+00;  0.0000000E+00;  1.0000000E+04;  0.0000000E+00;  1.0000000E+04;  0.0000000E+00;  0.0000000E+00;  0.0000000E+00;  0.0000000E+00;
  2.2000000E+00;  9.9999998E-03;  7.9999998E-02;970;  0.0000000E+00;  0.0000000E+00;  0.0000000E+00;  1.0000000E+03;  4.0000001E-01;  0.0000000E+00;0;  0.0000000E+00;  0.0000000E+00;  0.0000000E+00;0;  0.0000000E+00;  1.0000000E+04;  0.0000000E+00;  0.0000000E+00;  1.0000000E+04;  0.0000000E+00;  1.0000000E+04;  0.0000000E+00;  0.0000000E+00;  0.0000000E+00;  0.0000000E+00;
  2.2000000E+00;  9.9999998E-03;  1.0000000E-01;971;  0.0000000E+00;  0.0000000E+00;  0.0000000E+00;  1.0000000E+03;  4.0000001E-01;  0.0000000E+00;0;  0.0000000E+00;  0.0000000E+00;  0.0000000E+00;0;  0.0000000E+00;  1.0000000E+04;  0.0000000E+00;  0.0000000E+00;  1.0000000E+04;  0.0000000E+00;  1.0000000E+04;  0.0000000E+00;  0.0000000E+00;  0.0000000E+00;  0.0000000E+00;
  2.2000000E+00;  9.9999998E-03;  1.2000000E-01;972;  0.0000000E+00;  0.0000000E+00;  0.0000000E+00;  1.0000000E+03;  4.0000001E-01;  0.0000000E+00;0;  0.0000000E+00;  0.0000000E+00;  0.0000000E+00;0;  0.0000000E+00;  1.0000000E+04;  0.0000000E+00;  0.0000000E+00;  1.0000000E+04;  0.0000000E+00;  1.0000000E+04;  0.0000000E+00;  0.0000000E+00;  0.0000000E+00;  0.0000000E+00;
  2.2000000E+00;  9.9999998E-03;  1.4000000E-01;973;  0.0000000E+00;  0.0000000E+00;  0.0000000E+00;  1.0000000E+03;  4.0000001E-01;  0.0000000E+00;0;  0.0000000E+00;  0.0000000E+00;  0.0000000E+00;0;  0.0000000E+00;  1.0000000E+04;  0.0000000E+00;  0.0000000E+00;  1.0000000E+04;  0.0000000E+00;  1.0000000E+04;  0.0000000E+00;  0.0000000E+00;  0.0000000E+00;  0.0000000E+00;
  2.2000000E+00;  9.9999998E-03;  1.6000000E-01;974;  0.0000000E+00;  0.0000000E+00;  0.0000000E+00;  1.0000000E+03;  4.0000001E-01;  0.0000000E+00;0;  0.0000000E+00;  0.0000000E+00;  0.0000000E+00;0;  0.0000000E+00;  1.0000000E+04;  0.0000000E+00;  0.0000000E+00;  1.0000000E+04;  0.0000000E+00;  1.0000000E+04;  0.0000000E+00;  0.0000000E+00;  0.0000000E+00;  0.0000000E+00;
  2.2000000E+00;  9.9999998E-03;  1.8000001E-01;975;  0.0000000E+00;  0.0000000E+00;  0.0000000E+00;  1.0000000E+03;  4.0000001E-01;  0.0000000E+00;0;  0.0000000E+00;  0.0000000E+00;  0.0000000E+00;0;  0.0000000E+00;  1.0000000E+04;  0.0000000E+00;  0.0000000E+00;  1.0000000E+04;  0.0000000E+00;  1.0000000E+04;  0.0000000E+00;  0.0000000E+00;  0.0000000E+00;  0.0000000E+00;
  2.2000000E+00;  9.9999998E-03;  2.0000000E-01;976;  0.0000000E+00;  0.0000000E+00;  0.0000000E+00;  1.0000000E+03;  4.0000001E-01;  0.0000000E+00;0;  0.0000000E+00;  0.0000000E+00;  0.0000000E+00;0;  0.0000000E+00;  1.0000000E+04;  0.0000000E+00;  0.0000000E+00;  1.0000000E+04;  0.0000000E+00;  1.0000000E+04;  0.0000000E+00;  0.0000000E+00;  0.0000000E+00;  0.0000000E+00;
  2.2000000E+00;  9.9999998E-03;  2.2000000E-01;977;  0.0000000E+00;  0.0000000E+00;  0.0000000E+00;  1.0000000E+03;  4.0000001E-01;  0.0000000E+00;0;  0.0000000E+00;  0.0000000E+00;  0.0000000E+00;0;  0.0000000E+00;  1.0000000E+04;  0.0000000E+00;  0.0000000E+00;  1.0000000E+04;  0.0000000E+00;  1.0000000E+04;  0.0000000E+00;  0.0000000E+00;  0.0000000E+00;  0.0000000E+00;
  2.2000000E+00;  9.9999998E-03;  2.3999999E-01;978;  0.0000000E+00;  0.0000000E+00;  0.0000000E+00;  1.0000000E+03;  4.0000001E-01;  0.0000000E+00;0;  0.0000000E+00;  0.0000000E+00;  0.0000000E+00;0;  0.0000000E+00;  1.0000000E+04;  0.0000000E+00;  0.0000000E+00;  1.0000000E+04;  0.0000000E+00;  1.0000000E+04;  0.0000000E+00;  0.0000000E+00;  0.0000000E+00;  0.0000000E+00;
  2.2000000E+00;  9.9999998E-03;  2.5999999E-01;979;  0.0000000E+00;  0.0000000E+00;  0.0000000E+00;  1.0000000E+03;  4.0000001E-01;  0.0000000E+00;0;  0.0000000E+00;  0.0000000E+00;  0.0000000E+00;0;  0.0000000E+00;  1.0000000E+04;  0.0000000E+00;  0.0000000E+00;  1.0000000E+04;  0.0000000E+00;  1.0000000E+04;  0.0000000E+00;  0.0000000E+00;  0.0000000E+00;  0.0000000E+00;
  2.2000000E+00;  9.9999998E-03;  2.8000000E-01;980;  0.0000000E+00;  0.0000000E+00;  0.0000000E+00;  1.0000000E+03;  4.0000001E-01;  0.0000000E+00;0;  0.0000000E+00;  0.0000000E+00;  0.0000000E+00;0;  0.0000000E+00;  1.0000000E+04;  0.0000000E+00;  0.0000000E+00;  1.0000000E+04;  0.0000000E+00;  1.0000000E+04;  0.0000000E+00;  0.0000000E+00;  0.0000000E+00;  0.0000000E+00;
  2.2000000E+00;  9.9999998E-03;  3.0000001E-01;981;  0.0000000E+00;  0.0000000E+00;  0.0000000E+00;  1.0000000E+03;  4.0000001E-01;  0.0000000E+00;0;  0.0000000E+00;  0.0000000E+00;  0.0000000E+00;0;  0.0000000E+00;  1.0000000E+04;  0.0000000E+00;  0.0000000E+00;  1.0000000E+04;  0.0000000E+00;  1.0000000E+04;  0.0000000E+00;  0.0000000E+00;  0.0000000E+00;  0.0000000E+00;
  2.2000000E+00;  9.9999998E-03;  3.1999999E-01;982;  0.0000000E+00;  0.0000000E+00;  0.0000000E+00;  1.0000000E+03;  4.0000001E-01;  0.0000000E+00;0;  0.0000000E+00;  0.0000000E+00;  0.0000000E+00;0;  0.0000000E+00;  1.0000000E+04;  0.0000000E+00;  0.0000000E+00;  1.0000000E+04;  0.0000000E+00;  1.0000000E+04;  0.0000000E+00;  0.0000000E+00;  0.0000000E+00;  0.0000000E+00;
  2.2000000E+00;  9.9999998E-03;  3.4000000E-01;983;  0.0000000E+00;  0.0000000E+00;  0.0000000E+00;  1.0000000E+03;  4.0000001E-01;  0.0000000E+00;0;  0.0000000E+00;  0.0000000E+00;  0.0000000E+00;0;  0.0000000E+00;  1.0000000E+04;  0.0000000E+00;  0.0000000E+00;  1.0000000E+04;  0.0000000E+00;  1.0000000E+04;  0.0000000E+00;  0.0000000E+00;  0.0000000E+00;  0.0000000E+00;
  2.2000000E+00;  9.9999998E-03;  3.6000001E-01;984;  0.0000000E+00;  0.0000000E+00;  0.0000000E+00;  1.0000000E+03;  4.0000001E-01;  0.0000000E+00;0;  0.0000000E+00;  0.0000000E+00;  0.0000000E+00;0;  0.0000000E+00;  1.0000000E+04;  0.0000000E+00;  0.0000000E+00;  1.0000000E+04;  0.0000000E+00;  1.0000000E+04;  0.0000000E+00;  0.0000000E+00;  0.0000000E+00;  0.0000000E+00;
  2.2000000E+00;  9.9999998E-03;  3.8000000E-01;985;  0.0000000E+00;  0.0000000E+00;  0.0000000E+00;  1.0000000E+03;  4.0000001E-01;  0.0000000E+00;0;  0.0000000E+00;  0.0000000E+00;  0.0000000E+00;0;  0.0000000E+00;  1.0000000E+04;  0.0000000E+00;  0.0000000E+00;  1.0000000E+04;  0.0000000E+00;  1.0000000E+04;  0.0000000E+00;  0.0000000E+00;  0.0000000E+00;  0.0000000E+00;
  2.2200000E+00;  9.9999998E-03;  2.0000000E-02;986;  0.0000000E+00;  0.0000000E+00;  0.0000000E+00;  1.0000000E+03;  4.0000001E-01;  0.0000000E+00;0;  0.0000000E+00;  0.0000000E+00;  0.0000000E+00;0;  0.0000000E+00;  1.0000000E+04;  0.0000000E+00;  0.0000000E+00;  1.0000000E+04;  0.0000000E+00;  1.0000000E+04;  0.0000000E+00;  0.0000000E+00;  0.0000000E+00;  0.0000000E+00;
  2.2200000E+00;  9.9999998E-03;  3.9999999E-02;987;  0.0000000E+00;  0.0000000E+00;  0.0000000E+00;  1.0000000E+03;  4.0000001E-01;  0.0000000E+00;0;  0.0000000E+00;  0.0000000E+00;  0.0000000E+00;0;  0.0000000E+00;  1.0000000E+04;  0.0000000E+00;  0.0000000E+00;  1.0000000E+04;  0.0000000E+00;  1.0000000E+04;  0.0000000E+00;  0.0000000E+00;  0.0000000E+00;  0.0000000E+00;
  2.2200000E+00;  9.9999998E-03;  5.9999999E-02;988;  0.0000000E+00;  0.0000000E+00;  0.0000000E+00;  1.0000000E+03;  4.0000001E-01;  0.0000000E+00;0;  0.0000000E+00;  0.0000000E+00;  0.0000000E+00;0;  0.0000000E+00;  1.0000000E+04;  0.0000000E+00;  0.0000000E+00;  1.0000000E+04;  0.0000000E+00;  1.0000000E+04;  0.0000000E+00;  0.0000000E+00;  0.0000000E+00;  0.0000000E+00;
  2.2200000E+00;  9.9999998E-03;  7.9999998E-02;989;  0.0000000E+00;  0.0000000E+00;  0.0000000E+00;  1.0000000E+03;  4.0000001E-01;  0.0000000E+00;0;  0.0000000E+00;  0.0000000E+00;  0.0000000E+00;0;  0.0000000E+00;  1.0000000E+04;  0.0000000E+00;  0.0000000E+00;  1.0000000E+04;  0.0000000E+00;  1.0000000E+04;  0.0000000E+00;  0.0000000E+00;  0.0000000E+00;  0.0000000E+00;
  2.2200000E+00;  9.9999998E-03;  1.0000000E-01;990;  0.0000000E+00;  0.0000000E+00;  0.0000000E+00;  1.0000000E+03;  4.0000001E-01;  0.0000000E+00;0;  0.0000000E+00;  0.0000000E+00;  0.0000000E+00;0;  0.0000000E+00;  1.0000000E+04;  0.0000000E+00;  0.0000000E+00;  1.0000000E+04;  0.0000000E+00;  1.0000000E+04;  0.0000000E+00;  0.0000000E+00;  0.0000000E+00;  0.0000000E+00;
  2.2200000E+00;  9.9999998E-03;  1.2000000E-01;991;  0.0000000E+00;  0.0000000E+00;  0.0000000E+00;  1.0000000E+03;  4.0000001E-01;  0.0000000E+00;0;  0.0000000E+00;  0.0000000E+00;  0.0000000E+00;0;  0.0000000E+00;  1.0000000E+04;  0.0000000E+00;  0.0000000E+00;  1.0000000E+04;  0.0000000E+00;  1.0000000E+04;  0.0000000E+00;  0.0000000E+00;  0.0000000E+00;  0.0000000E+00;
  2.2200000E+00;  9.9999998E-03;  1.4000000E-01;992;  0.0000000E+00;  0.0000000E+00;  0.0000000E+00;  1.0000000E+03;  4.0000001E-01;  0.0000000E+00;0;  0.0000000E+00;  0.0000000E+00;  0.0000000E+00;0;  0.0000000E+00;  1.0000000E+04;  0.0000000E+00;  0.0000000E+00;  1.0000000E+04;  0.0000000E+00;  1.0000000E+04;  0.0000000E+00;  0.0000000E+00;  0.0000000E+00;  0.0000000E+00;
  2.2200000E+00;  9.9999998E-03;  1.6000000E-01;993;  0.0000000E+00;  0.0000000E+00;  0.0000000E+00;  1.0000000E+03;  4.0000001E-01;  0.0000000E+00;0;  0.0000000E+00;  0.0000000E+00;  0.0000000E+00;0;  0.0000000E+00;  1.0000000E+04;  0.0000000E+00;  0.0000000E+00;  1.0000000E+04;  0.0000000E+00;  1.0000000E+04;  0.0000000E+00;  0.0000000E+00;  0.0000000E+00;  0.0000000E+00;
  2.2200000E+00;  9.9999998E-03;  1.8000001E-01;994;  0.0000000E+00;  0.0000000E+00;  0.0000000E+00;  1.0000000E+03;  4.0000001E-01;  0.0000000E+00;0;  0.0000000E+00;  0.0000000E+00;  0.0000000E+00;0;  0.0000000E+00;  1.0000000E+04;  0.0000000E+00;  0.0000000E+00;  1.0000000E+04;  0.0000000E+00;  1.0000000E+04;  0.0000000E+00;  0.0000000E+00;  0.0000000E+00;  0.0000000E+00;
  2.2200000E+00;  9.9999998E-03;  2.0000000E-01;995;  0.0000000E+00;  0.0000000E+00;  0.0000000E+00;  1.0000000E+03;  4.0000001E-01;  0.0000000E+00;0;  0.0000000E+00;  0.0000000E+00;  0.0000000E+00;0;  0.0000000E+00;  1.0000000E+04;  0.0000000E+00;  0.0000000E+00;  1.0000000E+04;  0.0000000E+00;  1.0000000E+04;  0.0000000E+00;  0.0000000E+00;  0.0000000E+00;  0.0000000E+00;
  2.2200000E+00;  9.9999998E-03;  2.2000000E-01;996;  0.0000000E+00;  0.0000000E+00;  0.0000000E+00;  1.0000000E+03;  4.0000001E-01;  0.0000000E+00;0;  0.0000000E+00;  0.0000000E+00;  0.0000000E+00;0;  0.0000000E+00;  1.0000000E+04;  0.0000000E+00;  0.0000000E+00;  1.0000000E+04;  0.0000000E+00;  1.0000000E+04;  0.0000000E+00;  0.0000000E+00;  0.0000000E+00;  0.0000000E+00;
  2.2200000E+00;  9.9999998E-03;  2.3999999E-01;997;  0.0000000E+00;  0.0000000E+00;  0.0000000E+00;  1.0000000E+03;  4.0000001E-01;  0.0000000E+00;0;  0.0000000E+00;  0.0000000E+00;  0.0000000E+00;0;  0.0000000E+00;  1.0000000E+04;  0.0000000E+00;  0.0000000E+00;  1.0000000E+04;  0.0000000E+00;  1.0000000E+04;  0.0000000E+00;  0.0000000E+00;  0.0000000E+00;  0.0000000E+00;
  2.2200000E+00;  9.9999998E-03;  2.5999999E-01;998;  0.0000000E+00;  0.0000000E+00;  0.0000000E+00;  1.0000000E+03;  4.0000001E-01;  0.0000000E+00;0;  0.0000000E+00;  0.0000000E+00;  0.0000000E+00;0;  0.0000000E+00;  1.0000000E+04;  0.0000000E+00;  0.0000000E+00;  1.0000000E+04;  0.0000000E+00;  1.0000000E+04;  0.0000000E+00;  0.0000000E+00;  0.0000000E+00;  0.0000000E+00;
  2.2200000E+00;  9.9999998E-03;  2.8000000E-01;999;  0.0000000E+00;  0.0000000E+00;  0.0000000E+00;  1.0000000E+03;  4.0000001E-01;  0.0000000E+00;0;  0.0000000E+00;  0.0000000E+00;  0.0000000E+00;0;  0.0000000E+00;  1.0000000E+04;  0.0000000E+00;  0.0000000E+00;  1.0000000E+04;  0.0000000E+00;  1.0000000E+04;  0.0000000E+00;  0.0000000E+00;  0.0000000E+00;  0.0000000E+00;
  2.2200000E+00;  9.9999998E-03;  3.0000001E-01;1000;  0.0000000E+00;  0.0000000E+00;  0.0000000E+00;  1.0000000E+03;  4.0000001E-01;  0.0000000E+00;0;  0.0000000E+00;  0.0000000E+00;  0.0000000E+00;0;  0.0000000E+00;  1.0000000E+04;  0.0000000E+00;  0.0000000E+00;  1.0000000E+04;  0.0000000E+00;  1.0000000E+04;  0.0000000E+00;  0.0000000E+00;  0.0000000E+00;  0.0000000E+00;
  2.2200000E+00;  9.9999998E-03;  3.1999999E-01;1001;  0.0000000E+00;  0.0000000E+00;  0.0000000E+00;  1.0000000E+03;  4.0000001E-01;  0.0000000E+00;0;  0.0000000E+00;  0.0000000E+00;  0.0000000E+00;0;  0.0000000E+00;  1.0000000E+04;  0.0000000E+00;  0.0000000E+00;  1.0000000E+04;  0.0000000E+00;  1.0000000E+04;  0.0000000E+00;  0.0000000E+00;  0.0000000E+00;  0.0000000E+00;
  2.2200000E+00;  9.9999998E-03;  3.4000000E-01;1002;  0.0000000E+00;  0.0000000E+00;  0.0000000E+00;  1.0000000E+03;  4.0000001E-01;  0.0000000E+00;0;  0.0000000E+00;  0.0000000E+00;  0.0000000E+00;0;  0.0000000E+00;  1.0000000E+04;  0.0000000E+00;  0.0000000E+00;  1.0000000E+04;  0.0000000E+00;  1.0000000E+04;  0.0000000E+00;  0.0000000E+00;  0.0000000E+00;  0.0000000E+00;
  2.2200000E+00;  9.9999998E-03;  3.6000001E-01;1003;  0.0000000E+00;  0.0000000E+00;  0.0000000E+00;  1.0000000E+03;  4.0000001E-01;  0.0000000E+00;0;  0.0000000E+00;  0.0000000E+00;  0.0000000E+00;0;  0.0000000E+00;  1.0000000E+04;  0.0000000E+00;  0.0000000E+00;  1.0000000E+04;  0.0000000E+00;  1.0000000E+04;  0.0000000E+00;  0.0000000E+00;  0.0000000E+00;  0.0000000E+00;
  2.2200000E+00;  9.9999998E-03;  3.8000000E-01;1004;  0.0000000E+00;  0.0000000E+00;  0.0000000E+00;  1.0000000E+03;  4.0000001E-01;  0.0000000E+00;0;  0.0000000E+00;  0.0000000E+00;  0.0000000E+00;0;  0.0000000E+00;  1.0000000E+04;  0.0000000E+00;  0.0000000E+00;  1.0000000E+04;  0.0000000E+00;  1.0000000E+04;  0.0000000E+00;  0.0000000E+00;  0.0000000E+00;  0.0000000E+00;
  2.2400000E+00;  9.9999998E-03;  1.2000000E-01;1005;  0.0000000E+00;  0.0000000E+00;  0.0000000E+00;  1.0000000E+03;  4.0000001E-01;  0.0000000E+00;0;  0.0000000E+00;  0.0000000E+00;  0.0000000E+00;0;  0.0000000E+00;  1.0000000E+04;  0.0000000E+00;  0.0000000E+00;  1.0000000E+04;  0.0000000E+00;  1.0000000E+04;  0.0000000E+00;  0.0000000E+00;  0.0000000E+00;  0.0000000E+00;
  2.2400000E+00;  9.9999998E-03;  1.4000000E-01;1006;  0.0000000E+00;  0.0000000E+00;  0.0000000E+00;  1.0000000E+03;  4.0000001E-01;  0.0000000E+00;0;  0.0000000E+00;  0.0000000E+00;  0.0000000E+00;0;  0.0000000E+00;  1.0000000E+04;  0.0000000E+00;  0.0000000E+00;  1.0000000E+04;  0.0000000E+00;  1.0000000E+04;  0.0000000E+00;  0.0000000E+00;  0.0000000E+00;  0.0000000E+00;
  2.2400000E+00;  9.9999998E-03;  1.6000000E-01;1007;  0.0000000E+00;  0.0000000E+00;  0.0000000E+00;  1.0000000E+03;  4.0000001E-01;  0.0000000E+00;0;  0.0000000E+00;  0.0000000E+00;  0.0000000E+00;0;  0.0000000E+00;  1.0000000E+04;  0.0000000E+00;  0.0000000E+00;  1.0000000E+04;  0.0000000E+00;  1.0000000E+04;  0.0000000E+00;  0.0000000E+00;  0.0000000E+00;  0.0000000E+00;
  2.2400000E+00;  9.9999998E-03;  1.8000001E-01;1008;  0.0000000E+00;  0.0000000E+00;  0.0000000E+00;  1.0000000E+03;  4.0000001E-01;  0.0000000E+00;0;  0.0000000E+00;  0.0000000E+00;  0.0000000E+00;0;  0.0000000E+00;  1.0000000E+04;  0.0000000E+00;  0.0000000E+00;  1.0000000E+04;  0.0000000E+00;  1.0000000E+04;  0.0000000E+00;  0.0000000E+00;  0.0000000E+00;  0.0000000E+00;
  2.2400000E+00;  9.9999998E-03;  2.0000000E-01;1009;  0.0000000E+00;  0.0000000E+00;  0.0000000E+00;  1.0000000E+03;  4.0000001E-01;  0.0000000E+00;0;  0.0000000E+00;  0.0000000E+00;  0.0000000E+00;0;  0.0000000E+00;  1.0000000E+04;  0.0000000E+00;  0.0000000E+00;  1.0000000E+04;  0.0000000E+00;  1.0000000E+04;  0.0000000E+00;  0.0000000E+00;  0.0000000E+00;  0.0000000E+00;
  2.2400000E+00;  9.9999998E-03;  2.2000000E-01;1010;  0.0000000E+00;  0.0000000E+00;  0.0000000E+00;  1.0000000E+03;  4.0000001E-01;  0.0000000E+00;0;  0.0000000E+00;  0.0000000E+00;  0.0000000E+00;0;  0.0000000E+00;  1.0000000E+04;  0.0000000E+00;  0.0000000E+00;  1.0000000E+04;  0.0000000E+00;  1.0000000E+04;  0.0000000E+00;  0.0000000E+00;  0.0000000E+00;  0.0000000E+00;
  2.2400000E+00;  9.9999998E-03;  2.3999999E-01;1011;  0.0000000E+00;  0.0000000E+00;  0.0000000E+00;  1.0000000E+03;  4.0000001E-01;  0.0000000E+00;0;  0.0000000E+00;  0.0000000E+00;  0.0000000E+00;0;  0.0000000E+00;  1.0000000E+04;  0.0000000E+00;  0.0000000E+00;  1.0000000E+04;  0.0000000E+00;  1.0000000E+04;  0.0000000E+00;  0.0000000E+00;  0.0000000E+00;  0.0000000E+00;
  2.2400000E+00;  9.9999998E-03;  2.5999999E-01;1012;  0.0000000E+00;  0.0000000E+00;  0.0000000E+00;  1.0000000E+03;  4.0000001E-01;  0.0000000E+00;0;  0.0000000E+00;  0.0000000E+00;  0.0000000E+00;0;  0.0000000E+00;  1.0000000E+04;  0.0000000E+00;  0.0000000E+00;  1.0000000E+04;  0.0000000E+00;  1.0000000E+04;  0.0000000E+00;  0.0000000E+00;  0.0000000E+00;  0.0000000E+00;
  2.2400000E+00;  9.9999998E-03;  2.8000000E-01;1013;  0.0000000E+00;  0.0000000E+00;  0.0000000E+00;  1.0000000E+03;  4.0000001E-01;  0.0000000E+00;0;  0.0000000E+00;  0.0000000E+00;  0.0000000E+00;0;  0.0000000E+00;  1.0000000E+04;  0.0000000E+00;  0.0000000E+00;  1.0000000E+04;  0.0000000E+00;  1.0000000E+04;  0.0000000E+00;  0.0000000E+00;  0.0000000E+00;  0.0000000E+00;
  2.2400000E+00;  9.9999998E-03;  3.0000001E-01;1014;  0.0000000E+00;  0.0000000E+00;  0.0000000E+00;  1.0000000E+03;  4.0000001E-01;  0.0000000E+00;0;  0.0000000E+00;  0.0000000E+00;  0.0000000E+00;0;  0.0000000E+00;  1.0000000E+04;  0.0000000E+00;  0.0000000E+00;  1.0000000E+04;  0.0000000E+00;  1.0000000E+04;  0.0000000E+00;  0.0000000E+00;  0.0000000E+00;  0.0000000E+00;
  2.2400000E+00;  9.9999998E-03;  3.1999999E-01;1015;  0.0000000E+00;  0.0000000E+00;  0.0000000E+00;  1.0000000E+03;  4.0000001E-01;  0.0000000E+00;0;  0.0000000E+00;  0.0000000E+00;  0.0000000E+00;0;  0.0000000E+00;  1.0000000E+04;  0.0000000E+00;  0.0000000E+00;  1.0000000E+04;  0.0000000E+00;  1.0000000E+04;  0.0000000E+00;  0.0000000E+00;  0.0000000E+00;  0.0000000E+00;
  2.2400000E+00;  9.9999998E-03;  3.4000000E-01;1016;  0.0000000E+00;  0.0000000E+00;  0.0000000E+00;  1.0000000E+03;  4.0000001E-01;  0.0000000E+00;0;  0.0000000E+00;  0.0000000E+00;  0.0000000E+00;0;  0.0000000E+00;  1.0000000E+04;  0.0000000E+00;  0.0000000E+00;  1.0000000E+04;  0.0000000E+00;  1.0000000E+04;  0.0000000E+00;  0.0000000E+00;  0.0000000E+00;  0.0000000E+00;
  2.2400000E+00;  9.9999998E-03;  3.6000001E-01;1017;  0.0000000E+00;  0.0000000E+00;  0.0000000E+00;  1.0000000E+03;  4.0000001E-01;  0.0000000E+00;0;  0.0000000E+00;  0.0000000E+00;  0.0000000E+00;0;  0.0000000E+00;  1.0000000E+04;  0.0000000E+00;  0.0000000E+00;  1.0000000E+04;  0.0000000E+00;  1.0000000E+04;  0.0000000E+00;  0.0000000E+00;  0.0000000E+00;  0.0000000E+00;
  2.2400000E+00;  9.9999998E-03;  3.8000000E-01;1018;  0.0000000E+00;  0.0000000E+00;  0.0000000E+00;  1.0000000E+03;  4.0000001E-01;  0.0000000E+00;0;  0.0000000E+00;  0.0000000E+00;  0.0000000E+00;0;  0.0000000E+00;  1.0000000E+04;  0.0000000E+00;  0.0000000E+00;  1.0000000E+04;  0.0000000E+00;  1.0000000E+04;  0.0000000E+00;  0.0000000E+00;  0.0000000E+00;  0.0000000E+00;
  2.2600000E+00;  9.9999998E-03;  2.2000000E-01;1019;  0.0000000E+00;  0.0000000E+00;  0.0000000E+00;  1.0000000E+03;  4.0000001E-01;  0.0000000E+00;0;  0.0000000E+00;  0.0000000E+00;  0.0000000E+00;0;  0.0000000E+00;  1.0000000E+04;  0.0000000E+00;  0.0000000E+00;  1.0000000E+04;  0.0000000E+00;  1.0000000E+04;  0.0000000E+00;  0.0000000E+00;  0.0000000E+00;  0.0000000E+00;
  2.2600000E+00;  9.9999998E-03;  2.3999999E-01;1020;  0.0000000E+00;  0.0000000E+00;  0.0000000E+00;  1.0000000E+03;  4.0000001E-01;  0.0000000E+00;0;  0.0000000E+00;  0.0000000E+00;  0.0000000E+00;0;  0.0000000E+00;  1.0000000E+04;  0.0000000E+00;  0.0000000E+00;  1.0000000E+04;  0.0000000E+00;  1.0000000E+04;  0.0000000E+00;  0.0000000E+00;  0.0000000E+00;  0.0000000E+00;
  2.2600000E+00;  9.9999998E-03;  2.5999999E-01;1021;  0.0000000E+00;  0.0000000E+00;  0.0000000E+00;  1.0000000E+03;  4.0000001E-01;  0.0000000E+00;0;  0.0000000E+00;  0.0000000E+00;  0.0000000E+00;0;  0.0000000E+00;  1.0000000E+04;  0.0000000E+00;  0.0000000E+00;  1.0000000E+04;  0.0000000E+00;  1.0000000E+04;  0.0000000E+00;  0.0000000E+00;  0.0000000E+00;  0.0000000E+00;
  2.2600000E+00;  9.9999998E-03;  2.8000000E-01;1022;  0.0000000E+00;  0.0000000E+00;  0.0000000E+00;  1.0000000E+03;  4.0000001E-01;  0.0000000E+00;0;  0.0000000E+00;  0.0000000E+00;  0.0000000E+00;0;  0.0000000E+00;  1.0000000E+04;  0.0000000E+00;  0.0000000E+00;  1.0000000E+04;  0.0000000E+00;  1.0000000E+04;  0.0000000E+00;  0.0000000E+00;  0.0000000E+00;  0.0000000E+00;
  2.2600000E+00;  9.9999998E-03;  3.0000001E-01;1023;  0.0000000E+00;  0.0000000E+00;  0.0000000E+00;  1.0000000E+03;  4.0000001E-01;  0.0000000E+00;0;  0.0000000E+00;  0.0000000E+00;  0.0000000E+00;0;  0.0000000E+00;  1.0000000E+04;  0.0000000E+00;  0.0000000E+00;  1.0000000E+04;  0.0000000E+00;  1.0000000E+04;  0.0000000E+00;  0.0000000E+00;  0.0000000E+00;  0.0000000E+00;
  2.2600000E+00;  9.9999998E-03;  3.1999999E-01;1024;  0.0000000E+00;  0.0000000E+00;  0.0000000E+00;  1.0000000E+03;  4.0000001E-01;  0.0000000E+00;0;  0.0000000E+00;  0.0000000E+00;  0.0000000E+00;0;  0.0000000E+00;  1.0000000E+04;  0.0000000E+00;  0.0000000E+00;  1.0000000E+04;  0.0000000E+00;  1.0000000E+04;  0.0000000E+00;  0.0000000E+00;  0.0000000E+00;  0.0000000E+00;
  2.2600000E+00;  9.9999998E-03;  3.4000000E-01;1025;  0.0000000E+00;  0.0000000E+00;  0.0000000E+00;  1.0000000E+03;  4.0000001E-01;  0.0000000E+00;0;  0.0000000E+00;  0.0000000E+00;  0.0000000E+00;0;  0.0000000E+00;  1.0000000E+04;  0.0000000E+00;  0.0000000E+00;  1.0000000E+04;  0.0000000E+00;  1.0000000E+04;  0.0000000E+00;  0.0000000E+00;  0.0000000E+00;  0.0000000E+00;
  2.2600000E+00;  9.9999998E-03;  3.6000001E-01;1026;  0.0000000E+00;  0.0000000E+00;  0.0000000E+00;  1.0000000E+03;  4.0000001E-01;  0.0000000E+00;0;  0.0000000E+00;  0.0000000E+00;  0.0000000E+00;0;  0.0000000E+00;  1.0000000E+04;  0.0000000E+00;  0.0000000E+00;  1.0000000E+04;  0.0000000E+00;  1.0000000E+04;  0.0000000E+00;  0.0000000E+00;  0.0000000E+00;  0.0000000E+00;
  2.2600000E+00;  9.9999998E-03;  3.8000000E-01;1027;  0.0000000E+00;  0.0000000E+00;  0.0000000E+00;  1.0000000E+03;  4.0000001E-01;  0.0000000E+00;0;  0.0000000E+00;  0.0000000E+00;  0.0000000E+00;0;  0.0000000E+00;  1.0000000E+04;  0.0000000E+00;  0.0000000E+00;  1.0000000E+04;  0.0000000E+00;  1.0000000E+04;  0.0000000E+00;  0.0000000E+00;  0.0000000E+00;  0.0000000E+00;
  2.2800000E+00;  9.9999998E-03;  3.1999999E-01;1028;  0.0000000E+00;  0.0000000E+00;  0.0000000E+00;  1.0000000E+03;  4.0000001E-01;  0.0000000E+00;0;  0.0000000E+00;  0.0000000E+00;  0.0000000E+00;0;  0.0000000E+00;  1.0000000E+04;  0.0000000E+00;  0.0000000E+00;  1.0000000E+04;  0.0000000E+00;  1.0000000E+04;  0.0000000E+00;  0.0000000E+00;  0.0000000E+00;  0.0000000E+00;
  2.2800000E+00;  9.9999998E-03;  3.4000000E-01;1029;  0.0000000E+00;  0.0000000E+00;  0.0000000E+00;  1.0000000E+03;  4.0000001E-01;  0.0000000E+00;0;  0.0000000E+00;  0.0000000E+00;  0.0000000E+00;0;  0.0000000E+00;  1.0000000E+04;  0.0000000E+00;  0.0000000E+00;  1.0000000E+04;  0.0000000E+00;  1.0000000E+04;  0.0000000E+00;  0.0000000E+00;  0.0000000E+00;  0.0000000E+00;
  2.2800000E+00;  9.9999998E-03;  3.6000001E-01;1030;  0.0000000E+00;  0.0000000E+00;  0.0000000E+00;  1.0000000E+03;  4.0000001E-01;  0.0000000E+00;0;  0.0000000E+00;  0.0000000E+00;  0.0000000E+00;0;  0.0000000E+00;  1.0000000E+04;  0.0000000E+00;  0.0000000E+00;  1.0000000E+04;  0.0000000E+00;  1.0000000E+04;  0.0000000E+00;  0.0000000E+00;  0.0000000E+00;  0.0000000E+00;
 -6.0564325E-06;  9.9999998E-03; -2.8000236E-01;1031; -3.1998283E-03;  0.0000000E+00; -1.2735019E-03;  1.0001298E+03;  4.0000001E-01;  1.0755250E+02;3; -2.0688810E+00;  0.0000000E+00; -8.4200621E-01;0; -6.3905373E-02;  1.0002399E+04;  0.0000000E+00; -3.0591800E-06;  1.0000000E+04;  0.0000000E+00;  1.0000198E+04; -5.8780566E-02;  0.0000000E+00; -5.1248060E-03;  8.1595009E+01;
 -7.3980968E-06;  9.9999998E-03; -2.6000229E-01;1032; -3.9259121E-03;  0.0000000E+00; -1.2370234E-03;  1.0001552E+03;  4.0000001E-01;  1.2858894E+02;3; -2.4120817E+00;  0.0000000E+00; -7.7935219E-01;0; -7.6578319E-02;  1.0003019E+04;  0.0000000E+00; -1.2973284E-06;  1.0000000E+04;  0.0000000E+00;  1.0000091E+04; -7.4022174E-02;  0.0000000E+00; -2.5561419E-03;  2.9832060E+01;
 -8.5385691E-06;  9.9999998E-03; -2.4000208E-01;1033; -4.5480742E-03;  0.0000000E+00; -1.1369777E-03;  1.0001765E+03;  4.0000001E-01;  1.4626744E+02;3; -2.6988659E+00;  0.0000000E+00; -6.9788504E-01;0; -8.7185323E-02;  1.0003548E+04;  0.0000000E+00; -2.5768742E-07;  1.0000000E+04;  0.0000000E+00;  9.9999844E+03; -8.7256581E-02;  0.0000000E+00;  7.1254326E-05;  2.2203274E+01;
 -9.4365305E-06;  9.9999998E-03; -2.2000182E-01;1034; -5.0446936E-03;  0.0000000E+00; -1.0020140E-03;  1.0001933E+03;  4.0000001E-01;  1.6019298E+02;3; -2.9395361E+00;  0.0000000E+00; -6.1141729E-01;0; -9.5707700E-02;  1.0003967E+04;  0.0000000E+00;  5.8228778E-08;  1.0000000E+04;  0.0000000E+00;  9.9998994E+03; -9.7846605E-02;  0.0000000E+00;  2.1389048E-03;  6.2564148E+01;
 -1.0101617E-05;  9.9999998E-03; -2.0000152E-01;1035; -5.4157428E-03;  0.0000000E+00; -8.5759291E-04;  1.0002062E+03;  4.0000001E-01;  1.7085934E+02;3; -3.1350842E+00;  0.0000000E+00; -5.3036153E-01;0; -1.0236499E-01;  1.0004276E+04;  0.0000000E+00;  1.2928298E-08;  1.0000000E+04;  0.0000000E+00;  9.9998506E+03; -1.0578649E-01;  0.0000000E+00;  3.4214961E-03;  8.6933472E+01;
  1.9994078E-02;  9.9999998E-03; -3.0000308E-01;1060; -3.0725347E-03;  0.0000000E+00; -1.6458170E-03;  1.0001245E+03;  4.0000001E-01;  1.0310818E+02;3; -1.9601583E+00;  0.0000000E+00; -1.0812898E+00;0; -6.0383238E-02;  1.0002146E+04;  0.0000000E+00; -3.3858253E-06;  1.0000000E+04;  0.0000000E+00;  1.0000346E+04; -5.1773068E-02;  0.0000000E+00; -8.6101685E-03;  1.5056277E+02;
  1.9991646E-02;  9.9999998E-03; -2.8000286E-01;1061; -4.3689292E-03;  0.0000000E+00; -1.5244993E-03;  1.0001580E+03;  4.0000001E-01;  1.3086047E+02;3; -2.5665779E+00;  0.0000000E+00; -9.1673326E-01;0; -7.6652341E-02;  1.0002907E+04;  0.0000000E+00; -1.2278275E-06;  1.0000000E+04;  0.0000000E+00;  1.0000248E+04; -7.0198797E-02;  0.0000000E+00; -6.4535467E-03;  1.0421901E+02;
  1.9989556E-02;  9.9999998E-03; -2.6000285E-01;1062; -5.4907561E-03;  0.0000000E+00; -1.5288197E-03;  1.0001868E+03;  4.0000001E-01;  1.5476103E+02;3; -3.0062370E+00;  0.0000000E+00; -8.6184549E-01;0; -9.0883873E-02;  1.0003628E+04;  0.0000000E+00;  6.9434708E-07;  1.0000000E+04;  0.0000000E+00;  1.0000110E+04; -8.7753624E-02;  0.0000000E+00; -3.1302471E-03;  3.6324558E+01;
  1.9987861E-02;  9.9999998E-03; -2.4000268E-01;1063; -6.4080600E-03;  0.0000000E+00; -1.4487550E-03;  1.0002106E+03;  4.0000001E-01;  1.7441479E+02;3; -3.3416138E+00;  0.0000000E+00; -7.8840971E-01;0; -1.0265329E-01;  1.0004240E+04;  0.0000000E+00;  1.5261265E-06;  1.0000000E+04;  0.0000000E+00;  9.9999727E+03; -1.0284251E-01;  0.0000000E+00;  1.8922170E-04;  3.0387890E+01;
  1.9986570E-02;  9.9999998E-03; -2.2000238E-01;1064; -7.1144211E-03;  0.0000000E+00; -1.3073001E-03;  1.0002292E+03;  4.0000001E-01;  1.8992053E+02;3; -3.6147118E+00;  0.0000000E+00; -7.0553172E-01;0; -1.1198528E-01;  1.0004721E+04;  0.0000000E+00;  1.3916531E-06;  1.0000000E+04;  0.0000000E+00;  9.9998652E+03; -1.1476552E-01;  0.0000000E+00;  2.7802412E-03;  8.1566879E+01;
  1.9985642E-02;  9.9999998E-03; -2.0000203E-01;1065; -7.6284427E-03;  0.0000000E+00; -1.1366089E-03;  1.0002435E+03;  4.0000001E-01;  2.0167328E+02;3; -3.8391495E+00;  0.0000000E+00; -6.2366259E-01;0; -1.1918307E-01;  1.0005069E+04;  0.0000000E+00;  8.6770723E-07;  1.0000000E+04;  0.0000000E+00;  9.9998018E+03; -1.2357153E-01;  0.0000000E+00;  4.3884576E-03;  1.1223257E+02;
  3.9991774E-02;  9.9999998E-03; -3.0000338E-01;1091; -4.2311810E-03;  0.0000000E+00; -1.7596215E-03;  1.0001456E+03;  4.0000001E-01;  1.2068793E+02;3; -2.5356340E+00;  0.0000000E+00; -1.0830278E+00;0; -6.9341242E-02;  1.0002499E+04;  0.0000000E+00; -2.6438240E-06;  1.0000000E+04;  0.0000000E+00;  1.0000415E+04; -5.9168942E-02;  0.0000000E+00; -1.0172300E-02;  1.8128355E+02;
  3.9988425E-02;  9.9999998E-03; -2.8000322E-01;1092; -6.0020019E-03;  0.0000000E+00; -1.6728893E-03;  1.0001829E+03;  4.0000001E-01;  1.5150186E+02;3; -3.2459536E+00;  0.0000000E+00; -9.2136812E-01;0; -8.7259024E-02;  1.0003367E+04;  0.0000000E+00; -8.8113774E-07;  1.0000000E+04;  0.0000000E+00;  1.0000291E+04; -7.9849653E-02;  0.0000000E+00; -7.4093752E-03;  1.2126020E+02;
  3.9985538E-02;  9.9999998E-03; -2.6000318E-01;1093; -7.5382590E-03;  0.0000000E+00; -1.6575489E-03;  1.0002151E+03;  4.0000001E-01;  1.7816777E+02;3; -3.7320614E+00;  0.0000000E+00; -8.4201288E-01;0; -1.0278079E-01;  1.0004181E+04;  0.0000000E+00;  1.0112940E-06;  1.0000000E+04;  0.0000000E+00;  1.0000120E+04; -9.9285074E-02;  0.0000000E+00; -3.4957193E-03;  3.9460255E+01;
  3.9983187E-02;  9.9999998E-03; -2.4000297E-01;1094; -8.8002542E-03;  0.0000000E+00; -1.5803614E-03;  1.0002410E+03;  4.0000001E-01;  1.9959926E+02;3; -4.0980129E+00;  0.0000000E+00; -7.6930690E-01;0; -1.1538125E-01;  1.0004861E+04;  0.0000000E+00;  1.9642644E-06;  1.0000000E+04;  0.0000000E+00;  9.9999600E+03; -1.1569972E-01;  0.0000000E+00;  3.1847460E-04;  3.9010620E+01;
  3.9981432E-02;  9.9999998E-03; -2.2000268E-01;1095; -9.7548505E-03;  0.0000000E+00; -1.4550146E-03;  1.0002606E+03;  4.0000001E-01;  2.1589510E+02;3; -4.3960581E+00;  0.0000000E+00; -7.0330191E-01;0; -1.2515114E-01;  1.0005382E+04;  0.0000000E+00;  1.8801013E-06;  1.0000000E+04;  0.0000000E+00;  9.9998350E+03; -1.2841487E-01;  0.0000000E+00;  3.2637317E-03;  9.8356972E+01;
  3.9980188E-02;  9.9999998E-03; -2.0000230E-01;1096; -1.0440328E-02;  0.0000000E+00; -1.2800877E-03;  1.0002755E+03;  4.0000001E-01;  2.2824042E+02;3; -4.6504879E+00;  0.0000000E+00; -6.3213766E-01;0; -1.3251190E-01;  1.0005747E+04;  0.0000000E+00;  1.3347234E-06;  1.0000000E+04;  0.0000000E+00;  9.9997627E+03; -1.3759688E-01;  0.0000000E+00;  5.0849747E-03;  1.3342815E+02;
  5.9988927E-02;  9.9999998E-03; -3.0000353E-01;1122; -5.6449957E-03;  0.0000000E+00; -1.7926681E-03;  1.0001662E+03;  4.0000001E-01;  1.3767509E+02;3; -3.2316570E+00;  0.0000000E+00; -1.0409851E+00;0; -7.7442206E-02;  1.0002861E+04;  0.0000000E+00; -2.9572120E-05;  1.0000000E+04;  0.0000000E+00;  1.0000463E+04; -6.6317260E-02;  0.0000000E+00; -1.1124947E-02;  2.0263812E+02;
  5.9984513E-02;  9.9999998E-03; -2.8000334E-01;1123; -7.9542650E-03;  0.0000000E+00; -1.6784600E-03;  1.0002080E+03;  4.0000001E-01;  1.7234077E+02;3; -4.0434122E+00;  0.0000000E+00; -8.5466957E-01;0; -9.7021975E-02;  1.0003842E+04;  0.0000000E+00; -1.0730078E-05;  1.0000000E+04;  0.0000000E+00;  1.0000314E+04; -8.9097209E-02;  0.0000000E+00; -7.9247626E-03;  1.3137407E+02;
  5.9980772E-02;  9.9999998E-03; -2.6000330E-01;1124; -9.9208076E-03;  0.0000000E+00; -1.6764400E-03;  1.0002433E+03;  4.0000001E-01;  2.0157451E+02;3; -4.5515947E+00;  0.0000000E+00; -7.8023338E-01;0; -1.1381970E-01;  1.0004742E+04;  0.0000000E+00; -2.3580260E-06;  1.0000000E+04;  0.0000000E+00;  1.0000126E+04; -1.1019085E-01;  0.0000000E+00; -3.6288467E-03;  3.8648029E+01;
  5.9977755E-02;  9.9999998E-03; -2.4000312E-01;1125; -1.1523599E-02;  0.0000000E+00; -1.6156870E-03;  1.0002712E+03;  4.0000001E-01;  2.2468497E+02;3; -4.9258518E+00;  0.0000000E+00; -7.1909904E-01;0; -1.2719244E-01;  1.0005482E+04;  0.0000000E+00; -4.3829613E-07;  1.0000000E+04;  0.0000000E+00;  9.9999473E+03; -1.2764007E-01;  0.0000000E+00;  4.4762855E-04;  4.8056847E+01;
  5.9975516E-02;  9.9999998E-03; -2.2000283E-01;1126; -1.2730059E-02;  0.0000000E+00; -1.5033877E-03;  1.0002922E+03;  4.0000001E-01;  2.4206718E+02;3; -5.2402124E+00;  0.0000000E+00; -6.6876364E-01;0; -1.3727723E-01;  1.0006034E+04;  0.0000000E+00;  5.8895336E-07;  1.0000000E+04;  0.0000000E+00;  9.9998115E+03; -1.4081816E-01;  0.0000000E+00;  3.5409317E-03;  1.1228099E+02;
  5.9973963E-02;  9.9999998E-03; -2.0000243E-01;1127; -1.3584408E-02;  0.0000000E+00; -1.3355967E-03;  1.0003070E+03;  4.0000001E-01;  2.5431375E+02;3; -5.5224705E+00;  0.0000000E+00; -6.1069000E-01;0; -1.4462899E-01;  1.0006410E+04;  0.0000000E+00;  8.5089499E-07;  1.0000000E+04;  0.0000000E+00;  9.9997344E+03; -1.5006004E-01;  0.0000000E+00;  5.4310588E-03;  1.4933682E+02;
  7.9985589E-02;  9.9999998E-03; -3.0000371E-01;1153; -7.2717178E-03;  0.0000000E+00; -1.8027592E-03;  1.0001901E+03;  4.0000001E-01;  1.5742763E+02;3; -4.0373201E+00;  0.0000000E+00; -9.9629307E-01;0; -8.6304404E-02;  1.0003306E+04;  0.0000000E+00; -2.6659069E-03;  1.0000000E+04;  0.0000000E+00;  1.0000492E+04; -7.4801609E-02;  0.0000000E+00; -1.1502797E-02;  2.1542519E+02;
  7.9979986E-02;  9.9999998E-03; -2.8000337E-01;1154; -1.0160310E-02;  0.0000000E+00; -1.6127848E-03;  1.0002364E+03;  4.0000001E-01;  1.9584628E+02;3; -4.9540029E+00;  0.0000000E+00; -7.6808453E-01;0; -1.0762382E-01;  1.0004402E+04;  0.0000000E+00; -1.4988155E-03;  1.0000000E+04;  0.0000000E+00;  1.0000329E+04; -9.9598132E-02;  0.0000000E+00; -8.0256937E-03;  1.3493639E+02;
  7.9975337E-02;  9.9999998E-03; -2.6000330E-01;1155; -1.2570176E-02;  0.0000000E+00; -1.6112204E-03;  1.0002753E+03;  4.0000001E-01;  2.2814166E+02;3; -5.4808741E+00;  0.0000000E+00; -6.9886541E-01;0; -1.2570629E-01;  1.0005387E+04;  0.0000000E+00; -5.2499061E-04;  1.0000000E+04;  0.0000000E+00;  1.0000119E+04; -1.2215163E-01;  0.0000000E+00; -3.5546646E-03;  3.4154583E+01;
  7.9971649E-02;  9.9999998E-03; -2.4000312E-01;1156; -1.4506680E-02;  0.0000000E+00; -1.5639354E-03;  1.0003056E+03;  4.0000001E-01;  2.5322737E+02;3; -5.8584194E+00;  0.0000000E+00; -6.5155387E-01;0; -1.3987389E-01;  1.0006182E+04;  0.0000000E+00; -6.1928178E-05;  1.0000000E+04;  0.0000000E+00;  9.9999326E+03; -1.4043418E-01;  0.0000000E+00;  5.6029018E-04;  5.7488167E+01;
  7.9968952E-02;  9.9999998E-03; -2.2000284E-01;1157; -1.5943309E-02;  0.0000000E+00; -1.4717594E-03;  1.0003277E+03;  4.0000001E-01;  2.7149844E+02;3; -6.1858654E+00;  0.0000000E+00; -6.1793041E-01;0; -1.5029082E-01;  1.0006757E+04;  0.0000000E+00; -2.9733744E-06;  1.0000000E+04;  0.0000000E+00;  9.9997949E+03; -1.5389851E-01;  0.0000000E+00;  3.6076955E-03;  1.2349963E+02;
  7.9967111E-02;  9.9999998E-03; -2.0000246E-01;1158; -1.6948614E-02;  0.0000000E+00; -1.3186829E-03;  1.0003423E+03;  4.0000001E-01;  2.8354749E+02;3; -6.4931736E+00;  0.0000000E+00; -5.7584572E-01;0; -1.5759131E-01;  1.0007130E+04;  0.0000000E+00; -7.0468309E-07;  1.0000000E+04;  0.0000000E+00;  9.9997207E+03; -1.6302569E-01;  0.0000000E+00;  5.4343827E-03;  1.6033722E+02;
  9.9981658E-02;  9.9999998E-03; -3.0000392E-01;1184; -9.1362363E-03;  0.0000000E+00; -1.8283878E-03;  1.0002232E+03;  4.0000001E-01;  1.8488364E+02;3; -4.9714956E+00;  0.0000000E+00; -9.7060299E-01;0; -9.8903783E-02;  1.0003956E+04;  0.0000000E+00; -2.3518393E-02;  1.0000000E+04;  0.0000000E+00;  1.0000509E+04; -8.7416343E-02;  0.0000000E+00; -1.1487437E-02;  2.5356152E+02;
  9.9974737E-02;  9.9999998E-03; -2.8000334E-01;1185; -1.2646487E-02;  0.0000000E+00; -1.5061478E-03;  1.0002745E+03;  4.0000001E-01;  2.2745032E+02;3; -6.0045743E+00;  0.0000000E+00; -6.7376232E-01;0; -1.2172838E-01;  1.0005156E+04;  0.0000000E+00; -1.4905409E-02;  1.0000000E+04;  0.0000000E+00;  1.0000331E+04; -1.1387958E-01;  0.0000000E+00; -7.8487899E-03;  1.5466971E+02;
  9.9969149E-02;  9.9999998E-03; -2.6000321E-01;1186; -1.5501716E-02;  0.0000000E+00; -1.4814931E-03;  1.0003161E+03;  4.0000001E-01;  2.6191849E+02;3; -6.5467391E+00;  0.0000000E+00; -6.0307980E-01;0; -1.4057223E-01;  1.0006213E+04;  0.0000000E+00; -6.8859914E-03;  1.0000000E+04;  0.0000000E+00;  1.0000110E+04; -1.3722584E-01;  0.0000000E+00; -3.3463994E-03;  4.4991226E+01;
  9.9964790E-02;  9.9999998E-03; -2.4000302E-01;1187; -1.7755097E-02;  0.0000000E+00; -1.4445081E-03;  1.0003475E+03;  4.0000001E-01;  2.8789304E+02;3; -6.9233003E+00;  0.0000000E+00; -5.7010221E-01;0; -1.5508649E-01;  1.0007037E+04;  0.0000000E+00; -1.9063759E-03;  1.0000000E+04;  0.0000000E+00;  9.9999199E+03; -1.5572086E-01;  0.0000000E+00;  6.3437270E-04;  6.8116562E+01;
  9.9961668E-02;  9.9999998E-03; -2.2000276E-01;1188; -1.9400736E-02;  0.0000000E+00; -1.3799055E-03;  1.0003702E+03;  4.0000001E-01;  3.0665796E+02;3; -7.2614832E+00;  0.0000000E+00; -5.5656588E-01;0; -1.6561444E-01;  1.0007616E+04;  0.0000000E+00; -2.1854379E-04;  1.0000000E+04;  0.0000000E+00;  9.9997842E+03; -1.6909979E-01;  0.0000000E+00;  3.4853471E-03;  1.3272563E+02;
  9.9959582E-02;  9.9999998E-03; -2.0000239E-01;1189; -2.0533955E-02;  0.0000000E+00; -1.2527717E-03;  1.0003849E+03;  4.0000001E-01;  3.1890451E+02;3; -7.5919127E+00;  0.0000000E+00; -5.3341699E-01;0; -1.7280054E-01;  1.0007990E+04;  0.0000000E+00; -3.3425547E-06;  1.0000000E+04;  0.0000000E+00;  9.9997119E+03; -1.7795967E-01;  0.0000000E+00;  5.1591196E-03;  1.6785023E+02;
  1.1997697E-01;  9.9999998E-03; -3.0000430E-01;1215; -1.1294909E-02;  0.0000000E+00; -1.9404714E-03;  1.0002764E+03;  4.0000001E-01;  2.2903052E+02;3; -6.0535536E+00;  0.0000000E+00; -1.0070591E+00;0; -1.1955447E-01;  1.0005007E+04;  0.0000000E+00; -9.8693356E-02;  1.0000000E+04;  0.0000000E+00;  1.0000522E+04; -1.0821921E-01;  0.0000000E+00; -1.1335256E-02;  5.6928571E+02;
  1.1996860E-01;  9.9999998E-03; -2.8000334E-01;1216; -1.5477346E-02;  0.0000000E+00; -1.4139073E-03;  1.0003304E+03;  4.0000001E-01;  2.7367123E+02;3; -7.2122812E+00;  0.0000000E+00; -5.9794044E-01;0; -1.4308685E-01;  1.0006280E+04;  0.0000000E+00; -6.7639209E-02;  1.0000000E+04;  0.0000000E+00;  1.0000328E+04; -1.3546711E-01;  0.0000000E+00; -7.6197372E-03;  3.8120169E+02;
  1.1996203E-01;  9.9999998E-03; -2.6000306E-01;1217; -1.8776400E-02;  0.0000000E+00; -1.3295793E-03;  1.0003715E+03;  4.0000001E-01;  3.0774432E+02;3; -7.7548904E+00;  0.0000000E+00; -5.0797653E-01;0; -1.6104394E-01;  1.0007328E+04;  0.0000000E+00; -3.4081671E-02;  1.0000000E+04;  0.0000000E+00;  1.0000097E+04; -1.5793903E-01;  0.0000000E+00; -3.1049177E-03;  1.8143222E+02;
  1.1995701E-01;  9.9999998E-03; -2.4000286E-01;1218; -2.1332704E-02;  0.0000000E+00; -1.2947887E-03;  1.0004011E+03;  4.0000001E-01;  3.3233624E+02;3; -8.1249123E+00;  0.0000000E+00; -4.8323202E-01;0; -1.7447309E-01;  1.0008119E+04;  0.0000000E+00; -1.1887254E-02;  1.0000000E+04;  0.0000000E+00;  9.9999033E+03; -1.7515799E-01;  0.0000000E+00;  6.8490766E-04;  1.0108536E+02;
  1.1995349E-01;  9.9999998E-03; -2.2000264E-01;1219; -2.3174290E-02;  0.0000000E+00; -1.2579461E-03;  1.0004221E+03;  4.0000001E-01;  3.4961969E+02;3; -8.4705219E+00;  0.0000000E+00; -4.8851717E-01;0; -1.8419495E-01;  1.0008673E+04;  0.0000000E+00; -2.3931481E-03;  1.0000000E+04;  0.0000000E+00;  9.9997725E+03; -1.8745819E-01;  0.0000000E+00;  3.2632384E-03;  1.4288678E+02;
  1.1995119E-01;  9.9999998E-03; -2.0000230E-01;1220; -2.4418890E-02;  0.0000000E+00; -1.1684370E-03;  1.0004362E+03;  4.0000001E-01;  3.6137244E+02;3; -8.8205814E+00;  0.0000000E+00; -4.8762882E-01;0; -1.9084625E-01;  1.0009016E+04;  0.0000000E+00; -1.7381762E-04;  1.0000000E+04;  0.0000000E+00;  9.9997070E+03; -1.9558276E-01;  0.0000000E+00;  4.7365162E-03;  1.7473880E+02;
  1.3997130E-01;  9.9999998E-03; -3.0000496E-01;1246; -1.3835006E-02;  0.0000000E+00; -2.2104890E-03;  1.0003624E+03;  4.0000001E-01;  3.0023837E+02;3; -7.3133020E+00;  0.0000000E+00; -1.1439972E+00;0; -1.5352298E-01;  1.0006704E+04;  0.0000000E+00; -2.8662938E-01;  1.0000000E+04;  0.0000000E+00;  1.0000544E+04; -1.4223127E-01;  0.0000000E+00; -1.1291718E-02;  1.5386379E+03;
  1.3996135E-01;  9.9999998E-03; -2.8000349E-01;1247; -1.8731236E-02;  0.0000000E+00; -1.4066785E-03;  1.0004150E+03;  4.0000001E-01;  3.4379269E+02;3; -8.5917091E+00;  0.0000000E+00; -5.7011223E-01;0; -1.7579648E-01;  1.0007963E+04;  0.0000000E+00; -2.0174961E-01;  1.0000000E+04;  0.0000000E+00;  1.0000338E+04; -1.6817056E-01;  0.0000000E+00; -7.6259272E-03;  1.0784812E+03;
  1.3995378E-01;  9.9999998E-03; -2.6000306E-01;1248; -2.2465393E-02;  0.0000000E+00; -1.2293963E-03;  1.0004475E+03;  4.0000001E-01;  3.7075488E+02;3; -9.1127701E+00;  0.0000000E+00; -4.3264675E-01;0; -1.8963683E-01;  1.0008872E+04;  0.0000000E+00; -1.0572495E-01;  1.0000000E+04;  0.0000000E+00;  1.0000083E+04; -1.8670106E-01;  0.0000000E+00; -2.9357669E-03;  5.6119067E+02;
  1.3994807E-01;  9.9999998E-03; -2.4000275E-01;1249; -2.5329603E-02;  0.0000000E+00; -1.1710135E-03;  1.0004697E+03;  4.0000001E-01;  3.8912473E+02;3; -9.4532700E+00;  0.0000000E+00; -4.1409874E-01;0; -1.9926916E-01;  1.0009516E+04;  0.0000000E+00; -4.0307298E-02;  1.0000000E+04;  0.0000000E+00;  9.9998799E+03; -2.0006838E-01;  0.0000000E+00;  7.9921773E-04;  2.3449228E+02;
  1.3994417E-01;  9.9999998E-03; -2.2000256E-01;1250; -2.7352709E-02;  0.0000000E+00; -1.1638991E-03;  1.0004855E+03;  4.0000001E-01;  4.0216141E+02;3; -9.7984304E+00;  0.0000000E+00; -4.3071079E-01;0; -2.0643896E-01;  1.0009955E+04;  0.0000000E+00; -1.0100732E-02;  1.0000000E+04;  0.0000000E+00;  9.9997529E+03; -2.0959581E-01;  0.0000000E+00;  3.1568506E-03;  1.6674294E+02;
  1.3994169E-01;  9.9999998E-03; -2.0000228E-01;1251; -2.8698202E-02;  0.0000000E+00; -1.1136575E-03;  1.0004962E+03;  4.0000001E-01;  4.1105005E+02;3; -1.0163568E+01;  0.0000000E+00; -4.5190167E-01;0; -2.1164784E-01;  1.0010233E+04;  0.0000000E+00; -1.2991070E-03;  1.0000000E+04;  0.0000000E+00;  9.9996943E+03; -2.1607612E-01;  0.0000000E+00;  4.4282894E-03;  1.8701289E+02;
  1.5996422E-01;  9.9999998E-03; -3.0000576E-01;1277; -1.6941968E-02;  0.0000000E+00; -2.5278553E-03;  1.0004937E+03;  4.0000001E-01;  4.0897601E+02;3; -8.8387661E+00;  0.0000000E+00; -1.3038235E+00;0; -2.0567776E-01;  1.0009294E+04;  0.0000000E+00; -6.5127367E-01;  1.0000000E+04;  0.0000000E+00;  1.0000583E+04; -1.9397251E-01;  0.0000000E+00; -1.1705249E-02;  3.4696995E+03;
  1.5995274E-01;  9.9999998E-03; -2.8000385E-01;1278; -2.2475451E-02;  0.0000000E+00; -1.5110760E-03;  1.0005353E+03;  4.0000001E-01;  4.4344418E+02;3; -1.0131315E+01;  0.0000000E+00; -6.1154175E-01;0; -2.2249538E-01;  1.0010345E+04;  0.0000000E+00; -4.5491362E-01;  1.0000000E+04;  0.0000000E+00;  1.0000358E+04; -2.1433415E-01;  0.0000000E+00; -8.1612328E-03;  2.4212847E+03;
  1.5994419E-01;  9.9999998E-03; -2.6000324E-01;1279; -2.6615035E-02;  0.0000000E+00; -1.2614001E-03;  1.0005484E+03;  4.0000001E-01;  4.5430807E+02;3; -1.0580158E+01;  0.0000000E+00; -4.3612289E-01;0; -2.2735214E-01;  1.0010911E+04;  0.0000000E+00; -2.4019434E-01;  1.0000000E+04;  0.0000000E+00;  1.0000061E+04; -2.2448355E-01;  0.0000000E+00; -2.8685858E-03;  1.2764058E+03;
  1.5993780E-01;  9.9999998E-03; -2.4000289E-01;1280; -2.9794674E-02;  0.0000000E+00; -1.1581216E-03;  1.0005544E+03;  4.0000001E-01;  4.5934497E+02;3; -1.0893621E+01;  0.0000000E+00; -3.8613319E-01;0; -2.2960539E-01;  1.0011256E+04;  0.0000000E+00; -9.4900645E-02;  1.0000000E+04;  0.0000000E+00;  9.9998320E+03; -2.3079503E-01;  0.0000000E+00;  1.1896316E-03;  5.1948938E+02;
  1.5993352E-01;  9.9999998E-03; -2.2000271E-01;1281; -3.1999607E-02;  0.0000000E+00; -1.1797899E-03;  1.0005597E+03;  4.0000001E-01;  4.6369052E+02;3; -1.1227387E+01;  0.0000000E+00; -4.1651416E-01;0; -2.3203252E-01;  1.0011496E+04;  0.0000000E+00; -2.6369760E-02;  1.0000000E+04;  0.0000000E+00;  9.9996992E+03; -2.3557274E-01;  0.0000000E+00;  3.5402151E-03;  2.3533110E+02;
  1.5993088E-01;  9.9999998E-03; -2.0000246E-01;1282; -3.3437543E-02;  0.0000000E+00; -1.1586286E-03;  1.0005649E+03;  4.0000001E-01;  4.6803607E+02;3; -1.1605782E+01;  0.0000000E+00; -4.5026034E-01;0; -2.3467107E-01;  1.0011648E+04;  0.0000000E+00; -4.3582916E-03;  1.0000000E+04;  0.0000000E+00;  9.9996475E+03; -2.3932837E-01;  0.0000000E+00;  4.6572927E-03;  2.1544098E+02;
  1.7995495E-01;  9.9999998E-03; -3.0000597E-01;1308; -2.1005481E-02;  0.0000000E+00; -2.4452237E-03;  1.0006761E+03;  4.0000001E-01;  5.6018158E+02;3; -1.0849720E+01;  0.0000000E+00; -1.1962280E+00;0; -2.7779323E-01;  1.0012814E+04;  0.0000000E+00; -1.1872876E+00;  1.0000000E+04;  0.0000000E+00;  1.0000711E+04; -2.6343399E-01;  0.0000000E+00; -1.4359226E-02;  6.3255571E+03;
  1.7994247E-01;  9.9999998E-03; -2.8000429E-01;1309; -2.6824547E-02;  0.0000000E+00; -1.6220188E-03;  1.0006887E+03;  4.0000001E-01;  5.7055170E+02;3; -1.1890636E+01;  0.0000000E+00; -6.3337326E-01;0; -2.8131253E-01;  1.0013372E+04;  0.0000000E+00; -8.1317109E-01;  1.0000000E+04;  0.0000000E+00;  1.0000409E+04; -2.7162254E-01;  0.0000000E+00; -9.6899802E-03;  4.3298213E+03;
  1.7993304E-01;  9.9999998E-03; -2.6000369E-01;1310; -3.1304013E-02;  0.0000000E+00; -1.3993471E-03;  1.0006700E+03;  4.0000001E-01;  5.5514471E+02;3; -1.2191305E+01;  0.0000000E+00; -4.7703266E-01;0; -2.7197680E-01;  1.0013389E+04;  0.0000000E+00; -4.2477569E-01;  1.0000000E+04;  0.0000000E+00;  1.0000020E+04; -2.6918891E-01;  0.0000000E+00; -2.7878783E-03;  2.2601567E+03;
  1.7992602E-01;  9.9999998E-03; -2.4000336E-01;1311; -3.4765914E-02;  0.0000000E+00; -1.3172360E-03;  1.0006522E+03;  4.0000001E-01;  5.4033032E+02;3; -1.2439636E+01;  0.0000000E+00; -4.2980862E-01;0; -2.6379919E-01;  1.0013315E+04;  0.0000000E+00; -1.6949840E-01;  1.0000000E+04;  0.0000000E+00;  9.9997305E+03; -2.6608989E-01;  0.0000000E+00;  2.2906815E-03;  9.1907715E+02;
  1.7992136E-01;  9.9999998E-03; -2.2000322E-01;1312; -3.7151173E-02;  0.0000000E+00; -1.3699827E-03;  1.0006432E+03;  4.0000001E-01;  5.3282434E+02;3; -1.2746448E+01;  0.0000000E+00; -4.7021556E-01;0; -2.5986576E-01;  1.0013283E+04;  0.0000000E+00; -4.9488232E-02;  1.0000000E+04;  0.0000000E+00;  9.9995889E+03; -2.6483369E-01;  0.0000000E+00;  4.9679303E-03;  3.6314761E+02;
  1.7991862E-01;  9.9999998E-03; -2.0000300E-01;1313; -3.8663752E-02;  0.0000000E+00; -1.3815801E-03;  1.0006408E+03;  4.0000001E-01;  5.3084912E+02;3; -1.3135441E+01;  0.0000000E+00; -5.0696051E-01;0; -2.5917679E-01;  1.0013273E+04;  0.0000000E+00; -9.2645884E-03;  1.0000000E+04;  0.0000000E+00;  9.9995449E+03; -2.6516753E-01;  0.0000000E+00;  5.9907557E-03;  2.7479944E+02;
  1.9994278E-01;  9.9999998E-03; -3.0000553E-01;1339; -2.6345361E-02;  0.0000000E+00; -1.9187554E-03;  1.0008911E+03;  4.0000001E-01;  7.3825061E+02;3; -1.3517014E+01;  0.0000000E+00; -8.0026245E-01;0; -3.6214346E-01;  1.0016776E+04;  0.0000000E+00; -1.7043407E+00;  1.0000000E+04;  0.0000000E+00;  1.0001049E+04; -3.3923262E-01;  0.0000000E+00; -2.2910826E-02;  9.0979580E+03;
  1.9993004E-01;  9.9999998E-03; -2.8000471E-01;1340; -3.1995330E-02;  0.0000000E+00; -1.6741190E-03;  1.0008570E+03;  4.0000001E-01;  7.1000452E+02;3; -1.3936569E+01;  0.0000000E+00; -6.1980820E-01;0; -3.4367993E-01;  1.0016638E+04;  0.0000000E+00; -1.1565650E+00;  1.0000000E+04;  0.0000000E+00;  1.0000513E+04; -3.3058760E-01;  0.0000000E+00; -1.3092328E-02;  6.1663091E+03;
  1.9991998E-01;  9.9999998E-03; -2.6000434E-01;1341; -3.6654327E-02;  0.0000000E+00; -1.6093006E-03;  1.0007992E+03;  4.0000001E-01;  6.6210461E+02;3; -1.3975944E+01;  0.0000000E+00; -5.5159187E-01;0; -3.1748581E-01;  1.0016064E+04;  0.0000000E+00; -5.9596175E-01;  1.0000000E+04;  0.0000000E+00;  9.9999287E+03; -3.1505045E-01;  0.0000000E+00; -2.4353713E-03;  3.1757058E+03;
  1.9991247E-01;  9.9999998E-03; -2.4000424E-01;1342; -4.0312938E-02;  0.0000000E+00; -1.6758232E-03;  1.0007554E+03;  4.0000001E-01;  6.2585876E+02;3; -1.4099836E+01;  0.0000000E+00; -5.4780865E-01;0; -2.9816929E-01;  1.0015577E+04;  0.0000000E+00; -2.3740169E-01;  1.0000000E+04;  0.0000000E+00;  9.9995439E+03; -3.0298835E-01;  0.0000000E+00;  4.8190770E-03;  1.2941855E+03;
  1.9990754E-01;  9.9999998E-03; -2.2000422E-01;1343; -4.2840730E-02;  0.0000000E+00; -1.7852144E-03;  1.0007318E+03;  4.0000001E-01;  6.0630377E+02;3; -1.4373060E+01;  0.0000000E+00; -5.9126878E-01;0; -2.8795609E-01;  1.0015273E+04;  0.0000000E+00; -7.0793428E-02;  1.0000000E+04;  0.0000000E+00;  9.9993701E+03; -2.9611358E-01;  0.0000000E+00;  8.1574963E-03;  5.2122028E+02;
  1.9990475E-01;  9.9999998E-03; -2.0000403E-01;1344; -4.4391409E-02;  0.0000000E+00; -1.8409023E-03;  1.0007224E+03;  4.0000001E-01;  5.9850153E+02;3; -1.4743209E+01;  0.0000000E+00; -6.4196259E-01;0; -2.8411934E-01;  1.0015105E+04;  0.0000000E+00; -1.4063085E-02;  1.0000000E+04;  0.0000000E+00;  9.9993467E+03; -2.9319328E-01;  0.0000000E+00;  9.0739373E-03;  3.7876785E+02;
  2.1992904E-01;  9.9999998E-03; -3.0000833E-01;1370; -3.2154884E-02;  0.0000000E+00; -2.8735721E-03;  1.0010602E+03;  4.0000001E-01;  8.7839478E+02;3; -1.6318081E+01;  0.0000000E+00; -1.2091026E+00;0; -4.2401177E-01;  1.0020038E+04;  0.0000000E+00; -1.9463161E+00;  1.0000000E+04;  0.0000000E+00;  1.0001173E+04; -3.9577103E-01;  0.0000000E+00; -2.8240729E-02;  1.0411313E+04;
  2.1991527E-01;  9.9999998E-03; -2.8000647E-01;1371; -3.7992273E-02;  0.0000000E+00; -2.3418886E-03;  1.0010043E+03;  4.0000001E-01;  8.3197632E+02;3; -1.6265690E+01;  0.0000000E+00; -8.9686775E-01;0; -3.9418313E-01;  1.0019555E+04;  0.0000000E+00; -1.3059676E+00;  1.0000000E+04;  0.0000000E+00;  1.0000537E+04; -3.7830198E-01;  0.0000000E+00; -1.5881157E-02;  6.9735342E+03;
  2.1990483E-01;  9.9999998E-03; -2.6000589E-01;1372; -4.2707156E-02;  0.0000000E+00; -2.2210239E-03;  1.0009178E+03;  4.0000001E-01;  7.6037341E+02;3; -1.5943796E+01;  0.0000000E+00; -7.6718330E-01;0; -3.5580322E-01;  1.0018636E+04;  0.0000000E+00; -6.6606665E-01;  1.0000000E+04;  0.0000000E+00;  9.9997236E+03; -3.5535240E-01;  0.0000000E+00; -4.5081414E-04;  3.5582959E+03;
  2.1989694E-01;  9.9999998E-03; -2.4000581E-01;1373; -4.6475232E-02;  0.0000000E+00; -2.3519571E-03;  1.0008549E+03;  4.0000001E-01;  7.0832556E+02;3; -1.5878680E+01;  0.0000000E+00; -7.5942802E-01;0; -3.2846403E-01;  1.0017904E+04;  0.0000000E+00; -2.6332888E-01;  1.0000000E+04;  0.0000000E+00;  9.9992051E+03; -3.3820134E-01;  0.0000000E+00;  9.7372979E-03;  1.4734087E+03;
  2.1989186E-01;  9.9999998E-03; -2.2000583E-01;1374; -4.9092852E-02;  0.0000000E+00; -2.5016910E-03;  1.0008218E+03;  4.0000001E-01;  6.8086951E+02;3; -1.6068514E+01;  0.0000000E+00; -8.2428908E-01;0; -3.1411695E-01;  1.0017426E+04;  0.0000000E+00; -7.8663647E-02;  1.0000000E+04;  0.0000000E+00;  9.9990176E+03; -3.2792729E-01;  0.0000000E+00;  1.3810324E-02;  6.8112866E+02;
  2.1988913E-01;  9.9999998E-03; -2.0000567E-01;1375; -5.0638344E-02;  0.0000000E+00; -2.6099582E-03;  1.0008079E+03;  4.0000001E-01;  6.6931433E+02;3; -1.6408941E+01;  0.0000000E+00; -8.9138067E-01;0; -3.0839041E-01;  1.0017137E+04;  0.0000000E+00; -1.5823992E-02;  1.0000000E+04;  0.0000000E+00;  9.9990293E+03; -3.2283160E-01;  0.0000000E+00;  1.4441195E-02;  5.3753015E+02;
  2.3991251E-01;  9.9999998E-03; -3.0002043E-01;1401; -3.8598511E-02;  0.0000000E+00; -7.9941181E-03;  1.0010806E+03;  4.0000001E-01;  8.9528320E+02;3; -1.9173901E+01;  0.0000000E+00; -3.7068176E+00;0; -4.1755325E-01;  1.0022360E+04;  0.0000000E+00; -1.8241875E+00;  1.0000000E+04;  0.0000000E+00;  9.9992705E+03; -4.2659351E-01;  0.0000000E+00;  9.0402551E-03;  9.7755615E+03;
  2.3989789E-01;  9.9999998E-03; -2.8001413E-01;1402; -4.4717237E-02;  0.0000000E+00; -5.7664067E-03;  1.0010756E+03;  4.0000001E-01;  8.9113513E+02;3; -1.8726454E+01;  0.0000000E+00; -2.4281063E+00;0; -4.0796208E-01;  1.0021909E+04;  0.0000000E+00; -1.1876038E+00;  1.0000000E+04;  0.0000000E+00;  9.9996143E+03; -4.0986165E-01;  0.0000000E+00;  1.8995609E-03;  6.3553896E+03;
  2.3988707E-01;  9.9999998E-03; -2.6001048E-01;1403; -4.9584832E-02;  0.0000000E+00; -4.2401822E-03;  1.0010059E+03;  4.0000001E-01;  8.3335901E+02;3; -1.8101704E+01;  0.0000000E+00; -1.5202255E+00;0; -3.7844861E-01;  1.0021006E+04;  0.0000000E+00; -5.9343886E-01;  1.0000000E+04;  0.0000000E+00;  9.9991270E+03; -3.8751176E-01;  0.0000000E+00;  9.0631638E-03;  3.2086357E+03;
  2.3987906E-01;  9.9999998E-03; -2.4000905E-01;1404; -5.3358927E-02;  0.0000000E+00; -3.8183052E-03;  1.0009442E+03;  4.0000001E-01;  7.8220001E+02;3; -1.7747671E+01;  0.0000000E+00; -1.2925830E+00;0; -3.5161325E-01;  1.0020243E+04;  0.0000000E+00; -2.3069914E-01;  1.0000000E+04;  0.0000000E+00;  9.9986484E+03; -3.7023607E-01;  0.0000000E+00;  1.8622812E-02;  1.4278708E+03;
  2.3987408E-01;  9.9999998E-03; -2.2000855E-01;1405; -5.5941101E-02;  0.0000000E+00; -3.7572554E-03;  1.0009103E+03;  4.0000001E-01;  7.5415137E+02;3; -1.7834845E+01;  0.0000000E+00; -1.2421565E+00;0; -3.3710417E-01;  1.0019716E+04;  0.0000000E+00; -6.7650512E-02;  1.0000000E+04;  0.0000000E+00;  9.9985029E+03; -3.5944489E-01;  0.0000000E+00;  2.2340719E-02;  8.6983447E+02;
  2.3987153E-01;  9.9999998E-03; -2.0000814E-01;1406; -5.7452325E-02;  0.0000000E+00; -3.7797706E-03;  1.0008961E+03;  4.0000001E-01;  7.4239862E+02;3; -1.8146635E+01;  0.0000000E+00; -1.2670923E+00;0; -3.3144653E-01;  1.0019363E+04;  0.0000000E+00; -1.3122849E-02;  1.0000000E+04;  0.0000000E+00;  9.9985732E+03; -3.5366759E-01;  0.0000000E+00;  2.2221064E-02;  7.5762323E+02;
  2.5989079E-01;  9.9999998E-03; -3.0003169E-01;1432; -4.6797421E-02;  0.0000000E+00; -1.2294257E-02;  1.0010624E+03;  4.0000001E-01;  8.8017242E+02;3; -2.2682213E+01;  0.0000000E+00; -5.6507587E+00;0; -3.9547169E-01;  1.0024398E+04;  0.0000000E+00; -1.3144251E+00;  1.0000000E+04;  0.0000000E+00;  9.9968682E+03; -4.4657785E-01;  0.0000000E+00;  5.1106140E-02;  7.2260605E+03;
  2.5987664E-01;  9.9999998E-03; -2.8002414E-01;1433; -5.2698851E-02;  0.0000000E+00; -9.9415770E-03;  1.0010923E+03;  4.0000001E-01;  9.0496185E+02;3; -2.1553366E+01;  0.0000000E+00; -4.1345406E+00;0; -3.9706877E-01;  1.0024010E+04;  0.0000000E+00; -8.4707177E-01;  1.0000000E+04;  0.0000000E+00;  9.9978506E+03; -4.3191987E-01;  0.0000000E+00;  3.4851111E-02;  4.6713276E+03;
  2.5986606E-01;  9.9999998E-03; -2.6001790E-01;1434; -5.7431228E-02;  0.0000000E+00; -7.5553968E-03;  1.0010656E+03;  4.0000001E-01;  8.8274030E+02;3; -2.0432003E+01;  0.0000000E+00; -2.7889118E+00;0; -3.8528350E-01;  1.0023288E+04;  0.0000000E+00; -4.1532239E-01;  1.0000000E+04;  0.0000000E+00;  9.9980342E+03; -4.1397089E-01;  0.0000000E+00;  2.8687388E-02;  2.4465674E+03;
  2.5985846E-01;  9.9999998E-03; -2.4001446E-01;1435; -6.1040930E-02;  0.0000000E+00; -6.2710056E-03;  1.0010240E+03;  4.0000001E-01;  8.4837085E+02;3; -1.9775749E+01;  0.0000000E+00; -2.1682172E+00;0; -3.6789975E-01;  1.0022646E+04;  0.0000000E+00; -1.5689707E-01;  1.0000000E+04;  0.0000000E+00;  9.9978477E+03; -3.9986545E-01;  0.0000000E+00;  3.1965706E-02;  1.3927571E+03;
  2.5985393E-01;  9.9999998E-03; -2.2001281E-01;1436; -6.3447066E-02;  0.0000000E+00; -5.7229125E-03;  1.0009989E+03;  4.0000001E-01;  8.2753198E+02;3; -1.9671925E+01;  0.0000000E+00; -1.9012260E+00;0; -3.5740769E-01;  1.0022159E+04;  0.0000000E+00; -4.3859974E-02;  1.0000000E+04;  0.0000000E+00;  9.9978359E+03; -3.9074001E-01;  0.0000000E+00;  3.3332329E-02;  1.1406449E+03;
  2.5985169E-01;  9.9999998E-03; -2.0001161E-01;1437; -6.4887874E-02;  0.0000000E+00; -5.4008560E-03;  1.0009891E+03;  4.0000001E-01;  8.1943341E+02;3; -1.9932638E+01;  0.0000000E+00; -1.8141162E+00;0; -3.5366422E-01;  1.0021790E+04;  0.0000000E+00; -7.6364693E-03;  1.0000000E+04;  0.0000000E+00;  9.9980029E+03; -3.8555837E-01;  0.0000000E+00;  3.1894147E-02;  1.0343766E+03;
  2.7986464E-01;  9.9999998E-03; -3.0003989E-01;1463; -5.6394022E-02;  0.0000000E+00; -1.5146606E-02;  1.0010860E+03;  4.0000001E-01;  8.9972742E+02;3; -2.6677219E+01;  0.0000000E+00; -6.8833733E+00;0; -3.8758454E-01;  1.0026506E+04;  0.0000000E+00; -7.2272587E-01;  1.0000000E+04;  0.0000000E+00;  9.9952354E+03; -4.6271726E-01;  0.0000000E+00;  7.5132720E-02;  4.5490322E+03;
  2.7985156E-01;  9.9999998E-03; -2.8003278E-01;1464; -6.1869256E-02;  0.0000000E+00; -1.3161337E-02;  1.0011196E+03;  4.0000001E-01;  9.2757849E+02;3; -2.4732548E+01;  0.0000000E+00; -5.2912750E+00;0; -3.8989264E-01;  1.0026191E+04;  0.0000000E+00; -4.6236697E-01;  1.0000000E+04;  0.0000000E+00;  9.9962256E+03; -4.5096710E-01;  0.0000000E+00;  6.1074473E-02;  3.1202656E+03;
  2.7984184E-01;  9.9999998E-03; -2.6002595E-01;1465; -6.6190183E-02;  0.0000000E+00; -1.0920114E-02;  1.0011229E+03;  4.0000001E-01;  9.3024506E+02;3; -2.2931850E+01;  0.0000000E+00; -3.9985869E+00;0; -3.8850689E-01;  1.0025679E+04;  0.0000000E+00; -2.2194454E-01;  1.0000000E+04;  0.0000000E+00;  9.9967959E+03; -4.3843785E-01;  0.0000000E+00;  4.9930960E-02;  2.0118076E+03;
  2.7983510E-01;  9.9999998E-03; -2.4002123E-01;1466; -6.9440752E-02;  0.0000000E+00; -9.2396094E-03;  1.0011055E+03;  4.0000001E-01;  9.1582574E+02;3; -2.1862951E+01;  0.0000000E+00; -3.1673172E+00;0; -3.8174048E-01;  1.0025199E+04;  0.0000000E+00; -7.9731219E-02;  1.0000000E+04;  0.0000000E+00;  9.9969297E+03; -4.2873871E-01;  0.0000000E+00;  4.6998244E-02;  1.6168983E+03;
  2.7983117E-01;  9.9999998E-03; -2.2001827E-01;1467; -7.1633406E-02;  0.0000000E+00; -8.1968028E-03;  1.0010935E+03;  4.0000001E-01;  9.0594946E+02;3; -2.1557188E+01;  0.0000000E+00; -2.7101288E+00;0; -3.7711191E-01;  1.0024790E+04;  0.0000000E+00; -2.0087702E-02;  1.0000000E+04;  0.0000000E+00;  9.9970918E+03; -4.2233527E-01;  0.0000000E+00;  4.5223340E-02;  1.4836145E+03;
  2.7982932E-01;  9.9999998E-03; -2.0001601E-01;1468; -7.2981246E-02;  0.0000000E+00; -7.4518695E-03;  1.0010893E+03;  4.0000001E-01;  9.0249280E+02;3; -2.1770109E+01;  0.0000000E+00; -2.4861641E+00;0; -3.7609607E-01;  1.0024436E+04;  0.0000000E+00; -2.7223947E-03;  1.0000000E+04;  0.0000000E+00;  9.9973633E+03; -4.1851792E-01;  0.0000000E+00;  4.2421848E-02;  1.3486636E+03;
  2.9983586E-01;  9.9999998E-03; -3.0004686E-01;1494; -6.6566959E-02;  0.0000000E+00; -1.7392205E-02;  1.0011567E+03;  4.0000001E-01;  9.5829352E+02;3; -3.0827129E+01;  0.0000000E+00; -7.7600098E+00;0; -3.9394993E-01;  1.0028844E+04;  0.0000000E+00; -3.0127740E-01;  1.0000000E+04;  0.0000000E+00;  9.9943135E+03; -4.7830984E-01;  0.0000000E+00;  8.4359899E-02;  3.2520874E+03;
  2.9982397E-01;  9.9999998E-03; -2.8004023E-01;1495; -7.1478412E-02;  0.0000000E+00; -1.5758121E-02;  1.0011848E+03;  4.0000001E-01;  9.8150275E+02;3; -2.7878914E+01;  0.0000000E+00; -6.1539974E+00;0; -3.9463547E-01;  1.0028626E+04;  0.0000000E+00; -1.8856426E-01;  1.0000000E+04;  0.0000000E+00;  9.9950889E+03; -4.7066405E-01;  0.0000000E+00;  7.6028585E-02;  2.6466306E+03;
  2.9981509E-01;  9.9999998E-03; -2.6003358E-01;1496; -7.5434171E-02;  0.0000000E+00; -1.3892740E-02;  1.0012006E+03;  4.0000001E-01;  9.9463818E+02;3; -2.5412670E+01;  0.0000000E+00; -4.9623585E+00;0; -3.9761978E-01;  1.0028311E+04;  0.0000000E+00; -8.5796714E-02;  1.0000000E+04;  0.0000000E+00;  9.9957266E+03; -4.6355259E-01;  0.0000000E+00;  6.5932795E-02;  2.1905413E+03;
  2.9980907E-01;  9.9999998E-03; -2.4002825E-01;1497; -7.8422360E-02;  0.0000000E+00; -1.2169480E-02;  1.0012004E+03;  4.0000001E-01;  9.9453943E+02;3; -2.3953003E+01;  0.0000000E+00; -4.0840774E+00;0; -3.9824760E-01;  1.0027976E+04;  0.0000000E+00; -2.7713371E-02;  1.0000000E+04;  0.0000000E+00;  9.9960566E+03; -4.5822975E-01;  0.0000000E+00;  5.9982136E-02;  1.9919385E+03;
  2.9980564E-01;  9.9999998E-03; -2.2002426E-01;1498; -8.0476567E-02;  0.0000000E+00; -1.0828209E-02;  1.0011990E+03;  4.0000001E-01;  9.9335425E+02;3; -2.3464344E+01;  0.0000000E+00; -3.5492830E+00;0; -3.9853179E-01;  1.0027648E+04;  0.0000000E+00; -5.5197240E-03;  1.0000000E+04;  0.0000000E+00;  9.9963564E+03; -4.5471859E-01;  0.0000000E+00;  5.6186806E-02;  1.8439219E+03;
  2.9980421E-01;  9.9999998E-03; -2.0002103E-01;1499; -8.1771083E-02;  0.0000000E+00; -9.7130910E-03;  1.0011998E+03;  4.0000001E-01;  9.9394684E+02;3; -2.3649063E+01;  0.0000000E+00; -3.1909952E+00;0; -3.9994371E-01;  1.0027320E+04;  0.0000000E+00; -3.7932626E-04;  1.0000000E+04;  0.0000000E+00;  9.9966943E+03; -4.5259735E-01;  0.0000000E+00;  5.2653629E-02;  1.6775376E+03;
  3.1980583E-01;  9.9999998E-03; -3.0005372E-01;1525; -7.6622486E-02;  0.0000000E+00; -1.9531021E-02;  1.0012651E+03;  4.0000001E-01;  1.0480687E+03;3; -3.4707165E+01;  0.0000000E+00; -8.5937281E+00;0; -4.0972212E-01;  1.0031533E+04;  0.0000000E+00; -8.8704921E-02;  1.0000000E+04;  0.0000000E+00;  9.9937979E+03; -4.9648085E-01;  0.0000000E+00;  8.6758733E-02;  3.1184209E+03;
  3.1979451E-01;  9.9999998E-03; -2.8004721E-01;1526; -8.1218116E-02;  0.0000000E+00; -1.8083725E-02;  1.0012886E+03;  4.0000001E-01;  1.0675249E+03;3; -3.0879379E+01;  0.0000000E+00; -6.9098811E+00;0; -4.1050345E-01;  1.0031419E+04;  0.0000000E+00; -5.1401120E-02;  1.0000000E+04;  0.0000000E+00;  9.9943750E+03; -4.9331987E-01;  0.0000000E+00;  8.2816407E-02;  2.8143127E+03;
  3.1978604E-01;  9.9999998E-03; -2.6004067E-01;1527; -8.5012764E-02;  0.0000000E+00; -1.6472178E-02;  1.0013074E+03;  4.0000001E-01;  1.0831294E+03;3; -2.7812958E+01;  0.0000000E+00; -5.7188292E+00;0; -4.1541529E-01;  1.0031245E+04;  0.0000000E+00; -2.0521713E-02;  1.0000000E+04;  0.0000000E+00;  9.9949316E+03; -4.9076831E-01;  0.0000000E+00;  7.5353019E-02;  2.5370649E+03;
  3.1978035E-01;  9.9999998E-03; -2.4003506E-01;1528; -8.7927341E-02;  0.0000000E+00; -1.4831039E-02;  1.0013150E+03;  4.0000001E-01;  1.0894503E+03;3; -2.6012714E+01;  0.0000000E+00; -4.8398814E+00;0; -4.1971806E-01;  1.0031023E+04;  0.0000000E+00; -5.0200433E-03;  1.0000000E+04;  0.0000000E+00;  9.9953047E+03; -4.8908347E-01;  0.0000000E+00;  6.9365419E-02;  2.3577246E+03;
  3.1977719E-01;  9.9999998E-03; -2.2003038E-01;1529; -8.9970425E-02;  0.0000000E+00; -1.3359204E-02;  1.0013197E+03;  4.0000001E-01;  1.0933020E+03;3; -2.5391729E+01;  0.0000000E+00; -4.2578592E+00;0; -4.2293876E-01;  1.0030767E+04;  0.0000000E+00; -4.5489133E-04;  1.0000000E+04;  0.0000000E+00;  9.9956563E+03; -4.8819628E-01;  0.0000000E+00;  6.5257534E-02;  2.1895168E+03;
  3.1977612E-01;  9.9999998E-03; -2.0002639E-01;1530; -9.1274783E-02;  0.0000000E+00; -1.2013879E-02;  1.0013237E+03;  4.0000001E-01;  1.0966599E+03;3; -2.5569052E+01;  0.0000000E+00; -3.8395665E+00;0; -4.2601237E-01;  1.0030468E+04;  0.0000000E+00;  4.4344262E-05;  1.0000000E+04;  0.0000000E+00;  9.9960322E+03; -4.8788771E-01;  0.0000000E+00;  6.1875332E-02;  2.0070514E+03;
  3.3977473E-01;  9.9999998E-03; -3.0006087E-01;1556; -8.6437806E-02;  0.0000000E+00; -2.1644298E-02;  1.0014015E+03;  4.0000001E-01;  1.1611519E+03;3; -3.8299267E+01;  0.0000000E+00; -9.3746729E+00;0; -4.3308094E-01;  1.0034625E+04;  0.0000000E+00; -1.3105737E-02;  1.0000000E+04;  0.0000000E+00;  9.9934395E+03; -5.1943338E-01;  0.0000000E+00;  8.6352430E-02;  3.2719712E+03;
  3.3976308E-01;  9.9999998E-03; -2.8005415E-01;1557; -9.1100425E-02;  0.0000000E+00; -2.0294821E-02;  1.0014221E+03;  4.0000001E-01;  1.1781390E+03;3; -3.3743374E+01;  0.0000000E+00; -7.6057096E+00;0; -4.3444163E-01;  1.0034590E+04;  0.0000000E+00; -6.1363629E-03;  1.0000000E+04;  0.0000000E+00;  9.9938848E+03; -5.1974398E-01;  0.0000000E+00;  8.5302368E-02;  3.0547102E+03;
  3.3975437E-01;  9.9999998E-03; -2.6004753E-01;1558; -9.4995566E-02;  0.0000000E+00; -1.8804230E-02;  1.0014399E+03;  4.0000001E-01;  1.1929534E+03;3; -3.0159460E+01;  0.0000000E+00; -6.3321090E+00;0; -4.4002825E-01;  1.0034511E+04;  0.0000000E+00; -1.4571163E-03;  1.0000000E+04;  0.0000000E+00;  9.9943262E+03; -5.2047592E-01;  0.0000000E+00;  8.0447681E-02;  2.8434194E+03;
  3.3974859E-01;  9.9999998E-03; -2.4004167E-01;1559; -9.8014325E-02;  0.0000000E+00; -1.7241249E-02;  1.0014495E+03;  4.0000001E-01;  1.2008544E+03;3; -2.8055830E+01;  0.0000000E+00; -5.4582605E+00;0; -4.4574934E-01;  1.0034371E+04;  0.0000000E+00;  9.7029668E-05;  1.0000000E+04;  0.0000000E+00;  9.9946563E+03; -5.2160501E-01;  0.0000000E+00;  7.5855680E-02;  2.6872417E+03;
  3.3974552E-01;  9.9999998E-03; -2.2003648E-01;1560; -1.0015546E-01;  0.0000000E+00; -1.5714638E-02;  1.0014568E+03;  4.0000001E-01;  1.2068789E+03;3; -2.7311630E+01;  0.0000000E+00; -4.8761425E+00;0; -4.5051372E-01;  1.0034172E+04;  0.0000000E+00;  1.2743491E-04;  1.0000000E+04;  0.0000000E+00;  9.9949990E+03; -5.2303463E-01;  0.0000000E+00;  7.2520927E-02;  2.5203457E+03;
  3.3974472E-01;  9.9999998E-03; -2.0003186E-01;1561; -1.0151569E-01;  0.0000000E+00; -1.4234342E-02;  1.0014628E+03;  4.0000001E-01;  1.2119158E+03;3; -2.7513353E+01;  0.0000000E+00; -4.4023051E+00;0; -4.5473301E-01;  1.0033906E+04;  0.0000000E+00;  3.9680250E-05;  1.0000000E+04;  0.0000000E+00;  9.9953740E+03; -5.2462655E-01;  0.0000000E+00;  6.9893532E-02;  2.3344221E+03;
  3.5974163E-01;  9.9999998E-03; -3.0006859E-01;1587; -9.6320249E-02;  0.0000000E+00; -2.3780640E-02;  1.0015564E+03;  4.0000001E-01;  1.2894443E+03;3; -4.1741512E+01;  0.0000000E+00; -1.0090389E+01;0; -4.6042597E-01;  1.0038126E+04;  0.0000000E+00;  1.8363656E-04;  1.0000000E+04;  0.0000000E+00;  9.9930449E+03; -5.4697353E-01;  0.0000000E+00;  8.6547554E-02;  3.4810247E+03;
  3.5972887E-01;  9.9999998E-03; -2.8006142E-01;1588; -1.0137131E-01;  0.0000000E+00; -2.2447109E-02;  1.0015767E+03;  4.0000001E-01;  1.3062340E+03;3; -3.6567249E+01;  0.0000000E+00; -8.2244034E+00;0; -4.6276036E-01;  1.0038158E+04;  0.0000000E+00;  5.8244576E-04;  1.0000000E+04;  0.0000000E+00;  9.9934199E+03; -5.4956895E-01;  0.0000000E+00;  8.6808585E-02;  3.2964834E+03;
  3.5971943E-01;  9.9999998E-03; -2.6005438E-01;1589; -1.0555169E-01;  0.0000000E+00; -2.0990785E-02;  1.0015937E+03;  4.0000001E-01;  1.3203571E+03;3; -3.2493042E+01;  0.0000000E+00; -6.8740993E+00;0; -4.6882659E-01;  1.0038148E+04;  0.0000000E+00;  5.1077228E-04;  1.0000000E+04;  0.0000000E+00;  9.9937656E+03; -5.5265111E-01;  0.0000000E+00;  8.3824508E-02;  3.1307986E+03;
  3.5971335E-01;  9.9999998E-03; -2.4004824E-01;1590; -1.0878365E-01;  0.0000000E+00; -1.9456688E-02;  1.0016032E+03;  4.0000001E-01;  1.3282581E+03;3; -3.0103815E+01;  0.0000000E+00; -5.9578347E+00;0; -4.7528058E-01;  1.0038078E+04;  0.0000000E+00;  2.9484712E-04;  1.0000000E+04;  0.0000000E+00;  9.9940264E+03; -5.5606127E-01;  0.0000000E+00;  8.0780670E-02;  3.0068694E+03;
  3.5971028E-01;  9.9999998E-03; -2.2004260E-01;1591; -1.1108139E-01;  0.0000000E+00; -1.7887749E-02;  1.0016118E+03;  4.0000001E-01;  1.3353689E+03;3; -2.9269344E+01;  0.0000000E+00; -5.3327837E+00;0; -4.8109114E-01;  1.0037926E+04;  0.0000000E+00;  1.2573955E-04;  1.0000000E+04;  0.0000000E+00;  9.9943496E+03; -5.5963820E-01;  0.0000000E+00;  7.8547060E-02;  2.8497410E+03;
  3.5970971E-01;  9.9999998E-03; -2.0003739E-01;1592; -1.1252403E-01;  0.0000000E+00; -1.6326785E-02;  1.0016190E+03;  4.0000001E-01;  1.3412947E+03;3; -2.9471823E+01;  0.0000000E+00; -4.8571086E+00;0; -4.8631427E-01;  1.0037691E+04;  0.0000000E+00;  3.6835114E-05;  1.0000000E+04;  0.0000000E+00;  9.9947275E+03; -5.6318581E-01;  0.0000000E+00;  7.6871552E-02;  2.6640251E+03;
  3.7970525E-01;  9.9999998E-03; -3.0007693E-01;1618; -1.0669871E-01;  0.0000000E+00; -2.5906952E-02;  1.0017288E+03;  4.0000001E-01;  1.4322548E+03;3; -4.5197643E+01;  0.0000000E+00; -1.0735246E+01;0; -4.8986864E-01;  1.0042104E+04;  0.0000000E+00;  4.6451113E-04;  1.0000000E+04;  0.0000000E+00;  9.9925234E+03; -5.7822680E-01;  0.0000000E+00;  8.8358156E-02;  3.7547932E+03;
  3.7969103E-01;  9.9999998E-03; -2.8006914E-01;1619; -1.1225362E-01;  0.0000000E+00; -2.4556877E-02;  1.0017509E+03;  4.0000001E-01;  1.4506245E+03;3; -3.9428741E+01;  0.0000000E+00; -8.7330618E+00;0; -4.9335498E-01;  1.0042193E+04;  0.0000000E+00;  7.1963476E-04;  1.0000000E+04;  0.0000000E+00;  9.9928770E+03; -5.8253652E-01;  0.0000000E+00;  8.9181550E-02;  3.5791672E+03;
  3.7968069E-01;  9.9999998E-03; -2.6006153E-01;1620; -1.1680804E-01;  0.0000000E+00; -2.3073684E-02;  1.0017676E+03;  4.0000001E-01;  1.4644513E+03;3; -3.4845287E+01;  0.0000000E+00; -7.3223720E+00;0; -5.0046420E-01;  1.0042239E+04;  0.0000000E+00;  5.7299825E-04;  1.0000000E+04;  0.0000000E+00;  9.9931660E+03; -5.8750933E-01;  0.0000000E+00;  8.7045155E-02;  3.4407898E+03;
  3.7967420E-01;  9.9999998E-03; -2.4005495E-01;1621; -1.2030127E-01;  0.0000000E+00; -2.1530729E-02;  1.0017767E+03;  4.0000001E-01;  1.4719573E+03;3; -3.2160686E+01;  0.0000000E+00; -6.3465219E+00;0; -5.0773686E-01;  1.0042210E+04;  0.0000000E+00;  3.2071013E-04;  1.0000000E+04;  0.0000000E+00;  9.9933721E+03; -5.9290469E-01;  0.0000000E+00;  8.5167833E-02;  3.3418564E+03;
  3.7967113E-01;  9.9999998E-03; -2.2004879E-01;1622; -1.2277868E-01;  0.0000000E+00; -1.9918984E-02;  1.0017859E+03;  4.0000001E-01;  1.4796608E+03;3; -3.1220440E+01;  0.0000000E+00; -5.6848412E+00;0; -5.1454383E-01;  1.0042086E+04;  0.0000000E+00;  1.3101166E-04;  1.0000000E+04;  0.0000000E+00;  9.9936826E+03; -5.9845573E-01;  0.0000000E+00;  8.3911873E-02;  3.1912302E+03;
  3.7967077E-01;  9.9999998E-03; -2.0004296E-01;1623; -1.2433340E-01;  0.0000000E+00; -1.8287269E-02;  1.0017938E+03;  4.0000001E-01;  1.4860803E+03;3; -3.1437099E+01;  0.0000000E+00; -5.2088814E+00;0; -5.2070409E-01;  1.0041862E+04;  0.0000000E+00;  3.5265857E-05;  1.0000000E+04;  0.0000000E+00;  9.9940596E+03; -6.0385227E-01;  0.0000000E+00;  8.3148167E-02;  3.0034592E+03;
  3.9966485E-01;  9.9999998E-03; -3.0008599E-01;1649; -1.1773556E-01;  0.0000000E+00; -2.7979640E-02;  1.0019229E+03;  4.0000001E-01;  1.5931387E+03;3; -4.8729340E+01;  0.0000000E+00; -1.1265687E+01;0; -5.2171546E-01;  1.0046671E+04;  0.0000000E+00;  5.5800873E-04;  1.0000000E+04;  0.0000000E+00;  9.9918477E+03; -6.1328107E-01;  0.0000000E+00;  9.1565602E-02;  4.1009556E+03;
  3.9964902E-01;  9.9999998E-03; -2.8007743E-01;1650; -1.2382385E-01;  0.0000000E+00; -2.6613249E-02;  1.0019468E+03;  4.0000001E-01;  1.6128912E+03;3; -4.2297150E+01;  0.0000000E+00; -9.1649809E+00;0; -5.2625787E-01;  1.0046780E+04;  0.0000000E+00;  8.5105922E-04;  1.0000000E+04;  0.0000000E+00;  9.9922139E+03; -6.1893570E-01;  0.0000000E+00;  9.2677809E-02;  3.9209661E+03;
  3.9963770E-01;  9.9999998E-03; -2.6006910E-01;1651; -1.2880397E-01;  0.0000000E+00; -2.5075220E-02;  1.0019631E+03;  4.0000001E-01;  1.6264216E+03;3; -3.7206661E+01;  0.0000000E+00; -7.6663098E+00;0; -5.3460658E-01;  1.0046848E+04;  0.0000000E+00;  6.6354044E-04;  1.0000000E+04;  0.0000000E+00;  9.9924795E+03; -6.2543154E-01;  0.0000000E+00;  9.0824991E-02;  3.7946716E+03;
  3.9963073E-01;  9.9999998E-03; -2.4006194E-01;1652; -1.3259704E-01;  0.0000000E+00; -2.3502745E-02;  1.0019713E+03;  4.0000001E-01;  1.6331376E+03;3; -3.4215771E+01;  0.0000000E+00; -6.6283317E+00;0; -5.4281527E-01;  1.0046826E+04;  0.0000000E+00;  3.6128791E-04;  1.0000000E+04;  0.0000000E+00;  9.9926611E+03; -6.3247383E-01;  0.0000000E+00;  8.9658551E-02;  3.7079395E+03;
  3.9962763E-01;  9.9999998E-03; -2.2005516E-01;1653; -1.3528354E-01;  0.0000000E+00; -2.1836236E-02;  1.0019807E+03;  4.0000001E-01;  1.6409398E+03;3; -3.3172794E+01;  0.0000000E+00; -5.9188652E+00;0; -5.5061525E-01;  1.0046702E+04;  0.0000000E+00;  1.4092318E-04;  1.0000000E+04;  0.0000000E+00;  9.9929727E+03; -6.3970929E-01;  0.0000000E+00;  8.9094035E-02;  3.5550735E+03;
  3.9962754E-01;  9.9999998E-03; -2.0004864E-01;1654; -1.3697842E-01;  0.0000000E+00; -2.0123653E-02;  1.0019882E+03;  4.0000001E-01;  1.6471617E+03;3; -3.3400669E+01;  0.0000000E+00; -5.4593849E+00;0; -5.5768716E-01;  1.0046457E+04;  0.0000000E+00;  3.4086108E-05;  1.0000000E+04;  0.0000000E+00;  9.9933691E+03; -6.4673173E-01;  0.0000000E+00;  8.9044601E-02;  3.3589417E+03;
  4.1961992E-01;  9.9999998E-03; -3.0009592E-01;1680; -1.2943695E-01;  0.0000000E+00; -2.9970000E-02;  1.0021431E+03;  4.0000001E-01;  1.7755525E+03;3; -5.2308231E+01;  0.0000000E+00; -1.1648362E+01;0; -5.5654651E-01;  1.0051906E+04;  0.0000000E+00;  6.4584840E-04;  1.0000000E+04;  0.0000000E+00;  9.9910352E+03; -6.5235871E-01;  0.0000000E+00;  9.5812179E-02;  4.5224248E+03;
  4.1960239E-01;  9.9999998E-03; -2.8008640E-01;1681; -1.3610911E-01;  0.0000000E+00; -2.8588550E-02;  1.0021671E+03;  4.0000001E-01;  1.7954037E+03;3; -4.5185898E+01;  0.0000000E+00; -9.4641361E+00;0; -5.6160522E-01;  1.0051998E+04;  0.0000000E+00;  1.0086155E-03;  1.0000000E+04;  0.0000000E+00;  9.9914248E+03; -6.5894997E-01;  0.0000000E+00;  9.7344741E-02;  4.3295386E+03;
  4.1959000E-01;  9.9999998E-03; -2.6007721E-01;1682; -1.4155963E-01;  0.0000000E+00; -2.7002661E-02;  1.0021822E+03;  4.0000001E-01;  1.8079465E+03;3; -3.9561596E+01;  0.0000000E+00; -7.8928809E+00;0; -5.7106054E-01;  1.0052029E+04;  0.0000000E+00;  7.7807641E-04;  1.0000000E+04;  0.0000000E+00;  9.9916934E+03; -6.6655236E-01;  0.0000000E+00;  9.5491797E-02;  4.2010771E+03;
  4.1958255E-01;  9.9999998E-03; -2.4006931E-01;1683; -1.4569513E-01;  0.0000000E+00; -2.5386022E-02;  1.0021886E+03;  4.0000001E-01;  1.8131809E+03;3; -3.6251213E+01;  0.0000000E+00; -6.7993627E+00;0; -5.8027625E-01;  1.0051975E+04;  0.0000000E+00;  4.1426611E-04;  1.0000000E+04;  0.0000000E+00;  9.9918779E+03; -6.7483765E-01;  0.0000000E+00;  9.4561391E-02;  4.1106450E+03;
  4.1957939E-01;  9.9999998E-03; -2.2006179E-01;1684; -1.4862540E-01;  0.0000000E+00; -2.3646358E-02;  1.0021968E+03;  4.0000001E-01;  1.8199956E+03;3; -3.5106888E+01;  0.0000000E+00; -6.0513043E+00;0; -5.8907837E-01;  1.0051795E+04;  0.0000000E+00;  1.5497419E-04;  1.0000000E+04;  0.0000000E+00;  9.9922188E+03; -6.8339717E-01;  0.0000000E+00;  9.4318815E-02;  3.9443484E+03;
  4.1957960E-01;  9.9999998E-03; -2.0005450E-01;1685; -1.5049334E-01;  0.0000000E+00; -2.1829650E-02;  1.0022032E+03;  4.0000001E-01;  1.8253287E+03;3; -3.5354210E+01;  0.0000000E+00; -5.5989556E+00;0; -5.9703350E-01;  1.0051496E+04;  0.0000000E+00;  3.3737211E-05;  1.0000000E+04;  0.0000000E+00;  9.9926436E+03; -6.9175684E-01;  0.0000000E+00;  9.4723336E-02;  3.7319438E+03;
  4.3956995E-01;  9.9999998E-03; -3.0010685E-01;1711; -1.4180988E-01;  0.0000000E+00; -3.1858161E-02;  1.0023918E+03;  4.0000001E-01;  1.9815703E+03;3; -5.5905830E+01;  0.0000000E+00; -1.1848011E+01;0; -5.9453219E-01;  1.0057867E+04;  0.0000000E+00;  7.0182187E-04;  1.0000000E+04;  0.0000000E+00;  9.9900615E+03; -6.9555211E-01;  0.0000000E+00;  1.0101992E-01;  5.0208457E+03;
  4.3955058E-01;  9.9999998E-03; -2.8009623E-01;1712; -1.4912783E-01;  0.0000000E+00; -3.0462362E-02;  1.0024144E+03;  4.0000001E-01;  2.0002365E+03;3; -4.8065899E+01;  0.0000000E+00; -9.6014671E+00;0; -5.9951586E-01;  1.0057885E+04;  0.0000000E+00;  1.1874804E-03;  1.0000000E+04;  0.0000000E+00;  9.9904990E+03; -7.0259190E-01;  0.0000000E+00;  1.0307603E-01;  4.8043271E+03;
  4.3953705E-01;  9.9999998E-03; -2.6008597E-01;1713; -1.5509945E-01;  0.0000000E+00; -2.8838601E-02;  1.0024272E+03;  4.0000001E-01;  2.0109027E+03;3; -4.1889584E+01;  0.0000000E+00; -7.9775791E+00;0; -6.0976297E-01;  1.0057824E+04;  0.0000000E+00;  9.1879565E-04;  1.0000000E+04;  0.0000000E+00;  9.9908115E+03; -7.1080023E-01;  0.0000000E+00;  1.0103728E-01;  4.6533643E+03;
  4.3952909E-01;  9.9999998E-03; -2.4007711E-01;1714; -1.5962744E-01;  0.0000000E+00; -2.7150815E-02;  1.0024304E+03;  4.0000001E-01;  2.0134706E+03;3; -3.8256611E+01;  0.0000000E+00; -6.8324246E+00;0; -6.2001586E-01;  1.0057663E+04;  0.0000000E+00;  4.8356442E-04;  1.0000000E+04;  0.0000000E+00;  9.9910420E+03; -7.1983647E-01;  0.0000000E+00;  9.9820636E-02;  4.5428892E+03;
  4.3952596E-01;  9.9999998E-03; -2.2006872E-01;1715; -1.6283956E-01;  0.0000000E+00; -2.5317891E-02;  1.0024355E+03;  4.0000001E-01;  2.0178162E+03;3; -3.7004906E+01;  0.0000000E+00; -6.0607204E+00;0; -6.2975550E-01;  1.0057380E+04;  0.0000000E+00;  1.7693336E-04;  1.0000000E+04;  0.0000000E+00;  9.9914248E+03; -7.2927642E-01;  0.0000000E+00;  9.9520952E-02;  4.3536479E+03;
  4.3952650E-01;  9.9999998E-03; -2.0006061E-01;1716; -1.6491666E-01;  0.0000000E+00; -2.3375470E-02;  1.0024386E+03;  4.0000001E-01;  2.0202852E+03;3; -3.7286636E+01;  0.0000000E+00; -5.6080685E+00;0; -6.3847989E-01;  1.0056977E+04;  0.0000000E+00;  3.7198446E-05;  1.0000000E+04;  0.0000000E+00;  9.9918965E+03; -7.3861438E-01;  0.0000000E+00;  1.0013449E-01;  4.1185410E+03;
  4.5951417E-01;  9.9999998E-03; -3.0011913E-01;1742; -1.5489075E-01;  0.0000000E+00; -3.3629585E-02;  1.0026718E+03;  4.0000078E-01;  2.2134631E+03;3; -5.9505341E+01;  0.0000000E+00; -1.1828016E+01;0; -6.3545573E-01;  1.0064567E+04;  0.0000000E+00;  6.9996592E-04;  1.0000000E+04;  0.0000000E+00;  9.9889424E+03; -7.4268234E-01;  0.0000000E+00;  1.0722660E-01;  5.5964229E+03;
  4.5949283E-01;  9.9999998E-03; -2.8010714E-01;1743; -1.6292426E-01;  0.0000000E+00; -3.2208696E-02;  1.0026908E+03;  4.0000093E-01;  2.2292651E+03;3; -5.0918301E+01;  0.0000000E+00; -9.5386477E+00;0; -6.3983351E-01;  1.0064422E+04;  0.0000000E+00;  1.3944206E-03;  1.0000000E+04;  0.0000000E+00;  9.9894707E+03; -7.4952155E-01;  0.0000000E+00;  1.0968805E-01;  5.3316973E+03;
  4.5947820E-01;  9.9999998E-03; -2.6009542E-01;1744; -1.6946866E-01;  0.0000000E+00; -3.0534191E-02;  1.0027004E+03;  4.0000090E-01;  2.2371663E+03;3; -4.4170414E+01;  0.0000000E+00; -7.8792267E+00;0; -6.5058917E-01;  1.0064196E+04;  0.0000000E+00;  1.1004073E-03;  1.0000000E+04;  0.0000000E+00;  9.9898916E+03; -7.5767398E-01;  0.0000000E+00;  1.0708480E-01;  5.1277983E+03;
  4.5946980E-01;  9.9999998E-03; -2.4008532E-01;1745; -1.7444153E-01;  0.0000000E+00; -2.8731862E-02;  1.0026982E+03;  4.0000081E-01;  2.2353884E+03;3; -4.0213634E+01;  0.0000000E+00; -6.6868963E+00;0; -6.6178787E-01;  1.0063855E+04;  0.0000000E+00;  5.8263453E-04;  1.0000000E+04;  0.0000000E+00;  9.9901865E+03; -7.6682329E-01;  0.0000000E+00;  1.0503544E-01;  4.9867041E+03;
  4.5946670E-01;  9.9999998E-03; -2.2007602E-01;1746; -1.7797725E-01;  0.0000000E+00; -2.6789615E-02;  1.0026969E+03;  4.0000087E-01;  2.2343020E+03;3; -3.8859386E+01;  0.0000000E+00; -5.8972144E+00;0; -6.7217904E-01;  1.0063398E+04;  0.0000000E+00;  2.1647711E-04;  1.0000000E+04;  0.0000000E+00;  9.9906201E+03; -7.7657747E-01;  0.0000000E+00;  1.0439843E-01;  4.7716655E+03;
  4.5946774E-01;  9.9999998E-03; -2.0006710E-01;1747; -1.8029629E-01;  0.0000000E+00; -2.4719404E-02;  1.0026946E+03;  4.0000096E-01;  2.2324255E+03;3; -3.9189938E+01;  0.0000000E+00; -5.4549298E+00;0; -6.8139660E-01;  1.0062830E+04;  0.0000000E+00;  5.0618874E-05;  1.0000000E+04;  0.0000000E+00;  9.9911406E+03; -7.8644300E-01;  0.0000000E+00;  1.0504640E-01;  4.5121753E+03;
  4.7945145E-01;  9.9999998E-03; -3.0013302E-01;1773; -1.6878723E-01;  0.0000000E+00; -3.5273828E-02;  1.0029778E+03;  4.0000251E-01;  2.4669846E+03;3; -6.3102551E+01;  0.0000000E+00; -1.1567991E+01;0; -6.7828768E-01;  1.0071869E+04;  0.0000000E+00;  6.2556186E-04;  1.0000000E+04;  0.0000000E+00;  9.9877051E+03; -7.9251313E-01;  0.0000000E+00;  1.1422545E-01;  6.2305674E+03;
  4.7942823E-01;  9.9999998E-03; -2.8011924E-01;1774; -1.7759246E-01;  0.0000000E+00; -3.3795133E-02;  1.0029933E+03;  4.0000245E-01;  2.4799224E+03;3; -5.3738213E+01;  0.0000000E+00; -9.2361526E+00;0; -6.8161488E-01;  1.0071474E+04;  0.0000000E+00;  1.6567938E-03;  1.0000000E+04;  0.0000000E+00;  9.9884160E+03; -7.9831165E-01;  0.0000000E+00;  1.1669677E-01;  5.8755659E+03;
  4.7941259E-01;  9.9999998E-03; -2.6010552E-01;1775; -1.8475023E-01;  0.0000000E+00; -3.2009821E-02;  1.0029987E+03;  4.0000269E-01;  2.4843667E+03;3; -4.6397739E+01;  0.0000000E+00; -7.5522985E+00;0; -6.9274032E-01;  1.0070979E+04;  0.0000000E+00;  1.3580625E-03;  1.0000000E+04;  0.0000000E+00;  9.9890156E+03; -8.0555987E-01;  0.0000000E+00;  1.1281957E-01;  5.5839072E+03;
  4.7940385E-01;  9.9999998E-03; -2.4009396E-01;1776; -1.9021423E-01;  0.0000000E+00; -3.0030748E-02;  1.0029853E+03;  4.0000239E-01;  2.4732065E+03;3; -4.2114773E+01;  0.0000000E+00; -6.3020964E+00;0; -7.0446599E-01;  1.0070372E+04;  0.0000000E+00;  7.3802908E-04;  1.0000000E+04;  0.0000000E+00;  9.9893555E+03; -8.1402177E-01;  0.0000000E+00;  1.0955581E-01;  5.4194536E+03;
  4.7940105E-01;  9.9999998E-03; -2.2008388E-01;1777; -1.9410364E-01;  0.0000000E+00; -2.7998157E-02;  1.0029732E+03;  4.0000254E-01;  2.4632314E+03;3; -4.0661762E+01;  0.0000000E+00; -5.5117855E+00;0; -7.1485776E-01;  1.0069663E+04;  0.0000000E+00;  2.9028163E-04;  1.0000000E+04;  0.0000000E+00;  9.9898213E+03; -8.2339227E-01;  0.0000000E+00;  1.0853451E-01;  5.1888691E+03;
  4.7940272E-01;  9.9999998E-03; -2.0007437E-01;1778; -1.9668938E-01;  0.0000000E+00; -2.5828116E-02;  1.0029623E+03;  4.0000248E-01;  2.4541455E+03;3; -4.1053692E+01;  0.0000000E+00; -5.0860710E+00;0; -7.2407651E-01;  1.0068881E+04;  0.0000000E+00;  8.3663028E-05;  1.0000000E+04;  0.0000000E+00;  9.9903750E+03; -8.3323681E-01;  0.0000000E+00;  1.0916030E-01;  4.9105366E+03;
  4.9938014E-01;  9.9999998E-03; -3.0014905E-01;1804; -1.8373479E-01;  0.0000000E+00; -3.6788709E-02;  1.0032967E+03;  4.0000600E-01;  2.7312700E+03;3; -6.6743446E+01;  0.0000000E+00; -1.1042586E+01;0; -7.2007936E-01;  1.0079362E+04;  0.0000000E+00;  4.8723584E-04;  1.0000000E+04;  0.0000000E+00;  9.9864424E+03; -8.4153658E-01;  0.0000000E+00;  1.2145723E-01;  6.8787549E+03;
  4.9935555E-01;  9.9999998E-03; -2.8013286E-01;1805; -1.9329669E-01;  0.0000000E+00; -3.5182696E-02;  1.0033096E+03;  4.0000612E-01;  2.7419363E+03;3; -5.6548512E+01;  0.0000000E+00; -8.6565228E+00;0; -7.2222978E-01;  1.0078618E+04;  0.0000000E+00;  2.0368944E-03;  1.0000000E+04;  0.0000000E+00;  9.9874482E+03; -8.4537303E-01;  0.0000000E+00;  1.2314324E-01;  6.3760840E+03;
  4.9933934E-01;  9.9999998E-03; -2.6011640E-01;1806; -2.0106775E-01;  0.0000000E+00; -3.3163629E-02;  1.0033081E+03;  4.0000609E-01;  2.7406526E+03;3; -4.8580582E+01;  0.0000000E+00; -6.9273252E+00;0; -7.3366863E-01;  1.0077767E+04;  0.0000000E+00;  1.7593870E-03;  1.0000000E+04;  0.0000000E+00;  9.9882734E+03; -8.5077721E-01;  0.0000000E+00;  1.1710858E-01;  5.9760776E+03;
  4.9933064E-01;  9.9999998E-03; -2.4010332E-01;1807; -2.0703977E-01;  0.0000000E+00; -3.0962108E-02;  1.0032759E+03;  4.0000612E-01;  2.7139866E+03;3; -4.3964054E+01;  0.0000000E+00; -5.6235151E+00;0; -7.4489933E-01;  1.0076815E+04;  0.0000000E+00;  9.9585636E-04;  1.0000000E+04;  0.0000000E+00;  9.9885713E+03; -8.5767984E-01;  0.0000000E+00;  1.1278053E-01;  5.8314766E+03;
  4.9932837E-01;  9.9999998E-03; -2.2009280E-01;1808; -2.1128787E-01;  0.0000000E+00; -2.8910687E-02;  1.0032471E+03;  4.0000606E-01;  2.6900862E+03;3; -4.2413284E+01;  0.0000000E+00; -4.8454390E+00;0; -7.5426525E-01;  1.0075792E+04;  0.0000000E+00;  4.2244347E-04;  1.0000000E+04;  0.0000000E+00;  9.9890088E+03; -8.6592096E-01;  0.0000000E+00;  1.1165571E-01;  5.6124390E+03;
  4.9933094E-01;  9.9999998E-03; -2.0008309E-01;1809; -2.1414800E-01;  0.0000000E+00; -2.6713768E-02;  1.0032236E+03;  4.0000615E-01;  2.6707288E+03;3; -4.2880810E+01;  0.0000000E+00; -4.4415450E+00;0; -7.6281542E-01;  1.0074752E+04;  0.0000000E+00;  1.4801981E-04;  1.0000000E+04;  0.0000000E+00;  9.9895801E+03; -8.7515557E-01;  0.0000000E+00;  1.1234014E-01;  5.3272764E+03;
  5.1929802E-01;  9.9999998E-03; -3.0016786E-01;1835; -2.0010747E-01;  0.0000000E+00; -3.8195252E-02;  1.0036085E+03;  4.0001655E-01;  2.9895293E+03;3; -7.0532463E+01;  0.0000000E+00; -1.0210269E+01;0; -7.5474918E-01;  1.0086250E+04;  0.0000000E+00;  3.3288795E-04;  1.0000000E+04;  0.0000000E+00;  9.9852813E+03; -8.8278705E-01;  0.0000000E+00;  1.2803790E-01;  7.4742378E+03;
  5.1927346E-01;  9.9999998E-03; -2.8014848E-01;1836; -2.1025376E-01;  0.0000000E+00; -3.6347888E-02;  1.0036217E+03;  4.0001658E-01;  3.0004919E+03;3; -5.9396439E+01;  0.0000000E+00; -7.7559133E+00;0; -7.5613248E-01;  1.0085100E+04;  0.0000000E+00;  2.6495676E-03;  1.0000000E+04;  0.0000000E+00;  9.9866865E+03; -8.8392371E-01;  0.0000000E+00;  1.2779124E-01;  6.7725659E+03;
  5.1925766E-01;  9.9999998E-03; -2.6012847E-01;1837; -2.1854818E-01;  0.0000000E+00; -3.3922464E-02;  1.0036083E+03;  4.0001640E-01;  2.9894304E+03;3; -5.0744076E+01;  0.0000000E+00; -5.9412866E+00;0; -7.6774931E-01;  1.0083829E+04;  0.0000000E+00;  2.4313752E-03;  1.0000000E+04;  0.0000000E+00;  9.9876885E+03; -8.8671738E-01;  0.0000000E+00;  1.1896806E-01;  6.2872598E+03;
  5.1924962E-01;  9.9999998E-03; -2.4011423E-01;1838; -2.2498441E-01;  0.0000000E+00; -3.1503811E-02;  1.0035450E+03;  4.0001652E-01;  2.9368892E+03;3; -4.5770050E+01;  0.0000000E+00; -4.5917993E+00;0; -7.7678996E-01;  1.0082493E+04;  0.0000000E+00;  1.4396603E-03;  1.0000000E+04;  0.0000000E+00;  9.9877646E+03; -8.9136171E-01;  0.0000000E+00;  1.1457175E-01;  6.2537319E+03;
  5.1924843E-01;  9.9999998E-03; -2.2010390E-01;1839; -2.2956149E-01;  0.0000000E+00; -2.9572487E-02;  1.0034941E+03;  4.0001649E-01;  2.8948164E+03;3; -4.4118637E+01;  0.0000000E+00; -3.8407927E+00;0; -7.8384995E-01;  1.0081134E+04;  0.0000000E+00;  6.4816861E-04;  1.0000000E+04;  0.0000000E+00;  9.9880986E+03; -8.9788127E-01;  0.0000000E+00;  1.1403131E-01;  6.0876138E+03;
  5.1925212E-01;  9.9999998E-03; -2.0009440E-01;1840; -2.3268312E-01;  0.0000000E+00; -2.7469125E-02;  1.0034570E+03;  4.0001649E-01;  2.8640027E+03;3; -4.4662067E+01;  0.0000000E+00; -3.4757094E+00;0; -7.9109526E-01;  1.0079828E+04;  0.0000000E+00;  2.5190000E-04;  1.0000000E+04;  0.0000000E+00;  9.9886436E+03; -9.0604115E-01;  0.0000000E+00;  1.1494587E-01;  5.8084746E+03;
  5.3920305E-01;  9.9999998E-03; -3.0019036E-01;1866; -2.1827635E-01;  0.0000000E+00; -3.9548133E-02;  1.0038859E+03;  4.0004447E-01;  3.2193433E+03;3; -7.4589104E+01;  0.0000000E+00; -9.0553770E+00;0; -7.7249086E-01;  1.0091265E+04;  0.0000000E+00;  2.4367165E-04;  1.0000000E+04;  0.0000000E+00;  9.9843848E+03; -9.0507346E-01;  0.0000000E+00;  1.3258260E-01;  7.9335161E+03;
  5.3918123E-01;  9.9999998E-03; -2.8016692E-01;1867; -2.2860287E-01;  0.0000000E+00; -3.7314031E-02;  1.0039006E+03;  4.0004444E-01;  3.2314910E+03;3; -6.2325306E+01;  0.0000000E+00; -6.4817634E+00;0; -7.7394944E-01;  1.0089730E+04;  0.0000000E+00;  3.6638910E-03;  1.0000000E+04;  0.0000000E+00;  9.9862168E+03; -9.0339458E-01;  0.0000000E+00;  1.2944512E-01;  7.0238301E+03;
  5.3916752E-01;  9.9999998E-03; -2.6014289E-01;1868; -2.3721035E-01;  0.0000000E+00; -3.4309845E-02;  1.0038660E+03;  4.0004447E-01;  3.2028499E+03;3; -5.2914829E+01;  0.0000000E+00; -4.5492716E+00;0; -7.8534693E-01;  1.0088077E+04;  0.0000000E+00;  3.5888362E-03;  1.0000000E+04;  0.0000000E+00;  9.9871738E+03; -9.0344644E-01;  0.0000000E+00;  1.1809953E-01;  6.5610127E+03;
  5.3916126E-01;  9.9999998E-03; -2.4012822E-01;1869; -2.4397013E-01;  0.0000000E+00; -3.1779926E-02;  1.0037595E+03;  4.0004444E-01;  3.1146555E+03;3; -4.7545105E+01;  0.0000000E+00; -3.1519711E+00;0; -7.8987688E-01;  1.0086389E+04;  0.0000000E+00;  2.2203643E-03;  1.0000000E+04;  0.0000000E+00;  9.9867383E+03; -9.0572679E-01;  0.0000000E+00;  1.1584993E-01;  6.7776958E+03;
  5.3916156E-01;  9.9999998E-03; -2.2011884E-01;1870; -2.4882264E-01;  0.0000000E+00; -3.0123109E-02;  1.0036836E+03;  4.0004453E-01;  3.0517441E+03;3; -4.5775105E+01;  0.0000000E+00; -2.4613729E+00;0; -7.9359162E-01;  1.0084746E+04;  0.0000000E+00;  1.0289730E-03;  1.0000000E+04;  0.0000000E+00;  9.9868555E+03; -9.1043854E-01;  0.0000000E+00;  1.1684690E-01;  6.7144746E+03;
  5.3916675E-01;  9.9999998E-03; -2.0010991E-01;1871; -2.5216728E-01;  0.0000000E+00; -2.8271325E-02;  1.0036342E+03;  4.0004453E-01;  3.0108567E+03;3; -4.6388195E+01;  0.0000000E+00; -2.1381116E+00;0; -7.9924423E-01;  1.0083218E+04;  0.0000000E+00;  3.9629563E-04;  1.0000000E+04;  0.0000000E+00;  9.9873809E+03; -9.1743296E-01;  0.0000000E+00;  1.1818872E-01;  6.4477192E+03;
  5.5909526E-01;  9.9999998E-03; -3.0021805E-01;1897; -2.3822802E-01;  0.0000000E+00; -4.0962473E-02;  1.0041200E+03;  4.0011954E-01;  3.4133032E+03;3; -7.8921684E+01;  0.0000000E+00; -7.5602765E+00;0; -7.5843245E-01;  1.0092677E+04;  0.0000000E+00;  3.2906915E-04;  1.0000000E+04;  0.0000000E+00;  9.9838369E+03; -8.9214772E-01;  0.0000000E+00;  1.3371526E-01;  8.2102920E+03;
  5.5908000E-01;  9.9999998E-03; -2.8018996E-01;1898; -2.4811606E-01;  0.0000000E+00; -3.8204912E-02;  1.0041364E+03;  4.0011957E-01;  3.4268335E+03;3; -6.5304512E+01;  0.0000000E+00; -4.7872090E+00;0; -7.6134813E-01;  1.0090912E+04;  0.0000000E+00;  5.2772732E-03;  1.0000000E+04;  0.0000000E+00;  9.9859316E+03; -8.8884747E-01;  0.0000000E+00;  1.2749937E-01;  7.1725889E+03;
  5.5907065E-01;  9.9999998E-03; -2.6016188E-01;1899; -2.5669393E-01;  0.0000000E+00; -3.4514662E-02;  1.0040690E+03;  4.0011957E-01;  3.3711318E+03;3; -5.5059448E+01;  0.0000000E+00; -2.6305845E+00;0; -7.7185267E-01;  1.0089043E+04;  0.0000000E+00;  5.5235252E-03;  1.0000000E+04;  0.0000000E+00;  9.9864561E+03; -8.8743019E-01;  0.0000000E+00;  1.1557754E-01;  6.9253569E+03;
  5.5906749E-01;  9.9999998E-03; -2.4014765E-01;1900; -2.6354730E-01;  0.0000000E+00; -3.2101221E-02;  1.0039120E+03;  4.0011960E-01;  3.2410627E+03;3; -4.9252388E+01;  0.0000000E+00; -1.2275994E+00;0; -7.6986653E-01;  1.0087188E+04;  0.0000000E+00;  3.5593847E-03;  1.0000000E+04;  0.0000000E+00;  9.9851787E+03; -8.8855708E-01;  0.0000000E+00;  1.1869056E-01;  7.5533447E+03;
  5.5906999E-01;  9.9999998E-03; -2.2013982E-01;1901; -2.6860502E-01;  0.0000000E+00; -3.0887080E-02;  1.0038143E+03;  4.0011978E-01;  3.1599792E+03;3; -4.7374783E+01;  0.0000000E+00; -6.1045647E-01;0; -7.7008134E-01;  1.0085420E+04;  0.0000000E+00;  1.6649719E-03;  1.0000000E+04;  0.0000000E+00;  9.9849834E+03; -8.9243388E-01;  0.0000000E+00;  1.2235253E-01;  7.6423652E+03;
  5.5907667E-01;  9.9999998E-03; -2.0013125E-01;1902; -2.7215406E-01;  0.0000000E+00; -2.9362060E-02;  1.0037601E+03;  4.0011972E-01;  3.1151416E+03;3; -4.8012310E+01;  0.0000000E+00; -4.1090837E-01;0; -7.7471042E-01;  1.0083817E+04;  0.0000000E+00;  5.8222824E-04;  1.0000000E+04;  0.0000000E+00;  9.9854902E+03; -8.9892840E-01;  0.0000000E+00;  1.2421798E-01;  7.3831089E+03;
  5.7897902E-01;  9.9999998E-03; -3.0025327E-01;1928; -2.5912604E-01;  0.0000000E+00; -4.2676162E-02;  1.0043769E+03;  4.0031865E-01;  3.6261230E+03;3; -8.3383896E+01;  0.0000000E+00; -5.7663398E+00;0; -6.8952620E-01;  1.0088162E+04;  0.0000000E+00;  8.4254582E-04;  1.0000000E+04;  0.0000000E+00;  9.9834404E+03; -8.2048327E-01;  0.0000000E+00;  1.3095708E-01;  8.3868184E+03;
  5.7897449E-01;  9.9999998E-03; -2.8022069E-01;1929; -2.6790297E-01;  0.0000000E+00; -3.9292991E-02;  1.0043936E+03;  4.0031886E-01;  3.6399497E+03;3; -6.8194305E+01;  0.0000000E+00; -2.6461933E+00;0; -6.9639367E-01;  1.0086511E+04;  0.0000000E+00;  7.8082355E-03;  1.0000000E+04;  0.0000000E+00;  9.9854287E+03; -8.1874365E-01;  0.0000000E+00;  1.2234998E-01;  7.4074541E+03;
  5.7897168E-01;  9.9999998E-03; -2.6018894E-01;1930; -2.7606240E-01;  0.0000000E+00; -3.4967843E-02;  1.0042906E+03;  4.0031892E-01;  3.5547185E+03;3; -5.7031879E+01;  0.0000000E+00; -2.4830961E-01;0; -7.0570773E-01;  1.0084812E+04;  0.0000000E+00;  8.6183902E-03;  1.0000000E+04;  0.0000000E+00;  9.9850830E+03; -8.1937724E-01;  0.0000000E+00;  1.1366950E-01;  7.5914199E+03;
  5.7897258E-01;  9.9999998E-03; -2.4017516E-01;1931; -2.8278041E-01;  0.0000000E+00; -3.2853380E-02;  1.0040906E+03;  4.0031895E-01;  3.3889971E+03;3; -5.0772755E+01;  0.0000000E+00;  1.1923918E+00;0; -6.9744164E-01;  1.0083171E+04;  0.0000000E+00;  5.7068621E-03;  1.0000000E+04;  0.0000000E+00;  9.9827383E+03; -8.2285893E-01;  0.0000000E+00;  1.2541728E-01;  8.7391982E+03;
  5.7897782E-01;  9.9999998E-03; -2.2016856E-01;1932; -2.8779542E-01;  0.0000000E+00; -3.2302465E-02;  1.0039847E+03;  4.0031907E-01;  3.3011982E+03;3; -4.8722557E+01;  0.0000000E+00;  1.6053393E+00;0; -6.9603050E-01;  1.0081627E+04;  0.0000000E+00;  2.6480809E-03;  1.0000000E+04;  0.0000000E+00;  9.9821621E+03; -8.2897151E-01;  0.0000000E+00;  1.3294104E-01;  9.0144551E+03;
  5.7898587E-01;  9.9999998E-03; -2.0015959E-01;1933; -2.9166061E-01;  0.0000000E+00; -3.0973626E-02;  1.0039396E+03;  4.0031922E-01;  3.2638662E+03;3; -4.9417435E+01;  0.0000000E+00;  1.6938223E+00;0; -7.0172441E-01;  1.0080223E+04;  0.0000000E+00;  8.0287649E-04;  1.0000000E+04;  0.0000000E+00;  9.9826611E+03; -8.3724797E-01;  0.0000000E+00;  1.3552354E-01;  8.7605908E+03;
  5.9886414E-01;  9.9999998E-03; -3.0029997E-01;1959; -2.7927130E-01;  0.0000000E+00; -4.5138709E-02;  1.0049279E+03;  4.0082443E-01;  4.0825801E+03;3; -8.7498947E+01;  0.0000000E+00; -3.6222105E+00;0; -5.3099668E-01;  1.0074852E+04;  0.0000000E+00;  2.1588791E-03;  1.0000000E+04;  0.0000000E+00;  9.9824238E+03; -6.5828151E-01;  0.0000000E+00;  1.2728482E-01;  8.8390283E+03;
  5.9887248E-01;  9.9999998E-03; -2.8026426E-01;1960; -2.8644633E-01;  0.0000000E+00; -4.1181557E-02;  1.0049473E+03;  4.0082479E-01;  4.0986782E+03;3; -7.0742760E+01;  0.0000000E+00; -8.6685926E-02;0; -5.4568100E-01;  1.0073834E+04;  0.0000000E+00;  1.1843553E-02;  1.0000000E+04;  0.0000000E+00;  9.9838242E+03; -6.6325676E-01;  0.0000000E+00;  1.1757579E-01;  8.1587666E+03;
  5.9887755E-01;  9.9999998E-03; -2.6022956E-01;1961; -2.9379317E-01;  0.0000000E+00; -3.6547232E-02;  1.0048295E+03;  4.0082514E-01;  4.0011023E+03;3; -5.8681080E+01;  0.0000000E+00;  2.6712470E+00;0; -5.5504167E-01;  1.0072858E+04;  0.0000000E+00;  1.3478409E-02;  1.0000000E+04;  0.0000000E+00;  9.9824609E+03; -6.7138302E-01;  0.0000000E+00;  1.1634133E-01;  8.8429863E+03;
  5.9888250E-01;  9.9999998E-03; -2.4021292E-01;1962; -3.0034018E-01;  0.0000000E+00; -3.4460086E-02;  1.0046258E+03;  4.0082550E-01;  3.8323198E+03;3; -5.2032257E+01;  0.0000000E+00;  4.0971317E+00;0; -5.4604614E-01;  1.0071985E+04;  0.0000000E+00;  9.0404833E-03;  1.0000000E+04;  0.0000000E+00;  9.9792900E+03; -6.8271524E-01;  0.0000000E+00;  1.3666907E-01;  1.0392183E+04;
  5.9888965E-01;  9.9999998E-03; -2.2020449E-01;1963; -3.0551487E-01;  0.0000000E+00; -3.3963349E-02;  1.0045356E+03;  4.0082586E-01;  3.7575579E+03;3; -4.9741165E+01;  0.0000000E+00;  4.2586346E+00;0; -5.4736090E-01;  1.0071184E+04;  0.0000000E+00;  4.1102851E-03;  1.0000000E+04;  0.0000000E+00;  9.9782832E+03; -6.9626516E-01;  0.0000000E+00;  1.4890423E-01;  1.0878742E+04;
  5.9889895E-01;  9.9999998E-03; -2.0019357E-01;1964; -3.0958831E-01;  0.0000000E+00; -3.2821596E-02;  1.0045193E+03;  4.0082592E-01;  3.7441262E+03;3; -5.0374718E+01;  0.0000000E+00;  4.0201344E+00;0; -5.5729818E-01;  1.0070419E+04;  0.0000000E+00;  1.0421015E-03;  1.0000000E+04;  0.0000000E+00;  9.9787119E+03; -7.1073973E-01;  0.0000000E+00;  1.5344156E-01;  1.0660744E+04;
  6.1876363E-01;  9.9999998E-03; -3.0036405E-01;1990; -2.9638103E-01;  0.0000000E+00; -4.9113434E-02;  1.0064078E+03;  4.0198606E-01;  5.3085674E+03;3; -9.1011528E+01;  0.0000000E+00; -1.5630244E+00;0; -2.4052612E-01;  1.0049851E+04;  0.0000000E+00;  4.4256425E-03;  1.0000000E+04;  0.0000000E+00;  9.9790186E+03; -3.7075514E-01;  0.0000000E+00;  1.3022901E-01;  1.0418976E+04;
  6.1878264E-01;  9.9999998E-03; -2.8032839E-01;1991; -3.0233279E-01;  0.0000000E+00; -4.4783540E-02;  1.0064419E+03;  4.0198699E-01;  5.3369111E+03;3; -7.2991173E+01;  0.0000000E+00;  2.9356894E+00;0; -2.6846656E-01;  1.0050030E+04;  0.0000000E+00;  1.7715154E-02;  1.0000000E+04;  0.0000000E+00;  9.9794707E+03; -3.8814005E-01;  0.0000000E+00;  1.1967349E-01;  1.0219528E+04;
  6.1879176E-01;  9.9999998E-03; -2.6028779E-01;1992; -3.0939499E-01;  0.0000000E+00; -4.0009696E-02;  1.0063987E+03;  4.0198785E-01;  5.3011597E+03;3; -6.0083931E+01;  0.0000000E+00;  6.0356112E+00;0; -2.8414071E-01;  1.0050344E+04;  0.0000000E+00;  2.0385876E-02;  1.0000000E+04;  0.0000000E+00;  9.9783066E+03; -4.0934077E-01;  0.0000000E+00;  1.2520006E-01;  1.0803203E+04;
  6.1879981E-01;  9.9999998E-03; -2.4026214E-01;1993; -3.1579888E-01;  0.0000000E+00; -3.6916766E-02;  1.0062552E+03;  4.0198857E-01;  5.1822524E+03;3; -5.2875401E+01;  0.0000000E+00;  7.3301401E+00;0; -2.8435156E-01;  1.0050797E+04;  0.0000000E+00;  1.3970592E-02;  1.0000000E+04;  0.0000000E+00;  9.9750000E+03; -4.3394619E-01;  0.0000000E+00;  1.4959463E-01;  1.2422953E+04;
  6.1880964E-01;  9.9999998E-03; -2.2024763E-01;1994; -3.2094321E-01;  0.0000000E+00; -3.5896678E-02;  1.0062048E+03;  4.0198928E-01;  5.1403779E+03;3; -5.0381386E+01;  0.0000000E+00;  7.4514594E+00;0; -2.9167330E-01;  1.0051285E+04;  0.0000000E+00;  6.3593430E-03;  1.0000000E+04;  0.0000000E+00;  9.9735039E+03; -4.6018001E-01;  0.0000000E+00;  1.6850670E-01;  1.3149342E+04;
  6.1882019E-01;  9.9999998E-03; -2.0023179E-01;1995; -3.2523468E-01;  0.0000000E+00; -3.4367356E-02;  1.0062346E+03;  4.0198967E-01;  5.1650679E+03;3; -5.1005554E+01;  0.0000000E+00;  6.9107108E+00;0; -3.0849022E-01;  1.0051649E+04;  0.0000000E+00;  1.4362779E-03;  1.0000000E+04;  0.0000000E+00;  9.9737070E+03; -4.8574477E-01;  0.0000000E+00;  1.7725456E-01;  1.3043384E+04;
  6.3868970E-01;  9.9999998E-03; -3.0044967E-01;2021; -3.0875921E-01;  0.0000000E+00; -5.5328198E-02;  1.0094529E+03;  4.0413141E-01;  7.8313389E+03;3; -9.3374626E+01;  0.0000000E+00;  4.0375736E-01;0;  2.1807294E-01;  1.0011438E+04;  0.0000000E+00;  6.7137009E-03;  1.0000000E+04;  0.0000000E+00;  9.9715049E+03;  6.5116867E-02;  0.0000000E+00;  1.5295607E-01;  1.3954859E+04;
  6.3871104E-01;  9.9999998E-03; -2.8041759E-01;2022; -3.1484500E-01;  0.0000000E+00; -5.0906222E-02;  1.0095363E+03;  4.0413329E-01;  7.9003716E+03;3; -7.4618340E+01;  0.0000000E+00;  6.1063290E+00;0;  1.6764192E-01;  1.0013241E+04;  0.0000000E+00;  2.3763752E-02;  1.0000000E+04;  0.0000000E+00;  9.9712695E+03;  3.1399723E-02;  0.0000000E+00;  1.3624220E-01;  1.4119090E+04;
  6.3872164E-01;  9.9999998E-03; -2.6037562E-01;2023; -3.2201773E-01;  0.0000000E+00; -4.6764132E-02;  1.0096353E+03;  4.0413442E-01;  7.9823423E+03;3; -6.1106968E+01;  0.0000000E+00;  9.5535812E+00;0;  1.3983609E-01;  1.0015235E+04;  0.0000000E+00;  2.8304661E-02;  1.0000000E+04;  0.0000000E+00;  9.9712246E+03; -6.0940008E-03;  0.0000000E+00;  1.4593008E-01;  1.4150542E+04;
  6.3873011E-01;  9.9999998E-03; -2.4033216E-01;2024; -3.2854030E-01;  0.0000000E+00; -4.1762147E-02;  1.0096677E+03;  4.0413535E-01;  8.0093037E+03;3; -5.3434692E+01;  0.0000000E+00;  1.0968029E+01;0;  1.1775303E-01;  1.0017369E+04;  0.0000000E+00;  2.0275727E-02;  1.0000000E+04;  0.0000000E+00;  9.9697334E+03; -4.6567079E-02;  0.0000000E+00;  1.6432011E-01;  1.4885020E+04;
  6.3874084E-01;  9.9999998E-03; -2.2029948E-01;2025; -3.3366442E-01;  0.0000000E+00; -3.8452625E-02;  1.0097006E+03;  4.0413639E-01;  8.0364624E+03;3; -5.0699184E+01;  0.0000000E+00;  1.0884501E+01;0;  9.9987388E-02;  1.0019469E+04;  0.0000000E+00;  9.7109945E-03;  1.0000000E+04;  0.0000000E+00;  9.9682578E+03; -8.7744325E-02;  0.0000000E+00;  1.8773171E-01;  1.5602561E+04;
  6.3875395E-01;  9.9999998E-03; -2.0027500E-01;2026; -3.3770251E-01;  0.0000000E+00; -3.5752635E-02;  1.0097818E+03;  4.0413710E-01;  8.1038164E+03;3; -5.1278038E+01;  0.0000000E+00;  1.0195780E+01;0;  7.7287748E-02;  1.0021306E+04;  0.0000000E+00;  2.4156859E-03;  1.0000000E+04;  0.0000000E+00;  9.9680000E+03; -1.2661837E-01;  0.0000000E+00;  2.0390612E-01;  1.5722611E+04;
  6.5865237E-01;  9.9999998E-03; -3.0054957E-01;2052; -3.1349251E-01;  0.0000000E+00; -6.3302703E-02;  1.0132112E+03;  4.0686467E-01;  1.0944814E+04;3; -9.3516251E+01;  0.0000000E+00;  1.6727923E+00;0;  8.2165909E-01;  9.9607441E+03;  0.0000000E+00;  6.0301255E-03;  1.0000000E+04;  0.0000000E+00;  9.9618125E+03;  6.3838822E-01;  0.0000000E+00;  1.8327084E-01;  1.8518359E+04;
  6.5867054E-01;  9.9999998E-03; -2.8052482E-01;2053; -3.2117838E-01;  0.0000000E+00; -5.9649121E-02;  1.0133437E+03;  4.0686643E-01;  1.1054534E+04;3; -7.5475624E+01;  0.0000000E+00;  9.2864714E+00;0;  7.5597525E-01;  9.9642314E+03;  0.0000000E+00;  2.6329760E-02;  1.0000000E+04;  0.0000000E+00;  9.9608574E+03;  5.8949959E-01;  0.0000000E+00;  1.6647564E-01;  1.9053213E+04;
  6.5868163E-01;  9.9999998E-03; -2.6049292E-01;2054; -3.2838586E-01;  0.0000000E+00; -5.7518154E-02;  1.0135674E+03;  4.0686697E-01;  1.1239903E+04;3; -6.1524902E+01;  0.0000000E+00;  1.2890029E+01;0;  7.1706367E-01;  9.9679160E+03;  0.0000000E+00;  3.4178667E-02;  1.0000000E+04;  0.0000000E+00;  9.9615762E+03;  5.3755611E-01;  0.0000000E+00;  1.7950757E-01;  1.8708984E+04;
  6.5868932E-01;  9.9999998E-03; -2.4043903E-01;2055; -3.3519483E-01;  0.0000000E+00; -5.2370418E-02;  1.0138292E+03;  4.0686709E-01;  1.1456777E+04;3; -5.3499287E+01;  0.0000000E+00;  1.4787108E+01;0;  6.7143023E-01;  9.9716797E+03;  0.0000000E+00;  2.6338965E-02;  1.0000000E+04;  0.0000000E+00;  9.9629814E+03;  4.8423120E-01;  0.0000000E+00;  1.8719900E-01;  1.8021736E+04;
  6.5869677E-01;  9.9999998E-03; -2.2037713E-01;2056; -3.4114131E-01;  0.0000000E+00; -4.4543389E-02;  1.0140043E+03;  4.0686750E-01;  1.1601854E+04;3; -5.0681438E+01;  0.0000000E+00;  1.4829783E+01;0;  6.3658261E-01;  9.9753271E+03;  0.0000000E+00;  1.3852665E-02;  1.0000000E+04;  0.0000000E+00;  9.9627949E+03;  4.3172434E-01;  0.0000000E+00;  2.0485827E-01;  1.8115260E+04;
  6.5870851E-01;  9.9999998E-03; -2.0033188E-01;2057; -3.4582400E-01;  0.0000000E+00; -3.8565390E-02;  1.0141391E+03;  4.0686810E-01;  1.1713451E+04;3; -5.1229153E+01;  0.0000000E+00;  1.3951130E+01;0;  6.1181122E-01;  9.9785723E+03;  0.0000000E+00;  4.4148285E-03;  1.0000000E+04;  0.0000000E+00;  9.9621807E+03;  3.8299295E-01;  0.0000000E+00;  2.2881828E-01;  1.8408563E+04;
  6.7867565E-01;  9.9999998E-03; -3.0064067E-01;2083; -3.0331099E-01;  0.0000000E+00; -7.1217299E-02;  1.0154947E+03;  4.0907967E-01;  1.2836347E+04;3; -8.7664970E+01;  0.0000000E+00;  9.7670496E-01;0;  1.4818205E+00;  9.9032266E+03;  0.0000000E+00;  1.5158912E-03;  1.0000000E+04;  0.0000000E+00;  9.9559727E+03;  1.2839651E+00;  0.0000000E+00;  1.9785532E-01;  2.1151305E+04;
  6.7867225E-01;  9.9999998E-03; -2.8062457E-01;2084; -3.1761363E-01;  0.0000000E+00; -6.7829080E-02;  1.0156231E+03;  4.0908006E-01;  1.2942708E+04;3; -7.3573883E+01;  0.0000000E+00;  1.2249022E+01;0;  1.4058663E+00;  9.9078223E+03;  0.0000000E+00;  2.1262566E-02;  1.0000000E+04;  0.0000000E+00;  9.9538818E+03;  1.2295824E+00;  0.0000000E+00;  1.7628381E-01;  2.2271756E+04;
  6.7867947E-01;  9.9999998E-03; -2.6060864E-01;2085; -3.2662803E-01;  0.0000000E+00; -6.8372525E-02;  1.0158688E+03;  4.0907970E-01;  1.3146246E+04;3; -6.0187653E+01;  0.0000000E+00;  1.6656572E+01;0;  1.3710607E+00;  9.9126621E+03;  0.0000000E+00;  3.3513293E-02;  1.0000000E+04;  0.0000000E+00;  9.9538828E+03;  1.1728549E+00;  0.0000000E+00;  1.9820586E-01;  2.2279402E+04;
  6.7868614E-01;  9.9999998E-03; -2.4056616E-01;2086; -3.3375469E-01;  0.0000000E+00; -6.6475272E-02;  1.0162368E+03;  4.0907851E-01;  1.3451109E+04;3; -5.2488770E+01;  0.0000000E+00;  1.8433773E+01;0;  1.3251100E+00;  9.9174707E+03;  0.0000000E+00;  2.8876681E-02;  1.0000000E+04;  0.0000000E+00;  9.9563457E+03;  1.1173840E+00;  0.0000000E+00;  2.0772599E-01;  2.1071348E+04;
  6.7868716E-01;  9.9999998E-03; -2.2048491E-01;2087; -3.4143212E-01;  0.0000000E+00; -5.6829315E-02;  1.0165377E+03;  4.0907753E-01;  1.3700372E+04;3; -4.9974770E+01;  0.0000000E+00;  1.8378611E+01;0;  1.2831116E+00;  9.9220508E+03;  0.0000000E+00;  1.7074326E-02;  1.0000000E+04;  0.0000000E+00;  9.9576982E+03;  1.0647324E+00;  0.0000000E+00;  2.1837911E-01;  2.0408904E+04;
  6.7869443E-01;  9.9999998E-03; -2.0041560E-01;2088; -3.4743378E-01;  0.0000000E+00; -4.6596028E-02;  1.0167080E+03;  4.0907726E-01;  1.3841496E+04;3; -5.0703632E+01;  0.0000000E+00;  1.7642900E+01;0;  1.2646848E+00;  9.9261748E+03;  0.0000000E+00;  6.9827698E-03;  1.0000000E+04;  0.0000000E+00;  9.9569219E+03;  1.0168418E+00;  0.0000000E+00;  2.4784298E-01;  2.0782305E+04;
  6.9887984E-01;  9.9999998E-03; -3.0071399E-01;2114; -2.4484500E-01;  0.0000000E+00; -7.6271966E-02;  1.0156907E+03;  4.1030815E-01;  1.2998443E+04;3; -6.3059494E+01;  0.0000000E+00;  3.8941557E+00;0;  2.0579350E+00;  9.8489141E+03;  0.0000000E+00;  1.1834986E-02;  1.0000000E+04;  0.0000000E+00;  9.9546064E+03;  1.8796787E+00;  0.0000000E+00;  1.7825638E-01;  2.1617178E+04;
  6.9876891E-01;  9.9999998E-03; -2.8070241E-01;2115; -2.8934336E-01;  0.0000000E+00; -7.3379651E-02;  1.0157656E+03;  4.1030717E-01;  1.3060465E+04;3; -6.1323448E+01;  0.0000000E+00;  1.6167538E+01;0;  1.9978901E+00;  9.8532432E+03;  0.0000000E+00;  1.4288303E-02;  1.0000000E+04;  0.0000000E+00;  9.9518574E+03;  1.8399054E+00;  0.0000000E+00;  1.5798473E-01;  2.3059258E+04;
  6.9874072E-01;  9.9999998E-03; -2.6070273E-01;2116; -3.1088829E-01;  0.0000000E+00; -7.6522835E-02;  1.0159081E+03;  4.1030616E-01;  1.3178575E+04;3; -5.5220688E+01;  0.0000000E+00;  2.0255989E+01;0;  1.9892682E+00;  9.8579639E+03;  0.0000000E+00;  2.5630582E-02;  1.0000000E+04;  0.0000000E+00;  9.9499756E+03;  1.7977450E+00;  0.0000000E+00;  1.9152315E-01;  2.3995791E+04;
  6.9874567E-01;  9.9999998E-03; -2.4068742E-01;2117; -3.1841958E-01;  0.0000000E+00; -8.0752395E-02;  1.0162165E+03;  4.1030437E-01;  1.3434055E+04;3; -4.9275833E+01;  0.0000000E+00;  2.2335682E+01;0;  1.9774272E+00;  9.8626221E+03;  0.0000000E+00;  2.5678221E-02;  1.0000000E+04;  0.0000000E+00;  9.9514014E+03;  1.7588187E+00;  0.0000000E+00;  2.1860847E-01;  2.3281311E+04;
  6.9874024E-01;  9.9999998E-03; -2.2061898E-01;2118; -3.2645404E-01;  0.0000000E+00; -7.7218190E-02;  1.0165385E+03;  4.1030252E-01;  1.3700793E+04;3; -4.6498081E+01;  0.0000000E+00;  2.1357338E+01;0;  1.9555764E+00;  9.8670400E+03;  0.0000000E+00;  1.7029114E-02;  1.0000000E+04;  0.0000000E+00;  9.9533311E+03;  1.7240022E+00;  0.0000000E+00;  2.3157413E-01;  2.2329271E+04;
  6.9873887E-01;  9.9999998E-03; -2.0053855E-01;2119; -3.3535421E-01;  0.0000000E+00; -6.6221438E-02;  1.0167109E+03;  4.1030154E-01;  1.3843691E+04;3; -4.7990326E+01;  0.0000000E+00;  2.0209831E+01;0;  1.9542300E+00;  9.8710840E+03;  0.0000000E+00;  8.4003191E-03;  1.0000000E+04;  0.0000000E+00;  9.9526719E+03;  1.6934087E+00;  0.0000000E+00;  2.6082119E-01;  2.2645324E+04;
  7.1924716E-01;  9.9999998E-03; -3.0076829E-01;2145; -1.5416345E-01;  0.0000000E+00; -8.0036715E-02;  1.0150836E+03;  4.1084942E-01;  1.2495146E+04;3; -3.4440472E+01;  0.0000000E+00;  6.8855786E+00;0;  2.4404848E+00;  9.8097002E+03;  0.0000000E+00;  2.1506567E-02;  1.0000000E+04;  0.0000000E+00;  9.9560938E+03;  2.2800703E+00;  0.0000000E+00;  1.6041456E-01;  2.0721057E+04;
  7.1912658E-01;  9.9999998E-03; -2.8075650E-01;2146; -1.9397937E-01;  0.0000000E+00; -7.6974981E-02;  1.0150622E+03;  4.1084921E-01;  1.2477471E+04;3; -3.4249828E+01;  0.0000000E+00;  1.9373707E+01;0;  2.4090779E+00;  9.8119727E+03;  0.0000000E+00;  2.6852408E-02;  1.0000000E+04;  0.0000000E+00;  9.9534639E+03;  2.2812514E+00;  0.0000000E+00;  1.2782647E-01;  2.2110918E+04;
  7.1902043E-01;  9.9999998E-03; -2.6076442E-01;2147; -2.3482625E-01;  0.0000000E+00; -7.9984479E-02;  1.0150056E+03;  4.1084865E-01;  1.2430563E+04;3; -3.4534851E+01;  0.0000000E+00;  2.5661089E+01;0;  2.4450488E+00;  9.8147402E+03;  0.0000000E+00;  2.3407031E-02;  1.0000000E+04;  0.0000000E+00;  9.9496572E+03;  2.2799463E+00;  0.0000000E+00;  1.6510251E-01;  2.3992504E+04;
  7.1895134E-01;  9.9999998E-03; -2.4077109E-01;2148; -2.6507285E-01;  0.0000000E+00; -8.8251084E-02;  1.0151267E+03;  4.1084665E-01;  1.2530899E+04;3; -3.5128197E+01;  0.0000000E+00;  2.8036407E+01;0;  2.4918072E+00;  9.8176572E+03;  0.0000000E+00;  1.9057419E-02;  1.0000000E+04;  0.0000000E+00;  9.9491904E+03;  2.2799175E+00;  0.0000000E+00;  2.1188971E-01;  2.4188365E+04;
  7.1892059E-01;  9.9999998E-03; -2.2073661E-01;2149; -2.8149688E-01;  0.0000000E+00; -9.3172185E-02;  1.0153353E+03;  4.1084492E-01;  1.2703716E+04;3; -3.6281864E+01;  0.0000000E+00;  2.8077152E+01;0;  2.5191207E+00;  9.8205488E+03;  0.0000000E+00;  1.3064302E-02;  1.0000000E+04;  0.0000000E+00;  9.9504150E+03;  2.2827251E+00;  0.0000000E+00;  2.3639557E-01;  2.3567586E+04;
  7.1891350E-01;  9.9999998E-03; -2.0068084E-01;2150; -2.9123205E-01;  0.0000000E+00; -9.3402289E-02;  1.0154404E+03;  4.1084394E-01;  1.2790717E+04;3; -3.8199570E+01;  0.0000000E+00;  2.5426762E+01;0;  2.5564921E+00;  9.8234111E+03;  0.0000000E+00;  7.1848296E-03;  1.0000000E+04;  0.0000000E+00;  9.9496230E+03;  2.2867203E+00;  0.0000000E+00;  2.6977181E-01;  2.3941250E+04;
  7.3954862E-01;  9.9999998E-03; -3.0080625E-01;2176; -8.9427441E-02;  0.0000000E+00; -8.3621435E-02;  1.0147935E+03;  4.1106221E-01;  1.2254430E+04;3; -1.8013344E+01;  0.0000000E+00;  5.8173647E+00;0;  2.5786755E+00;  9.7921270E+03;  0.0000000E+00;  2.7774647E-03;  1.0000000E+04;  0.0000000E+00;  9.9580596E+03;  2.4191477E+00;  0.0000000E+00;  1.5952782E-01;  1.9644057E+04;
  7.3947203E-01;  9.9999998E-03; -2.8079173E-01;2177; -1.1322450E-01;  0.0000000E+00; -7.7653691E-02;  1.0146566E+03;  4.1106254E-01;  1.2141067E+04;3; -1.7540550E+01;  0.0000000E+00;  2.2279371E+01;0;  2.5556815E+00;  9.7916807E+03;  0.0000000E+00;  1.8317347E-02;  1.0000000E+04;  0.0000000E+00;  9.9558613E+03;  2.4658048E+00;  0.0000000E+00;  8.9876637E-02;  2.0864895E+04;
  7.3940247E-01;  9.9999998E-03; -2.6078433E-01;2178; -1.3821192E-01;  0.0000000E+00; -7.9755217E-02;  1.0145109E+03;  4.1106260E-01;  1.2020301E+04;3; -1.7472977E+01;  0.0000000E+00;  2.9444580E+01;0;  2.6496277E+00;  9.7913916E+03;  0.0000000E+00;  1.7592113E-02;  1.0000000E+04;  0.0000000E+00;  9.9533418E+03;  2.5176196E+00;  0.0000000E+00;  1.3200814E-01;  2.2082857E+04;
  7.3934877E-01;  9.9999998E-03; -2.4078256E-01;2179; -1.5917143E-01;  0.0000000E+00; -8.5131146E-02;  1.0144031E+03;  4.1106156E-01;  1.1931032E+04;3; -1.7951992E+01;  0.0000000E+00;  3.2110142E+01;0;  2.7521052E+00;  9.7913926E+03;  0.0000000E+00;  1.2522347E-02;  1.0000000E+04;  0.0000000E+00;  9.9512930E+03;  2.5711331E+00;  0.0000000E+00;  1.8097214E-01;  2.3051709E+04;
  7.3931497E-01;  9.9999998E-03; -2.2075179E-01;2180; -1.7467354E-01;  0.0000000E+00; -8.9615561E-02;  1.0143805E+03;  4.1106045E-01;  1.1912271E+04;3; -1.9136507E+01;  0.0000000E+00;  3.2813679E+01;0;  2.8451862E+00;  9.7917969E+03;  0.0000000E+00;  7.6980032E-03;  1.0000000E+04;  0.0000000E+00;  9.9504971E+03;  2.6232395E+00;  0.0000000E+00;  2.2194670E-01;  2.3407807E+04;
  7.3930073E-01;  9.9999998E-03; -2.0070186E-01;2181; -1.8503313E-01;  0.0000000E+00; -9.1035552E-02;  1.0143226E+03;  4.1105971E-01;  1.1864378E+04;3; -2.1299688E+01;  0.0000000E+00;  3.0390125E+01;0;  2.9383559E+00;  9.7927393E+03;  0.0000000E+00;  4.1743065E-03;  1.0000000E+04;  0.0000000E+00;  9.9484395E+03;  2.6704209E+00;  0.0000000E+00;  2.6793516E-01;  2.4385316E+04;
  7.5975382E-01;  9.9999998E-03; -3.0083376E-01;2207; -5.3155761E-02;  0.0000000E+00; -8.7501653E-02;  1.0150577E+03;  4.1114077E-01;  1.2472639E+04;3; -1.2307721E+01;  0.0000000E+00;  2.4001873E+00;0;  2.5504031E+00;  9.7933184E+03;  0.0000000E+00; -1.1466867E-02;  1.0000000E+04;  0.0000000E+00;  9.9583086E+03;  2.3607044E+00;  0.0000000E+00;  1.8969859E-01;  1.9450682E+04;
  7.5971192E-01;  9.9999998E-03; -2.8081620E-01;2208; -6.5563746E-02;  0.0000000E+00; -7.6271780E-02;  1.0148157E+03;  4.1114151E-01;  1.2272189E+04;3; -1.1548838E+01;  0.0000000E+00;  2.4968327E+01;0;  2.4977827E+00;  9.7905420E+03;  0.0000000E+00;  2.8992065E-03;  1.0000000E+04;  0.0000000E+00;  9.9563877E+03;  2.4413531E+00;  0.0000000E+00;  5.6429643E-02;  2.0621443E+04;
  7.5967485E-01;  9.9999998E-03; -2.6079181E-01;2209; -7.8205422E-02;  0.0000000E+00; -7.8440942E-02;  1.0146331E+03;  4.1114181E-01;  1.2120915E+04;3; -1.0974738E+01;  0.0000000E+00;  3.2763626E+01;0;  2.6513731E+00;  9.7875791E+03;  0.0000000E+00;  5.9802104E-03;  1.0000000E+04;  0.0000000E+00;  9.9558389E+03;  2.5335715E+00;  0.0000000E+00;  1.1780170E-01;  2.0820189E+04;
  7.5964320E-01;  9.9999998E-03; -2.4077763E-01;2210; -8.9605831E-02;  0.0000000E+00; -7.9928495E-02;  1.0143459E+03;  4.1114148E-01;  1.1883141E+04;3; -1.0943484E+01;  0.0000000E+00;  3.6840759E+01;0;  2.7941692E+00;  9.7849102E+03;  0.0000000E+00;  4.5242533E-03;  1.0000000E+04;  0.0000000E+00;  9.9529541E+03;  2.6294742E+00;  0.0000000E+00;  1.6469495E-01;  2.2195613E+04;
  7.5962096E-01;  9.9999998E-03; -2.2074379E-01;2211; -9.8717995E-02;  0.0000000E+00; -8.2906678E-02;  1.0141291E+03;  4.1114110E-01;  1.1703428E+04;3; -1.1562699E+01;  0.0000000E+00;  3.6670185E+01;0;  2.9392626E+00;  9.7829512E+03;  0.0000000E+00;  2.6358103E-03;  1.0000000E+04;  0.0000000E+00;  9.9507373E+03;  2.7221680E+00;  0.0000000E+00;  2.1709472E-01;  2.3232998E+04;
  7.5960845E-01;  9.9999998E-03; -2.0069183E-01;2212; -1.0564934E-01;  0.0000000E+00; -8.1452765E-02;  1.0139291E+03;  4.1114056E-01;  1.1537834E+04;3; -1.2813469E+01;  0.0000000E+00;  3.2980782E+01;0;  3.0752311E+00;  9.7819707E+03;  0.0000000E+00;  1.3586779E-03;  1.0000000E+04;  0.0000000E+00;  9.9478408E+03;  2.8056355E+00;  0.0000000E+00;  2.6959562E-01;  2.4610830E+04;
  7.7988875E-01;  9.9999998E-03; -3.0085272E-01;2238; -3.3268899E-02;  0.0000000E+00; -9.0109818E-02;  1.0156481E+03;  4.1116795E-01;  1.2960851E+04;3; -1.1032853E+01;  0.0000000E+00;  1.4045711E+00;0;  2.4571552E+00;  9.8047793E+03;  0.0000000E+00; -7.7884682E-03;  1.0000000E+04;  0.0000000E+00;  9.9569238E+03;  2.2288148E+00;  0.0000000E+00;  2.2834051E-01;  2.0102762E+04;
  7.7987325E-01;  9.9999998E-03; -2.8083262E-01;2239; -3.8023859E-02;  0.0000000E+00; -7.5484641E-02;  1.0153347E+03;  4.1116893E-01;  1.2701172E+04;3; -1.0263232E+01;  0.0000000E+00;  2.7384130E+01;0;  2.3808117E+00;  9.8004512E+03;  0.0000000E+00; -2.0274944E-03;  1.0000000E+04;  0.0000000E+00;  9.9551621E+03;  2.3285868E+00;  0.0000000E+00;  5.2224938E-02;  2.1254043E+04;
  7.7986044E-01;  9.9999998E-03; -2.6080042E-01;2240; -4.2319465E-02;  0.0000000E+00; -7.9247080E-02;  1.0151142E+03;  4.1116923E-01;  1.2518606E+04;3; -9.5393028E+00;  0.0000000E+00;  3.5465649E+01;0;  2.5798018E+00;  9.7957842E+03;  0.0000000E+00;  1.5653788E-04;  1.0000000E+04;  0.0000000E+00;  9.9555898E+03;  2.4422328E+00;  0.0000000E+00;  1.3756895E-01;  2.0926875E+04;
  7.7984774E-01;  9.9999998E-03; -2.4077281E-01;2241; -4.6390038E-02;  0.0000000E+00; -7.6425478E-02;  1.0147609E+03;  4.1116920E-01;  1.2225950E+04;3; -9.1375303E+00;  0.0000000E+00;  3.9860046E+01;0;  2.7283726E+00;  9.7914160E+03;  0.0000000E+00;  4.1163631E-04;  1.0000000E+04;  0.0000000E+00;  9.9531260E+03;  2.5605521E+00;  0.0000000E+00;  1.6782056E-01;  2.2102824E+04;
  7.7983689E-01;  9.9999998E-03; -2.2073217E-01;2242; -5.0000191E-02;  0.0000000E+00; -7.6437369E-02;  1.0144407E+03;  4.1116911E-01;  1.1960742E+04;3; -9.1446419E+00;  0.0000000E+00;  3.8973198E+01;0;  2.8973477E+00;  9.7878887E+03;  0.0000000E+00;  1.9889572E-04;  1.0000000E+04;  0.0000000E+00;  9.9504570E+03;  2.6748617E+00;  0.0000000E+00;  2.2248596E-01;  2.3355170E+04;
  7.7982891E-01;  9.9999998E-03; -2.0067714E-01;2243; -5.3167026E-02;  0.0000000E+00; -7.1548648E-02;  1.0141599E+03;  4.1116890E-01;  1.1728119E+04;3; -9.5461025E+00;  0.0000000E+00;  3.6973923E+01;0;  3.0546968E+00;  9.7856055E+03;  0.0000000E+00;  4.0546522E-05;  1.0000000E+04;  0.0000000E+00;  9.9472998E+03;  2.7777102E+00;  0.0000000E+00;  2.7698651E-01;  2.4853934E+04;
  7.9999846E-01;  9.9999998E-03; -3.0086255E-01;2269; -1.4820503E-02;  0.0000000E+00; -9.1191441E-02;  1.0162579E+03;  4.1117534E-01;  1.3464676E+04;3; -8.1894693E+00;  0.0000000E+00;  1.5195984E+00;0;  2.3802392E+00;  9.8178936E+03;  0.0000000E+00; -4.4680151E-04;  1.0000000E+04;  0.0000000E+00;  9.9551582E+03;  2.1288586E+00;  0.0000000E+00;  2.5138071E-01;  2.0967262E+04;
  8.0000395E-01;  9.9999998E-03; -2.8084084E-01;2270; -1.3850478E-02;  0.0000000E+00; -7.5108416E-02;  1.0159093E+03;  4.1117644E-01;  1.3175993E+04;3; -7.7404828E+00;  0.0000000E+00;  2.8498127E+01;0;  2.2938180E+00;  9.8128750E+03;  0.0000000E+00; -3.9880187E-04;  1.0000000E+04;  0.0000000E+00;  9.9533945E+03;  2.2345695E+00;  0.0000000E+00;  5.9248380E-02;  2.2138172E+04;
  8.0000955E-01;  9.9999998E-03; -2.6080734E-01;2271; -1.2179406E-02;  0.0000000E+00; -7.9602100E-02;  1.0156595E+03;  4.1117659E-01;  1.2969157E+04;3; -7.2948160E+00;  0.0000000E+00;  3.7388901E+01;0;  2.5109253E+00;  9.8075410E+03;  0.0000000E+00; -2.4822701E-04;  1.0000000E+04;  0.0000000E+00;  9.9539072E+03;  2.3530068E+00;  0.0000000E+00;  1.5791844E-01;  2.1749221E+04;
  8.0001235E-01;  9.9999998E-03; -2.4077369E-01;2272; -1.0701413E-02;  0.0000000E+00; -7.6179378E-02;  1.0153042E+03;  4.1117665E-01;  1.2674849E+04;3; -6.9454231E+00;  0.0000000E+00;  4.1035252E+01;0;  2.6599259E+00;  9.8025352E+03;  0.0000000E+00; -1.4971780E-04;  1.0000000E+04;  0.0000000E+00;  9.9520479E+03;  2.4753554E+00;  0.0000000E+00;  1.8457060E-01;  2.2626951E+04;
  8.0001146E-01;  9.9999998E-03; -2.2072692E-01;2273; -1.0023860E-02;  0.0000000E+00; -7.3883742E-02;  1.0149690E+03;  4.1117677E-01;  1.2397224E+04;3; -6.7128372E+00;  0.0000000E+00;  4.0372375E+01;0;  2.8277316E+00;  9.7984326E+03;  0.0000000E+00; -1.1039188E-04;  1.0000000E+04;  0.0000000E+00;  9.9496504E+03;  2.5925646E+00;  0.0000000E+00;  2.3516701E-01;  2.3744334E+04;
  8.0000830E-01;  9.9999998E-03; -2.0066668E-01;2274; -1.0104278E-02;  0.0000000E+00; -6.7198671E-02;  1.0146752E+03;  4.1117659E-01;  1.2153858E+04;3; -6.5885444E+00;  0.0000000E+00;  3.8410793E+01;0;  2.9849110E+00;  9.7956826E+03;  0.0000000E+00; -9.1815520E-05;  1.0000000E+04;  0.0000000E+00;  9.9467090E+03;  2.6967442E+00;  0.0000000E+00;  2.8816679E-01;  2.5134686E+04;
  8.2011956E-01;  9.9999998E-03; -3.0086353E-01;2300;  1.1950306E-02;  0.0000000E+00; -9.1263101E-02;  1.0166688E+03;  4.1115969E-01;  1.3803309E+04;3; -6.8131137E-01;  0.0000000E+00;  1.9016554E+00;0;  2.3598628E+00;  9.8278125E+03;  0.0000000E+00;  1.6280463E-04;  1.0000000E+04;  0.0000000E+00;  9.9538281E+03;  2.1026809E+00;  0.0000000E+00;  2.5718182E-01;  2.1614838E+04;
  8.2014447E-01;  9.9999998E-03; -2.8084117E-01;2301;  1.8640129E-02;  0.0000000E+00; -7.4870102E-02;  1.0163176E+03;  4.1116083E-01;  1.3512487E+04;3; -7.9533422E-01;  0.0000000E+00;  2.8745890E+01;0;  2.2688723E+00;  9.8228613E+03;  0.0000000E+00;  6.8601500E-04;  1.0000000E+04;  0.0000000E+00;  9.9519473E+03;  2.2045012E+00;  0.0000000E+00;  6.4371198E-02;  2.2842148E+04;
  8.2016492E-01;  9.9999998E-03; -2.6081043E-01;2302;  2.5603686E-02;  0.0000000E+00; -7.9098709E-02;  1.0160548E+03;  4.1116112E-01;  1.3294914E+04;3; -9.3571472E-01;  0.0000000E+00;  3.8616890E+01;0;  2.4809847E+00;  9.8177148E+03;  0.0000000E+00;  6.9127372E-04;  1.0000000E+04;  0.0000000E+00;  9.9520068E+03;  2.3164091E+00;  0.0000000E+00;  1.6457565E-01;  2.2677893E+04;
  8.2018042E-01;  9.9999998E-03; -2.4077934E-01;2303;  3.1579830E-02;  0.0000000E+00; -7.8402966E-02;  1.0157263E+03;  4.1116112E-01;  1.3022752E+04;3; -1.0246176E+00;  0.0000000E+00;  4.1395004E+01;0;  2.6337106E+00;  9.8129561E+03;  0.0000000E+00;  5.2263023E-04;  1.0000000E+04;  0.0000000E+00;  9.9504102E+03;  2.4302113E+00;  0.0000000E+00;  2.0349933E-01;  2.3409086E+04;
  8.2018745E-01;  9.9999998E-03; -2.2072871E-01;2304;  3.5374206E-02;  0.0000000E+00; -7.6641545E-02;  1.0154403E+03;  4.1116089E-01;  1.2786030E+04;3; -9.9764287E-01;  0.0000000E+00;  3.9489849E+01;0;  2.7867498E+00;  9.8091377E+03;  0.0000000E+00;  3.4112594E-04;  1.0000000E+04;  0.0000000E+00;  9.9486865E+03;  2.5369561E+00;  0.0000000E+00;  2.4979383E-01;  2.4194863E+04;
  8.2018721E-01;  9.9999998E-03; -2.0066081E-01;2305;  3.7144892E-02;  0.0000000E+00; -6.7913964E-02;  1.0151874E+03;  4.1116059E-01;  1.2576554E+04;3; -8.2493073E-01;  0.0000000E+00;  3.7450935E+01;0;  2.9273140E+00;  9.8067100E+03;  0.0000000E+00;  1.7791170E-04;  1.0000000E+04;  0.0000000E+00;  9.9462246E+03;  2.6288142E+00;  0.0000000E+00;  2.9849985E-01;  2.5353805E+04;
  8.4026492E-01;  9.9999998E-03; -3.0085418E-01;2331;  4.8565641E-02;  0.0000000E+00; -9.0613313E-02;  1.0165719E+03;  4.1097811E-01;  1.3720784E+04;3;  1.1026357E+01;  0.0000000E+00;  2.0472693E+00;0;  2.3720887E+00;  9.8344873E+03;  0.0000000E+00; -2.1235577E-03;  1.0000000E+04;  0.0000000E+00;  9.9539346E+03;  2.1261587E+00;  0.0000000E+00;  2.4592999E-01;  2.1542953E+04;
  8.4030920E-01;  9.9999998E-03; -2.8083149E-01;2332;  6.1882120E-02;  0.0000000E+00; -7.4715070E-02;  1.0162448E+03;  4.1097918E-01;  1.3449946E+04;3;  1.0297203E+01;  0.0000000E+00;  2.7858660E+01;0;  2.2785697E+00;  9.8301729E+03;  0.0000000E+00;  1.3463659E-03;  1.0000000E+04;  0.0000000E+00;  9.9518838E+03;  2.2177272E+00;  0.0000000E+00;  6.0842492E-02;  2.2841451E+04;
  8.4034359E-01;  9.9999998E-03; -2.6080346E-01;2333;  7.4514106E-02;  0.0000000E+00; -7.8108907E-02;  1.0159894E+03;  4.1097921E-01;  1.3238526E+04;3;  9.4900675E+00;  0.0000000E+00;  3.8337540E+01;0;  2.4732506E+00;  9.8258115E+03;  0.0000000E+00;  2.0350197E-03;  1.0000000E+04;  0.0000000E+00;  9.9513008E+03;  2.3166325E+00;  0.0000000E+00;  1.5661816E-01;  2.3005730E+04;
  8.4036970E-01;  9.9999998E-03; -2.4077754E-01;2334;  8.4585495E-02;  0.0000000E+00; -7.9955623E-02;  1.0156943E+03;  4.1097909E-01;  1.2994240E+04;3;  8.7767096E+00;  0.0000000E+00;  4.1049774E+01;0;  2.6245949E+00;  9.8219111E+03;  0.0000000E+00;  1.6043696E-03;  1.0000000E+04;  0.0000000E+00;  9.9494932E+03;  2.4149137E+00;  0.0000000E+00;  2.0968120E-01;  2.3823959E+04;
  8.4038264E-01;  9.9999998E-03; -2.2072732E-01;2335;  9.0754457E-02;  0.0000000E+00; -8.0538541E-02;  1.0154760E+03;  4.1097862E-01;  1.2813421E+04;3;  8.2882042E+00;  0.0000000E+00;  3.7924767E+01;0;  2.7612970E+00;  9.8189932E+03;  0.0000000E+00;  9.7694085E-04;  1.0000000E+04;  0.0000000E+00;  9.9481943E+03;  2.5037153E+00;  0.0000000E+00;  2.5758180E-01;  2.4402305E+04;
  8.4038234E-01;  9.9999998E-03; -2.0065543E-01;2336;  9.3041733E-02;  0.0000000E+00; -7.1412452E-02;  1.0152894E+03;  4.1097826E-01;  1.2658956E+04;3;  8.1126623E+00;  0.0000000E+00;  3.4979923E+01;0;  2.8796828E+00;  9.8174600E+03;  0.0000000E+00;  4.7090044E-04;  1.0000000E+04;  0.0000000E+00;  9.9461104E+03;  2.5755186E+00;  0.0000000E+00;  3.0416414E-01;  2.5376211E+04;
  8.6042619E-01;  9.9999998E-03; -3.0083600E-01;2362;  9.0759575E-02;  0.0000000E+00; -8.9419141E-02;  1.0160875E+03;  4.1062120E-01;  1.3316689E+04;3;  2.4469597E+01;  0.0000000E+00;  2.2176850E+00;0;  2.3614786E+00;  9.8410889E+03;  0.0000000E+00; -1.2674896E-03;  1.0000000E+04;  0.0000000E+00;  9.9550938E+03;  2.1391850E+00;  0.0000000E+00;  2.2229351E-01;  2.0953176E+04;
  8.6049032E-01;  9.9999998E-03; -2.8081319E-01;2363;  1.1141829E-01;  0.0000000E+00; -7.4688926E-02;  1.0158061E+03;  4.1062179E-01;  1.3083799E+04;3;  2.3256451E+01;  0.0000000E+00;  2.6296480E+01;0;  2.2688606E+00;  9.8377891E+03;  0.0000000E+00;  3.9901165E-03;  1.0000000E+04;  0.0000000E+00;  9.9529287E+03;  2.2164207E+00;  0.0000000E+00;  5.2439857E-02;  2.2281756E+04;
  8.6053813E-01;  9.9999998E-03; -2.6078692E-01;2364;  1.3017452E-01;  0.0000000E+00; -7.7771336E-02;  1.0155817E+03;  4.1062170E-01;  1.2898078E+04;3;  2.1914774E+01;  0.0000000E+00;  3.6197048E+01;0;  2.4431806E+00;  9.8345928E+03;  0.0000000E+00;  4.6133930E-03;  1.0000000E+04;  0.0000000E+00;  9.9517871E+03;  2.2983301E+00;  0.0000000E+00;  1.4485049E-01;  2.2730293E+04;
  8.6057389E-01;  9.9999998E-03; -2.4076524E-01;2365;  1.4448518E-01;  0.0000000E+00; -8.0723636E-02;  1.0153337E+03;  4.1062132E-01;  1.2692823E+04;3;  2.0628117E+01;  0.0000000E+00;  3.9156509E+01;0;  2.5818684E+00;  9.8319609E+03;  0.0000000E+00;  3.3929900E-03;  1.0000000E+04;  0.0000000E+00;  9.9496299E+03;  2.3770511E+00;  0.0000000E+00;  2.0481737E-01;  2.3715482E+04;
  8.6059111E-01;  9.9999998E-03; -2.2071765E-01;2366;  1.5251897E-01;  0.0000000E+00; -8.3059974E-02;  1.0151891E+03;  4.1062069E-01;  1.2573025E+04;3;  1.9471785E+01;  0.0000000E+00;  3.6665840E+01;0;  2.7001829E+00;  9.8303506E+03;  0.0000000E+00;  1.8855389E-03;  1.0000000E+04;  0.0000000E+00;  9.9484541E+03;  2.4440513E+00;  0.0000000E+00;  2.5613168E-01;  2.4232613E+04;
  8.6058831E-01;  9.9999998E-03; -2.0064624E-01;2367;  1.5454188E-01;  0.0000000E+00; -7.5531058E-02;  1.0150785E+03;  4.1062036E-01;  1.2481551E+04;3;  1.8872297E+01;  0.0000000E+00;  3.1723299E+01;0;  2.7965524E+00;  9.8300850E+03;  0.0000000E+00;  7.8382081E-04;  1.0000000E+04;  0.0000000E+00;  9.9465625E+03;  2.4925122E+00;  0.0000000E+00;  3.0404028E-01;  2.5109229E+04;
  8.8058710E-01;  9.9999998E-03; -3.0081093E-01;2393;  1.3307834E-01;  0.0000000E+00; -8.8117704E-02;  1.0154154E+03;  4.1010892E-01;  1.2756584E+04;3;  3.7403851E+01;  0.0000000E+00;  2.5889382E+00;0;  2.2858500E+00;  9.8511709E+03;  0.0000000E+00;  3.5910471E-03;  1.0000000E+04;  0.0000000E+00;  9.9566377E+03;  2.0873284E+00;  0.0000000E+00;  1.9852152E-01;  2.0167881E+04;
  8.8066953E-01;  9.9999998E-03; -2.8078789E-01;2394;  1.6092700E-01;  0.0000000E+00; -7.5058989E-02;  1.0151999E+03;  4.1010901E-01;  1.2578210E+04;3;  3.6015087E+01;  0.0000000E+00;  2.3961529E+01;0;  2.1952193E+00;  9.8491328E+03;  0.0000000E+00;  8.8302661E-03;  1.0000000E+04;  0.0000000E+00;  9.9545117E+03;  2.1464710E+00;  0.0000000E+00;  4.8748150E-02;  2.1441639E+04;
  8.8072985E-01;  9.9999998E-03; -2.6076233E-01;2395;  1.8582776E-01;  0.0000000E+00; -7.7912815E-02;  1.0150348E+03;  4.1010869E-01;  1.2441570E+04;3;  3.4288456E+01;  0.0000000E+00;  3.3199100E+01;0;  2.3418958E+00;  9.8474043E+03;  0.0000000E+00;  8.4949415E-03;  1.0000000E+04;  0.0000000E+00;  9.9530811E+03;  2.2072463E+00;  0.0000000E+00;  1.3464957E-01;  2.2047451E+04;
  8.8077497E-01;  9.9999998E-03; -2.4074283E-01;2396;  2.0443924E-01;  0.0000000E+00; -8.1054382E-02;  1.0148566E+03;  4.1010809E-01;  1.2294082E+04;3;  3.2464352E+01;  0.0000000E+00;  3.6045403E+01;0;  2.4572983E+00;  9.8463506E+03;  0.0000000E+00;  5.9345565E-03;  1.0000000E+04;  0.0000000E+00;  9.9506934E+03;  2.2623045E+00;  0.0000000E+00;  1.9499385E-01;  2.3149014E+04;
  8.8079554E-01;  9.9999998E-03; -2.2069821E-01;2397;  2.1430162E-01;  0.0000000E+00; -8.3948396E-02;  1.0147926E+03;  4.1010720E-01;  1.2241104E+04;3;  3.0786261E+01;  0.0000000E+00;  3.4501167E+01;0;  2.5531228E+00;  9.8463564E+03;  0.0000000E+00;  3.1084795E-03;  1.0000000E+04;  0.0000000E+00;  9.9494707E+03;  2.3042133E+00;  0.0000000E+00;  2.4890944E-01;  2.3686303E+04;
  8.8078940E-01;  9.9999998E-03; -2.0063008E-01;2398;  2.1607323E-01;  0.0000000E+00; -7.8678787E-02;  1.0147627E+03;  4.1010675E-01;  1.2216344E+04;3;  2.9985287E+01;  0.0000000E+00;  2.8251324E+01;0;  2.6271369E+00;  9.8475918E+03;  0.0000000E+00;  1.1360812E-03;  1.0000000E+04;  0.0000000E+00;  9.9476563E+03;  2.3275445E+00;  0.0000000E+00;  2.9959255E-01;  2.4528529E+04;
  9.0073347E-01;  9.9999998E-03; -3.0078024E-01;2424;  1.7201738E-01;  0.0000000E+00; -8.7213717E-02;  1.0146843E+03;  4.0946916E-01;  1.2146615E+04;3;  4.9012943E+01;  0.0000000E+00;  2.3595648E+00;0;  2.1367655E+00;  9.8662529E+03;  0.0000000E+00;  9.8556811E-03;  1.0000000E+04;  0.0000000E+00;  9.9582119E+03;  1.9517083E+00;  0.0000000E+00;  1.8505719E-01;  1.9349891E+04;
  9.0082985E-01;  9.9999998E-03; -2.8075719E-01;2425;  2.0587373E-01;  0.0000000E+00; -7.6133266E-02;  1.0145496E+03;  4.0946883E-01;  1.2035161E+04;3;  4.7744751E+01;  0.0000000E+00;  2.1184296E+01;0;  2.0461142E+00;  9.8657314E+03;  0.0000000E+00;  1.4328038E-02;  1.0000000E+04;  0.0000000E+00;  9.9561846E+03;  1.9877553E+00;  0.0000000E+00;  5.8358982E-02;  2.0539510E+04;
  9.0090108E-01;  9.9999998E-03; -2.6073119E-01;2426;  2.3624322E-01;  0.0000000E+00; -7.8221232E-02;  1.0144778E+03;  4.0946820E-01;  1.1975681E+04;3;  4.5343929E+01;  0.0000000E+00;  2.9538578E+01;0;  2.1497443E+00;  9.8657363E+03;  0.0000000E+00;  1.2566273E-02;  1.0000000E+04;  0.0000000E+00;  9.9548408E+03;  2.0217285E+00;  0.0000000E+00;  1.2801576E-01;  2.1130262E+04;
  9.0095282E-01;  9.9999998E-03; -2.4071009E-01;2427;  2.5801948E-01;  0.0000000E+00; -8.0435142E-02;  1.0143997E+03;  4.0946725E-01;  1.1911177E+04;3;  4.2862286E+01;  0.0000000E+00;  3.2650986E+01;0;  2.2319264E+00;  9.8665752E+03;  0.0000000E+00;  8.4905233E-03;  1.0000000E+04;  0.0000000E+00;  9.9525303E+03;  2.0475211E+00;  0.0000000E+00;  1.8440543E-01;  2.2199324E+04;
  9.0097785E-01;  9.9999998E-03; -2.2066738E-01;2428;  2.7071932E-01;  0.0000000E+00; -8.3397038E-02;  1.0144254E+03;  4.0946627E-01;  1.1932370E+04;3;  4.1387341E+01;  0.0000000E+00;  3.1346102E+01;0;  2.2998302E+00;  9.8684531E+03;  0.0000000E+00;  4.2142156E-03;  1.0000000E+04;  0.0000000E+00;  9.9511953E+03;  2.0596857E+00;  0.0000000E+00;  2.4014443E-01;  2.2798504E+04;
  9.0097028E-01;  9.9999998E-03; -2.0060536E-01;2429;  2.7303869E-01;  0.0000000E+00; -7.9730824E-02;  1.0144785E+03;  4.0946576E-01;  1.1976351E+04;3;  4.0712391E+01;  0.0000000E+00;  2.5065067E+01;0;  2.3486271E+00;  9.8713447E+03;  0.0000000E+00;  1.3524381E-03;  1.0000000E+04;  0.0000000E+00;  9.9493359E+03;  2.0553217E+00;  0.0000000E+00;  2.9330537E-01;  2.3659305E+04;
  9.2085630E-01;  9.9999998E-03; -3.0074480E-01;2455;  2.0631374E-01;  0.0000000E+00; -8.6461648E-02;  1.0139119E+03;  4.0873539E-01;  1.1501397E+04;3;  5.9779125E+01;  0.0000000E+00;  8.2610178E-01;0;  1.9260502E+00;  9.8851357E+03;  0.0000000E+00;  1.4545865E-02;  1.0000000E+04;  0.0000000E+00;  9.9597754E+03;  1.7510424E+00;  0.0000000E+00;  1.7500786E-01;  1.8520883E+04;
  9.2095989E-01;  9.9999998E-03; -2.8072223E-01;2456;  2.4405766E-01;  0.0000000E+00; -7.7593602E-02;  1.0138715E+03;  4.0873471E-01;  1.1467853E+04;3;  5.8600174E+01;  0.0000000E+00;  1.7506163E+01;0;  1.8327141E+00;  9.8863555E+03;  0.0000000E+00;  1.8672936E-02;  1.0000000E+04;  0.0000000E+00;  9.9578643E+03;  1.7586192E+00;  0.0000000E+00;  7.4094854E-02;  1.9618420E+04;
  9.2103875E-01;  9.9999998E-03; -2.6069421E-01;2457;  2.7760193E-01;  0.0000000E+00; -7.8585878E-02;  1.0139258E+03;  4.0873364E-01;  1.1512763E+04;3;  5.4903553E+01;  0.0000000E+00;  2.5661739E+01;0;  1.8862084E+00;  9.8883604E+03;  0.0000000E+00;  1.5375193E-02;  1.0000000E+04;  0.0000000E+00;  9.9570176E+03;  1.7597308E+00;  0.0000000E+00;  1.2647760E-01;  1.9997029E+04;
  9.2109495E-01;  9.9999998E-03; -2.4066891E-01;2458;  3.0276442E-01;  0.0000000E+00; -7.9380602E-02;  1.0139703E+03;  4.0873253E-01;  1.1549602E+04;3;  5.2142513E+01;  0.0000000E+00;  2.8907003E+01;0;  1.9266641E+00;  9.8913428E+03;  0.0000000E+00;  9.8721907E-03;  1.0000000E+04;  0.0000000E+00;  9.9549766E+03;  1.7502352E+00;  0.0000000E+00;  1.7642887E-01;  2.0942842E+04;
  9.2112470E-01;  9.9999998E-03; -2.2062565E-01;2459;  3.1818503E-01;  0.0000000E+00; -8.0816478E-02;  1.0140931E+03;  4.0873143E-01;  1.1651100E+04;3;  5.0778984E+01;  0.0000000E+00;  2.7481615E+01;0;  1.9589423E+00;  9.8952598E+03;  0.0000000E+00;  4.5353519E-03;  1.0000000E+04;  0.0000000E+00;  9.9535000E+03;  1.7276670E+00;  0.0000000E+00;  2.3127528E-01;  2.1615688E+04;
  9.2111421E-01;  9.9999998E-03; -2.0057251E-01;2460;  3.2165354E-01;  0.0000000E+00; -7.8456014E-02;  1.0142237E+03;  4.0873075E-01;  1.1759020E+04;3;  5.1010406E+01;  0.0000000E+00;  2.2318848E+01;0;  1.9801959E+00;  9.8998301E+03;  0.0000000E+00;  1.2241070E-03;  1.0000000E+04;  0.0000000E+00;  9.9514980E+03;  1.6930882E+00;  0.0000000E+00;  2.8710771E-01;  2.2544828E+04;
  9.4095135E-01;  9.9999998E-03; -3.0070597E-01;2486;  2.3589817E-01;  0.0000000E+00; -8.5269146E-02;  1.0130368E+03;  4.0794322E-01;  1.0769920E+04;3;  7.0192581E+01;  0.0000000E+00; -4.2623585E-01;0;  1.6845827E+00;  9.9049629E+03;  0.0000000E+00;  1.5962893E-02;  1.0000000E+04;  0.0000000E+00;  9.9612793E+03;  1.5224538E+00;  0.0000000E+00;  1.6212898E-01;  1.7695094E+04;
  9.4105673E-01;  9.9999998E-03; -2.8068393E-01;2487;  2.7442899E-01;  0.0000000E+00; -7.9151966E-02;  1.0131036E+03;  4.0794212E-01;  1.0825020E+04;3;  6.7879250E+01;  0.0000000E+00;  1.3800070E+01;0;  1.5926654E+00;  9.9080732E+03;  0.0000000E+00;  2.0930754E-02;  1.0000000E+04;  0.0000000E+00;  9.9595996E+03;  1.4979988E+00;  0.0000000E+00;  9.4666623E-02;  1.8636486E+04;
  9.4114035E-01;  9.9999998E-03; -2.6065311E-01;2488;  3.0993950E-01;  0.0000000E+00; -7.9308212E-02;  1.0133021E+03;  4.0794095E-01;  1.0988949E+04;3;  6.2997131E+01;  0.0000000E+00;  2.0957577E+01;0;  1.5944794E+00;  9.9122012E+03;  0.0000000E+00;  1.5897343E-02;  1.0000000E+04;  0.0000000E+00;  9.9594795E+03;  1.4624068E+00;  0.0000000E+00;  1.3207267E-01;  1.8689752E+04;
  9.4119829E-01;  9.9999998E-03; -2.4062158E-01;2489;  3.3824098E-01;  0.0000000E+00; -7.7412859E-02;  1.0134811E+03;  4.0793958E-01;  1.1136739E+04;3;  6.0809109E+01;  0.0000000E+00;  2.4634077E+01;0;  1.5828643E+00;  9.9173535E+03;  0.0000000E+00;  9.3628168E-03;  1.0000000E+04;  0.0000000E+00;  9.9579229E+03;  1.4142942E+00;  0.0000000E+00;  1.6856998E-01;  1.9425063E+04;
  9.4120991E-01;  9.9999998E-03; -2.2058383E-01;2490;  3.5240680E-01;  0.0000000E+00; -7.8609444E-02;  1.0136821E+03;  4.0793899E-01;  1.1302868E+04;3;  6.0364273E+01;  0.0000000E+00;  2.3876734E+01;0;  1.5814615E+00;  9.9232129E+03;  0.0000000E+00;  3.9391634E-03;  1.0000000E+04;  0.0000000E+00;  9.9560449E+03;  1.3557471E+00;  0.0000000E+00;  2.2571449E-01;  2.0291496E+04;
  9.4117671E-01;  9.9999998E-03; -2.0053700E-01;2491;  3.5177869E-01;  0.0000000E+00; -7.6963037E-02;  1.0138842E+03;  4.0793851E-01;  1.1469808E+04;3;  6.1328449E+01;  0.0000000E+00;  1.9140329E+01;0;  1.5743979E+00;  9.9292041E+03;  0.0000000E+00;  8.3645340E-04;  1.0000000E+04;  0.0000000E+00;  9.9539971E+03;  1.2920772E+00;  0.0000000E+00;  2.8232077E-01;  2.1238773E+04;
  9.6102637E-01;  9.9999998E-03; -3.0066401E-01;2517;  2.6271534E-01;  0.0000000E+00; -8.3738916E-02;  1.0120137E+03;  4.0712765E-01;  9.9147471E+03;3;  8.1191071E+01;  0.0000000E+00; -1.6437721E+00;0;  1.4491311E+00;  9.9228438E+03;  0.0000000E+00;  1.3677266E-02;  1.0000000E+04;  0.0000000E+00;  9.9630674E+03;  1.3000923E+00;  0.0000000E+00;  1.4903881E-01;  1.6686219E+04;
  9.6113032E-01;  9.9999998E-03; -2.8064278E-01;2518;  3.0086190E-01;  0.0000000E+00; -8.0237590E-02;  1.0121834E+03;  4.0712637E-01;  1.0054782E+04;3;  7.7411278E+01;  0.0000000E+00;  1.0537726E+01;0;  1.3599902E+00;  9.9278057E+03;  0.0000000E+00;  3.1247210E-02;  1.0000000E+04;  0.0000000E+00;  9.9615693E+03;  1.2438675E+00;  0.0000000E+00;  1.1612277E-01;  1.7493479E+04;
  9.6121418E-01;  9.9999998E-03; -2.6060921E-01;2519;  3.3681369E-01;  0.0000000E+00; -7.9739712E-02;  1.0125244E+03;  4.0712506E-01;  1.0336104E+04;3;  7.1132500E+01;  0.0000000E+00;  1.6046879E+01;0;  1.3093674E+00;  9.9339473E+03;  0.0000000E+00;  2.3033673E-02;  1.0000000E+04;  0.0000000E+00;  9.9622568E+03;  1.1721662E+00;  0.0000000E+00;  1.3720122E-01;  1.7197213E+04;
  9.6125519E-01;  9.9999998E-03; -2.4057920E-01;2520;  3.6359072E-01;  0.0000000E+00; -7.7166870E-02;  1.0127983E+03;  4.0712398E-01;  1.0562157E+04;3;  6.9451370E+01;  0.0000000E+00;  1.9948185E+01;0;  1.2552969E+00;  9.9410215E+03;  0.0000000E+00;  1.1103532E-02;  1.0000000E+04;  0.0000000E+00;  9.9606367E+03;  1.0876279E+00;  0.0000000E+00;  1.6766900E-01;  1.7973268E+04;
  9.6123642E-01;  9.9999998E-03; -2.2054873E-01;2521;  3.7077183E-01;  0.0000000E+00; -7.9378746E-02;  1.0130706E+03;  4.0712354E-01;  1.0786871E+04;3;  6.9370277E+01;  0.0000000E+00;  2.0019190E+01;0;  1.2227435E+00;  9.9484160E+03;  0.0000000E+00;  3.2202781E-03;  1.0000000E+04;  0.0000000E+00;  9.9586084E+03;  9.9741238E-01;  0.0000000E+00;  2.2533111E-01;  1.8907438E+04;
  9.6119314E-01;  9.9999998E-03; -2.0050137E-01;2522;  3.6641943E-01;  0.0000000E+00; -7.6263107E-02;  1.0133322E+03;  4.0712327E-01;  1.1002845E+04;3;  7.0059349E+01;  0.0000000E+00;  1.5377937E+01;0;  1.1881235E+00;  9.9554053E+03;  0.0000000E+00;  4.4750256E-04;  1.0000000E+04;  0.0000000E+00;  9.9567520E+03;  9.0981585E-01;  0.0000000E+00;  2.7830768E-01;  1.9765545E+04;
  9.8109466E-01;  9.9999998E-03; -3.0061883E-01;2548;  2.8876090E-01;  0.0000000E+00; -8.2137927E-02;  1.0108660E+03;  4.0631995E-01;  8.9555654E+03;3;  9.3177353E+01;  0.0000000E+00; -3.8285074E+00;0;  1.2384095E+00;  9.9372871E+03;  0.0000000E+00;  8.2509154E-03;  1.0000000E+04;  0.0000000E+00;  9.9655420E+03;  1.1002111E+00;  0.0000000E+00;  1.3819842E-01;  1.5295438E+04;
  9.8119318E-01;  9.9999998E-03; -2.8059837E-01;2549;  3.2566273E-01;  0.0000000E+00; -8.0093525E-02;  1.0111199E+03;  4.0631852E-01;  9.1647676E+03;3;  8.7228333E+01;  0.0000000E+00;  7.3441811E+00;0;  1.1433301E+00;  9.9437676E+03;  0.0000000E+00;  6.9837749E-02;  1.0000000E+04;  0.0000000E+00;  9.9641992E+03;  1.0179435E+00;  0.0000000E+00;  1.2538664E-01;  1.6004845E+04;
  9.8126620E-01;  9.9999998E-03; -2.6056439E-01;2550;  3.5973179E-01;  0.0000000E+00; -7.9132475E-02;  1.0115580E+03;  4.0631738E-01;  9.5257793E+03;3;  7.9673706E+01;  0.0000000E+00;  1.1633666E+01;0;  1.0535414E+00;  9.9515254E+03;  0.0000000E+00;  5.6174334E-02;  1.0000000E+04;  0.0000000E+00;  9.9651973E+03;  9.1686440E-01;  0.0000000E+00;  1.3667709E-01;  1.5593040E+04;
  9.8127586E-01;  9.9999998E-03; -2.4054238E-01;2551;  3.7886789E-01;  0.0000000E+00; -7.8951262E-02;  1.0118777E+03;  4.0631676E-01;  9.7892744E+03;3;  7.7168747E+01;  0.0000000E+00;  1.5311061E+01;0;  9.7857910E-01;  9.9600146E+03;  0.0000000E+00;  2.9143849E-02;  1.0000000E+04;  0.0000000E+00;  9.9630488E+03;  8.0400938E-01;  0.0000000E+00;  1.7456974E-01;  1.6600121E+04;
  9.8124117E-01;  9.9999998E-03; -2.2051291E-01;2552;  3.7903389E-01;  0.0000000E+00; -8.1220314E-02;  1.0122180E+03;  4.0631649E-01;  1.0069702E+04;3;  7.5071541E+01;  0.0000000E+00;  1.4456420E+01;0;  9.1632777E-01;  9.9683877E+03;  0.0000000E+00;  7.8464104E-03;  1.0000000E+04;  0.0000000E+00;  9.9613750E+03;  6.9092792E-01;  0.0000000E+00;  2.2539984E-01;  1.7370654E+04;
  9.8119241E-01;  9.9999998E-03; -2.0046622E-01;2553;  3.7168244E-01;  0.0000000E+00; -7.5712934E-02;  1.0125152E+03;  4.0631616E-01;  1.0314675E+04;3;  7.4568604E+01;  0.0000000E+00;  1.1190796E+01;0;  8.6095732E-01;  9.9759043E+03;  0.0000000E+00;  5.7694892E-04;  1.0000000E+04;  0.0000000E+00;  9.9597051E+03;  5.8811474E-01;  0.0000000E+00;  2.7284259E-01;  1.8137107E+04;
  1.0011666E+00;  9.9999998E-03; -3.0057120E-01;2579;  3.1524301E-01;  0.0000000E+00; -8.0067910E-02;  1.0096718E+03;  4.0554637E-01;  7.9568877E+03;3;  1.0589539E+02;  0.0000000E+00; -6.7693653E+00;0;  1.0489312E+00;  9.9484219E+03;  0.0000000E+00; -1.2200787E-02;  1.0000000E+04;  0.0000000E+00;  9.9688281E+03;  9.2187363E-01;  0.0000000E+00;  1.2705764E-01;  1.3484363E+04;
  1.0012505E+00;  9.9999998E-03; -2.8055099E-01;2580;  3.4934488E-01;  0.0000000E+00; -7.8610919E-02;  1.0099775E+03;  4.0554526E-01;  8.2083711E+03;3;  9.7627930E+01;  0.0000000E+00;  3.8421352E+00;0;  9.4795418E-01;  9.9558301E+03;  0.0000000E+00;  1.3204885E-01;  1.0000000E+04;  0.0000000E+00;  9.9675771E+03;  8.2442909E-01;  0.0000000E+00;  1.2352510E-01;  1.4146134E+04;
  1.0012981E+00;  9.9999998E-03; -2.6051974E-01;2581;  3.7869281E-01;  0.0000000E+00; -7.8047618E-02;  1.0104439E+03;  4.0554425E-01;  8.5919834E+03;3;  8.8960205E+01;  0.0000000E+00;  7.6233511E+00;0;  8.4134853E-01;  9.9646211E+03;  0.0000000E+00;  1.1373274E-01;  1.0000000E+04;  0.0000000E+00;  9.9680791E+03;  7.0523661E-01;  0.0000000E+00;  1.3611194E-01;  1.3975806E+04;
  1.0012813E+00;  9.9999998E-03; -2.4050361E-01;2582;  3.8625124E-01;  0.0000000E+00; -8.0038734E-02;  1.0107886E+03;  4.0554383E-01;  8.8756201E+03;3;  8.2202835E+01;  0.0000000E+00;  1.0360895E+01;0;  7.5478637E-01;  9.9739150E+03;  0.0000000E+00;  6.1963659E-02;  1.0000000E+04;  0.0000000E+00;  9.9656025E+03;  5.7508290E-01;  0.0000000E+00;  1.7970350E-01;  1.5104391E+04;
  1.0012364E+00;  9.9999998E-03; -2.2047396E-01;2583;  3.8231742E-01;  0.0000000E+00; -8.0881380E-02;  1.0111651E+03;  4.0554377E-01;  9.1853711E+03;3;  7.8685341E+01;  0.0000000E+00;  8.8844738E+00;0;  6.7200601E-01;  9.9826514E+03;  0.0000000E+00;  1.4992335E-02;  1.0000000E+04;  0.0000000E+00;  9.9642959E+03;  4.5107934E-01;  0.0000000E+00;  2.2092669E-01;  1.5706949E+04;
  1.0011845E+00;  9.9999998E-03; -2.0043278E-01;2584;  3.7314501E-01;  0.0000000E+00; -7.4354835E-02;  1.0114713E+03;  4.0554368E-01;  9.4372686E+03;3;  7.6844971E+01;  0.0000000E+00;  7.8683090E+00;0;  6.0738003E-01;  9.9901953E+03;  0.0000000E+00; -5.9862202E-04;  1.0000000E+04;  0.0000000E+00;  9.9627764E+03;  3.4351006E-01;  0.0000000E+00;  2.6386994E-01;  1.6398676E+04;
  1.0212501E+00;  9.9999998E-03; -3.0052236E-01;2610;  3.4296471E-01;  0.0000000E+00; -7.7442452E-02;  1.0085246E+03;  4.0482742E-01;  6.9961108E+03;3;  1.1946906E+02;  0.0000000E+00; -1.0068291E+01;0;  8.7692225E-01;  9.9571318E+03;  0.0000000E+00; -5.1412627E-02;  1.0000000E+04;  0.0000000E+00;  9.9728584E+03;  7.5810939E-01;  0.0000000E+00;  1.1881287E-01;  1.1325416E+04;
  1.0213075E+00;  9.9999998E-03; -2.8050190E-01;2611;  3.7271956E-01;  0.0000000E+00; -7.5204030E-02;  1.0088464E+03;  4.0482679E-01;  7.2601064E+03;3;  1.0833707E+02;  0.0000000E+00;  4.8718262E-01;0;  7.6589650E-01;  9.9649678E+03;  0.0000000E+00;  1.5262970E-01;  1.0000000E+04;  0.0000000E+00;  9.9714668E+03;  6.5830833E-01;  0.0000000E+00;  1.0758819E-01;  1.2053470E+04;
  1.0213159E+00;  9.9999998E-03; -2.6047546E-01;2612;  3.9037442E-01;  0.0000000E+00; -7.6765455E-02;  1.0092852E+03;  4.0482649E-01;  7.6202212E+03;3;  9.6503738E+01;  0.0000000E+00;  3.2258825E+00;0;  6.7112672E-01;  9.9743516E+03;  0.0000000E+00;  1.4631459E-01;  1.0000000E+04;  0.0000000E+00;  9.9707871E+03;  5.3048223E-01;  0.0000000E+00;  1.4064448E-01;  1.2397316E+04;
  1.0212809E+00;  9.9999998E-03; -2.4046226E-01;2613;  3.9022833E-01;  0.0000000E+00; -7.8752808E-02;  1.0096298E+03;  4.0482631E-01;  7.9029980E+03;3;  8.6376259E+01;  0.0000000E+00;  5.4940224E+00;0;  5.7402414E-01;  9.9837891E+03;  0.0000000E+00;  6.6797957E-02;  1.0000000E+04;  0.0000000E+00;  9.9681641E+03;  3.9504269E-01;  0.0000000E+00;  1.7898147E-01;  1.3560523E+04;
  1.0212283E+00;  9.9999998E-03; -2.2043607E-01;2614;  3.8315716E-01;  0.0000000E+00; -7.8471884E-02;  1.0100027E+03;  4.0482616E-01;  8.2091797E+03;3;  8.1015259E+01;  0.0000000E+00;  5.1946597E+00;0;  4.8534375E-01;  9.9922363E+03;  0.0000000E+00; -4.9828016E-03;  1.0000000E+04;  0.0000000E+00;  9.9670723E+03;  2.7257815E-01;  0.0000000E+00;  2.1276559E-01;  1.4061830E+04;
  1.0211735E+00;  9.9999998E-03; -2.0040187E-01;2615;  3.7293917E-01;  0.0000000E+00; -7.2664879E-02;  1.0102973E+03;  4.0482634E-01;  8.4509922E+03;3;  7.8305557E+01;  0.0000000E+00;  5.3932786E+00;0;  4.2167163E-01;  9.9993174E+03;  0.0000000E+00; -1.8596949E-02;  1.0000000E+04;  0.0000000E+00;  9.9658027E+03;  1.7047973E-01;  0.0000000E+00;  2.5119191E-01;  1.4632730E+04;
  1.0413551E+00;  9.9999998E-03; -3.0047289E-01;2641;  3.7256265E-01;  0.0000000E+00; -7.4083745E-02;  1.0074547E+03;  4.0417781E-01;  6.0980332E+03;3;  1.3429013E+02;  0.0000000E+00; -1.4293584E+01;0;  7.2095001E-01;  9.9632988E+03;  0.0000000E+00; -6.6583087E-03;  1.0000000E+04;  0.0000000E+00;  9.9776074E+03;  6.1339343E-01;  0.0000000E+00;  1.0755660E-01;  8.8801533E+03;
  1.0413666E+00;  9.9999998E-03; -2.8045458E-01;2642;  3.9395186E-01;  0.0000000E+00; -7.1604796E-02;  1.0077773E+03;  4.0417770E-01;  6.3619941E+03;3;  1.1892590E+02;  0.0000000E+00; -2.8471994E+00;0;  6.1248201E-01;  9.9722139E+03;  0.0000000E+00;  9.0146181E-04;  1.0000000E+04;  0.0000000E+00;  9.9750996E+03;  5.1516908E-01;  0.0000000E+00;  9.7312935E-02;  1.0052004E+04;
  1.0413285E+00;  9.9999998E-03; -2.6043370E-01;2643;  3.9658517E-01;  0.0000000E+00; -7.3746525E-02;  1.0081757E+03;  4.0417781E-01;  6.6878398E+03;3;  1.0244638E+02;  0.0000000E+00;  2.3988342E-01;0;  5.2321577E-01;  9.9822793E+03;  0.0000000E+00;  4.8442770E-02;  1.0000000E+04;  0.0000000E+00;  9.9728955E+03;  3.7965956E-01;  0.0000000E+00;  1.4355619E-01;  1.1026254E+04;
  1.0412785E+00;  9.9999998E-03; -2.4042109E-01;2644;  3.9159274E-01;  0.0000000E+00; -7.4745707E-02;  1.0085008E+03;  4.0417799E-01;  6.9539287E+03;3;  8.9646408E+01;  0.0000000E+00;  2.3644078E+00;0;  4.2463207E-01;  9.9912373E+03;  0.0000000E+00; -4.0973280E-02;  1.0000000E+04;  0.0000000E+00;  9.9703613E+03;  2.5032693E-01;  0.0000000E+00;  1.7430513E-01;  1.2134701E+04;
  1.0412197E+00;  9.9999998E-03; -2.2039892E-01;2645;  3.8288024E-01;  0.0000000E+00; -7.4212462E-02;  1.0088385E+03;  4.0417802E-01;  7.2302734E+03;3;  8.2536446E+01;  0.0000000E+00;  3.0390675E+00;0;  3.4319702E-01;  9.9987578E+03;  0.0000000E+00; -1.1011458E-01;  1.0000000E+04;  0.0000000E+00;  9.9695068E+03;  1.4037710E-01;  0.0000000E+00;  2.0281991E-01;  1.2538649E+04;
  1.0411606E+00;  9.9999998E-03; -2.0036919E-01;2646;  3.7192374E-01;  0.0000000E+00; -6.9417834E-02;  1.0091044E+03;  4.0417814E-01;  7.4479175E+03;3;  7.9325340E+01;  0.0000000E+00;  3.4072702E+00;0;  2.8738654E-01;  1.0004881E+04;  0.0000000E+00; -8.6064175E-02;  1.0000000E+04;  0.0000000E+00;  9.9686328E+03;  5.2130710E-02;  0.0000000E+00;  2.3525582E-01;  1.2923021E+04;
  1.0614562E+00;  9.9999998E-03; -3.0043098E-01;2672;  4.0136743E-01;  0.0000000E+00; -6.9314033E-02;  1.0063059E+03;  4.0360653E-01;  5.1359502E+03;3;  1.5255692E+02;  0.0000000E+00; -1.2890542E+01;0;  6.0065353E-01;  9.9658613E+03;  0.0000000E+00;  4.4884509E-01;  1.0000000E+04;  0.0000000E+00;  9.9805801E+03;  5.1189983E-01;  0.0000000E+00;  8.8753678E-02;  7.5111880E+03;
  1.0614084E+00;  9.9999998E-03; -2.8041470E-01;2673;  4.0465134E-01;  0.0000000E+00; -6.8402797E-02;  1.0067579E+03;  4.0360662E-01;  5.5040898E+03;3;  1.2870903E+02;  0.0000000E+00; -4.9879136E+00;0;  4.8979571E-01;  9.9785000E+03;  0.0000000E+00; -3.4721249E-01;  1.0000000E+04;  0.0000000E+00;  9.9768447E+03;  3.8153720E-01;  0.0000000E+00;  1.0825851E-01;  8.9797715E+03;
  1.0613427E+00;  9.9999998E-03; -2.6039502E-01;2674;  4.0004453E-01;  0.0000000E+00; -6.8627752E-02;  1.0071765E+03;  4.0360680E-01;  5.8451758E+03;3;  1.0794276E+02;  0.0000000E+00; -2.0876150E+00;0;  3.8574660E-01;  9.9893252E+03;  0.0000000E+00; -3.0997300E-01;  1.0000000E+04;  0.0000000E+00;  9.9742715E+03;  2.4515559E-01;  0.0000000E+00;  1.4059103E-01;  1.0040182E+04;
  1.0612762E+00;  9.9999998E-03; -2.4038239E-01;2675;  3.9176008E-01;  0.0000000E+00; -6.9157176E-02;  1.0074727E+03;  4.0360716E-01;  6.0865557E+03;3;  9.3138718E+01;  0.0000000E+00;  2.3330346E-01;0;  2.9908603E-01;  9.9974951E+03;  0.0000000E+00; -3.4932178E-01;  1.0000000E+04;  0.0000000E+00;  9.9719473E+03;  1.2966831E-01;  0.0000000E+00;  1.6941772E-01;  1.1034173E+04;
  1.0612117E+00;  9.9999998E-03; -2.2036244E-01;2676;  3.8218239E-01;  0.0000000E+00; -6.8898626E-02;  1.0077573E+03;  4.0360740E-01;  6.3184253E+03;3;  8.4545311E+01;  0.0000000E+00;  1.4039160E+00;0;  2.3323476E-01;  1.0003600E+04;  0.0000000E+00; -3.6315095E-01;  1.0000000E+04;  0.0000000E+00;  9.9714600E+03;  3.9675284E-02;  0.0000000E+00;  1.9355948E-01;  1.1273631E+04;
  1.0611470E+00;  9.9999998E-03; -2.0033641E-01;2677;  3.7038508E-01;  0.0000000E+00; -6.5159194E-02;  1.0079797E+03;  4.0360776E-01;  6.4997129E+03;3;  8.0566040E+01;  0.0000000E+00;  2.0042326E+00;0;  1.8874416E-01;  1.0008361E+04;  0.0000000E+00; -2.4564573E-01;  1.0000000E+04;  0.0000000E+00;  9.9710801E+03; -2.9535420E-02;  0.0000000E+00;  2.1827959E-01;  1.1387913E+04;
  1.0814974E+00;  9.9999998E-03; -3.0039251E-01;2703;  4.1046828E-01;  0.0000000E+00; -6.4535700E-02;  1.0053021E+03;  4.0311643E-01;  4.2934644E+03;3;  1.6570589E+02;  0.0000000E+00; -1.3576527E+01;0;  4.8339796E-01;  9.9680498E+03;  0.0000000E+00;  1.5508802E+00;  1.0000000E+04;  0.0000000E+00;  9.9827256E+03;  4.0064678E-01;  0.0000000E+00;  8.2751185E-02;  8.7147324E+03;
  1.0814322E+00;  9.9999998E-03; -2.8037745E-01;2704;  4.0906391E-01;  0.0000000E+00; -6.3531347E-02;  1.0058762E+03;  4.0311661E-01;  4.7584668E+03;3;  1.3867268E+02;  0.0000000E+00; -7.7423453E+00;0;  3.6884621E-01;  9.9838027E+03;  0.0000000E+00; -6.9182932E-01;  1.0000000E+04;  0.0000000E+00;  9.9782959E+03;  2.6040915E-01;  0.0000000E+00;  1.0843705E-01;  8.2569248E+03;
  1.0813509E+00;  9.9999998E-03; -2.6035708E-01;2705;  4.0011573E-01;  0.0000000E+00; -6.2103480E-02;  1.0063442E+03;  4.0311667E-01;  5.1375981E+03;3;  1.1449306E+02;  0.0000000E+00; -3.9019198E+00;0;  2.5525522E-01;  9.9956621E+03;  0.0000000E+00; -9.0143490E-01;  1.0000000E+04;  0.0000000E+00;  9.9756855E+03;  1.2437437E-01;  0.0000000E+00;  1.3088083E-01;  9.5756934E+03;
  1.0812742E+00;  9.9999998E-03; -2.4034384E-01;2706;  3.9083794E-01;  0.0000000E+00; -6.2126387E-02;  1.0065979E+03;  4.0311715E-01;  5.3431646E+03;3;  9.7699875E+01;  0.0000000E+00; -1.1888493E+00;0;  1.8970689E-01;  1.0003032E+04;  0.0000000E+00; -8.8495529E-01;  1.0000000E+04;  0.0000000E+00;  9.9733174E+03;  2.7645279E-02;  0.0000000E+00;  1.6206162E-01;  1.0424254E+04;
  1.0812045E+00;  9.9999998E-03; -2.2032727E-01;2707;  3.8104361E-01;  0.0000000E+00; -6.2604494E-02;  1.0068057E+03;  4.0311739E-01;  5.5116558E+03;3;  8.7394035E+01;  0.0000000E+00;  6.6892788E-02;0;  1.4599065E-01;  1.0007531E+04;  0.0000000E+00; -8.0156833E-01;  1.0000000E+04;  0.0000000E+00;  9.9729170E+03; -3.9566759E-02;  0.0000000E+00;  1.8555741E-01;  1.0482890E+04;
  1.0811342E+00;  9.9999998E-03; -2.0030296E-01;2708;  3.6846563E-01;  0.0000000E+00; -5.9663951E-02;  1.0069753E+03;  4.0311790E-01;  5.6490684E+03;3;  8.2068100E+01;  0.0000000E+00;  8.3673799E-01;0;  1.1371453E-01;  1.0010708E+04;  0.0000000E+00; -5.3834146E-01;  1.0000000E+04;  0.0000000E+00;  9.9730781E+03; -8.8211253E-02;  0.0000000E+00;  2.0192578E-01;  1.0165171E+04;
  1.1014372E+00;  9.9999998E-03; -2.8034276E-01;2734;  4.0850997E-01;  0.0000000E+00; -5.8521293E-02;  1.0051326E+03;  4.0270573E-01;  4.1248374E+03;3;  1.4998451E+02;  0.0000000E+00; -1.0234357E+01;0;  2.6887989E-01;  9.9876660E+03;  0.0000000E+00; -5.5070794E-01;  1.0000000E+04;  0.0000000E+00;  9.9800264E+03;  1.5849580E-01;  0.0000000E+00;  1.1038408E-01;  6.8790054E+03;
  1.1013509E+00;  9.9999998E-03; -2.6031956E-01;2735;  3.9801821E-01;  0.0000000E+00; -5.5801909E-02;  1.0056798E+03;  4.0270564E-01;  4.5647378E+03;3;  1.2332839E+02;  0.0000000E+00; -6.2279506E+00;0;  1.4692082E-01;  1.0000681E+04;  0.0000000E+00; -1.4783766E+00;  1.0000000E+04;  0.0000000E+00;  9.9778408E+03;  2.4239777E-02;  0.0000000E+00;  1.2268104E-01;  9.3050898E+03;
  1.1012716E+00;  9.9999998E-03; -2.4030463E-01;2736;  3.8856956E-01;  0.0000000E+00; -5.4359376E-02;  1.0058870E+03;  4.0270615E-01;  4.7313149E+03;3;  1.0389341E+02;  0.0000000E+00; -2.8737202E+00;0;  9.3893886E-02;  1.0007508E+04;  0.0000000E+00; -1.5665027E+00;  1.0000000E+04;  0.0000000E+00;  9.9751035E+03; -5.5291791E-02;  0.0000000E+00;  1.4918567E-01;  1.0310794E+04;
  1.1011978E+00;  9.9999998E-03; -2.2029097E-01;2737;  3.7897921E-01;  0.0000000E+00; -5.5059273E-02;  1.0060056E+03;  4.0270656E-01;  4.8268950E+03;3;  9.1496483E+01;  0.0000000E+00; -1.1544968E+00;0;  7.3832020E-02;  1.0010694E+04;  0.0000000E+00; -1.4122525E+00;  1.0000000E+04;  0.0000000E+00;  9.9742490E+03; -1.0194995E-01;  0.0000000E+00;  1.7578197E-01;  1.0258851E+04;
  1.1011233E+00;  9.9999998E-03; -2.0027022E-01;2738;  3.6633202E-01;  0.0000000E+00; -5.3480700E-02;  1.0061110E+03;  4.0270686E-01;  4.9116558E+03;3;  8.4330269E+01;  0.0000000E+00; -1.9599186E-01;0;  5.5740297E-02;  1.0012365E+04;  0.0000000E+00; -9.9285424E-01;  1.0000000E+04;  0.0000000E+00;  9.9746338E+03; -1.3186955E-01;  0.0000000E+00;  1.8760985E-01;  9.4348379E+03;
  1.1214252E+00;  9.9999998E-03; -2.8031239E-01;2763;  4.0451986E-01;  0.0000000E+00; -5.3509325E-02;  1.0044871E+03;  4.0236896E-01;  3.5702195E+03;3;  1.6231960E+02;  0.0000000E+00; -1.2318880E+01;0;  1.9396329E-01;  9.9896738E+03;  0.0000000E+00;  5.2948165E-01;  1.0000000E+04;  0.0000000E+00;  9.9818730E+03;  8.4313825E-02;  0.0000000E+00;  1.0964947E-01;  5.6503735E+03;
  1.1213475E+00;  9.9999998E-03; -2.6028880E-01;2764;  3.9511061E-01;  0.0000000E+00; -5.0246660E-02;  1.0050549E+03;  4.0236908E-01;  4.0221643E+03;3;  1.3443073E+02;  0.0000000E+00; -8.1373949E+00;0;  7.7579483E-02;  1.0002938E+04;  0.0000000E+00; -1.7176049E+00;  1.0000000E+04;  0.0000000E+00;  9.9798730E+03; -4.0476374E-02;  0.0000000E+00;  1.1805586E-01;  8.4766563E+03;
  1.1212677E+00;  9.9999998E-03; -2.4026839E-01;2765;  3.8508388E-01;  0.0000000E+00; -4.6964943E-02;  1.0053030E+03;  4.0236935E-01;  4.2197456E+03;3;  1.1210403E+02;  0.0000000E+00; -4.5361657E+00;0;  1.6589336E-02;  1.0010157E+04;  0.0000000E+00; -2.2060118E+00;  1.0000000E+04;  0.0000000E+00;  9.9775635E+03; -1.1486108E-01;  0.0000000E+00;  1.3145041E-01;  1.0219197E+04;
  1.1211923E+00;  9.9999998E-03; -2.2025564E-01;2766;  3.7593243E-01;  0.0000000E+00; -4.7132213E-02;  1.0053510E+03;  4.0236953E-01;  4.2580610E+03;3;  9.7074677E+01;  0.0000000E+00; -2.2574589E+00;0;  1.3714299E-02;  1.0012830E+04;  0.0000000E+00; -2.1295655E+00;  1.0000000E+04;  0.0000000E+00;  9.9758213E+03; -1.4834291E-01;  0.0000000E+00;  1.6205721E-01;  1.0423985E+04;
  1.1211146E+00;  9.9999998E-03; -2.0023786E-01;2767;  3.6398429E-01;  0.0000000E+00; -4.6688467E-02;  1.0053925E+03;  4.0236992E-01;  4.2913569E+03;3;  8.7768097E+01;  0.0000000E+00; -1.2012824E+00;0;  1.0111034E-02;  1.0013486E+04;  0.0000000E+00; -1.6202092E+00;  1.0000000E+04;  0.0000000E+00;  9.9759658E+03; -1.6461720E-01;  0.0000000E+00;  1.7472823E-01;  9.2854482E+03;
  1.1413405E+00;  9.9999998E-03; -2.6026714E-01;2792;  3.9164409E-01;  0.0000000E+00; -4.5606140E-02;  1.0043643E+03;  4.0209916E-01;  3.4278743E+03;3;  1.4770213E+02;  0.0000000E+00; -9.6432867E+00;0;  5.5585895E-02;  1.0001471E+04;  0.0000000E+00; -1.0921186E+00;  1.0000000E+04;  0.0000000E+00;  9.9810010E+03; -6.0436796E-02;  0.0000000E+00;  1.1602269E-01;  6.1078755E+03;
  1.1412632E+00;  9.9999998E-03; -2.4024202E-01;2793;  3.8135284E-01;  0.0000000E+00; -4.1249700E-02;  1.0047371E+03;  4.0209916E-01;  3.7207720E+03;3;  1.2307275E+02;  0.0000000E+00; -5.9944811E+00;0; -2.8035849E-02;  1.0010062E+04;  0.0000000E+00; -2.5269377E+00;  1.0000000E+04;  0.0000000E+00;  9.9798145E+03; -1.4402989E-01;  0.0000000E+00;  1.1599404E-01;  9.4147217E+03;
  1.1411892E+00;  9.9999998E-03; -2.2022632E-01;2794;  3.7208900E-01;  0.0000000E+00; -3.9566860E-02;  1.0047961E+03;  4.0209946E-01;  3.7674199E+03;3;  1.0469609E+02;  0.0000000E+00; -3.0754859E+00;0; -3.6585763E-02;  1.0013391E+04;  0.0000000E+00; -2.8277116E+00;  1.0000000E+04;  0.0000000E+00;  9.9776455E+03; -1.7799322E-01;  0.0000000E+00;  1.4140746E-01;  1.0510651E+04;
  1.1411097E+00;  9.9999998E-03; -2.0020966E-01;2795;  3.6135429E-01;  0.0000000E+00; -3.9941024E-02;  1.0048064E+03;  4.0209976E-01;  3.7756934E+03;3;  9.2748398E+01;  0.0000000E+00; -1.9667535E+00;0; -2.5732577E-02;  1.0014008E+04;  0.0000000E+00; -2.3933010E+00;  1.0000000E+04;  0.0000000E+00;  9.9772109E+03; -1.8794571E-01;  0.0000000E+00;  1.6221313E-01;  9.5763818E+03;
  1.1613231E+00;  9.9999998E-03; -2.6025015E-01;2819;  3.8594857E-01;  0.0000000E+00; -4.1506905E-02;  1.0036844E+03;  4.0188754E-01;  2.8459307E+03;3;  1.6192445E+02;  0.0000000E+00; -1.0841290E+01;0;  6.0476493E-02;  9.9975527E+03;  0.0000000E+00;  9.8416805E-01;  1.0000000E+04;  0.0000000E+00;  9.9819004E+03; -5.2707259E-02;  0.0000000E+00;  1.1318375E-01;  4.9308232E+03;
  1.1612611E+00;  9.9999998E-03; -2.4022801E-01;2820;  3.7775224E-01;  0.0000000E+00; -3.7118033E-02;  1.0040487E+03;  4.0188757E-01;  3.1275107E+03;3;  1.3646458E+02;  0.0000000E+00; -7.0121045E+00;0; -2.6074551E-02;  1.0006138E+04;  0.0000000E+00; -2.0850744E+00;  1.0000000E+04;  0.0000000E+00;  9.9805684E+03; -1.3397177E-01;  0.0000000E+00;  1.0789721E-01;  7.1484302E+03;
  1.1611881E+00;  9.9999998E-03; -2.2020553E-01;2821;  3.6788848E-01;  0.0000000E+00; -3.3245116E-02;  1.0042658E+03;  4.0188766E-01;  3.2954253E+03;3;  1.1507877E+02;  0.0000000E+00; -3.7763689E+00;0; -7.0358530E-02;  1.0011567E+04;  0.0000000E+00; -3.2118852E+00;  1.0000000E+04;  0.0000000E+00;  9.9794551E+03; -1.8659920E-01;  0.0000000E+00;  1.1624067E-01;  9.7092148E+03;
  1.1611104E+00;  9.9999998E-03; -2.0018871E-01;2822;  3.5826573E-01;  0.0000000E+00; -3.3375267E-02;  1.0043033E+03;  4.0188786E-01;  3.3246763E+03;3;  1.0008234E+02;  0.0000000E+00; -2.4130471E+00;0; -5.3760216E-02;  1.0013367E+04;  0.0000000E+00; -3.1865599E+00;  1.0000000E+04;  0.0000000E+00;  9.9783857E+03; -2.0015952E-01;  0.0000000E+00;  1.4639930E-01;  9.7898955E+03;
  1.1812505E+00;  9.9999998E-03; -2.4022028E-01;2846;  3.7311631E-01;  0.0000000E+00; -3.4589097E-02;  1.0033080E+03;  4.0172496E-01;  2.5018894E+03;3;  1.5178021E+02;  0.0000000E+00; -8.0374203E+00;0;  2.1591917E-02;  9.9996357E+03;  0.0000000E+00; -2.0061972E-02;  1.0000000E+04;  0.0000000E+00;  9.9803926E+03; -9.2586584E-02;  0.0000000E+00;  1.1417850E-01;  3.9860281E+03;
  1.1811879E+00;  9.9999998E-03; -2.2019666E-01;2847;  3.6386275E-01;  0.0000000E+00; -2.9683707E-02;  1.0036284E+03;  4.0172505E-01;  2.7444460E+03;3;  1.2844551E+02;  0.0000000E+00; -4.5255580E+00;0; -5.7535633E-02;  1.0006330E+04;  0.0000000E+00; -2.7125161E+00;  1.0000000E+04;  0.0000000E+00;  9.9800830E+03; -1.6183004E-01;  0.0000000E+00;  1.0429440E-01;  7.2387070E+03;
  1.1811157E+00;  9.9999998E-03; -2.0017743E-01;2848;  3.5471165E-01;  0.0000000E+00; -2.7971584E-02;  1.0037819E+03;  4.0172514E-01;  2.8608257E+03;3;  1.1067706E+02;  0.0000000E+00; -2.5097530E+00;0; -6.5656960E-02;  1.0010298E+04;  0.0000000E+00; -3.6554327E+00;  1.0000000E+04;  0.0000000E+00;  9.9791660E+03; -1.9334652E-01;  0.0000000E+00;  1.2768956E-01;  9.1048330E+03;
  1.2011794E+00;  9.9999998E-03; -2.2019391E-01;2871;  3.5889867E-01;  0.0000000E+00; -2.8243225E-02;  1.0029247E+03;  4.0160286E-01;  2.1549082E+03;3;  1.4424095E+02;  0.0000000E+00; -5.5843449E+00;0;  4.4377893E-03;  9.9986963E+03;  0.0000000E+00; -3.9328247E-01;  1.0000000E+04;  0.0000000E+00;  9.9797754E+03; -1.0707714E-01;  0.0000000E+00;  1.1151493E-01;  3.5408569E+03;
  1.2011222E+00;  9.9999998E-03; -2.0017542E-01;2872;  3.5096076E-01;  0.0000000E+00; -2.5091890E-02;  1.0031231E+03;  4.0160277E-01;  2.3013423E+03;3;  1.2431083E+02;  0.0000000E+00; -2.8218837E+00;0; -3.0593634E-02;  1.0003408E+04;  0.0000000E+00; -3.0660396E+00;  1.0000000E+04;  0.0000000E+00;  9.9790176E+03; -1.5074326E-01;  0.0000000E+00;  1.2014963E-01;  6.6417383E+03;
  1.2211409E+00;  9.9999998E-03; -2.2018164E-01;2894;  3.4688187E-01;  0.0000000E+00; -2.6133612E-02;  1.0026967E+03;  4.0151253E-01;  1.9246914E+03;3;  1.5928111E+02;  0.0000000E+00; -7.2209182E+00;0; -5.6728497E-03;  9.9965400E+03;  0.0000000E+00;  3.4743083E+00;  1.0000000E+04;  0.0000000E+00;  9.9818643E+03; -1.1695412E-01;  0.0000000E+00;  1.1128127E-01;  5.6700522E+03;
  1.2211134E+00;  9.9999998E-03; -2.0017546E-01;2895;  3.4515837E-01;  0.0000000E+00; -2.4183253E-02;  1.0024810E+03;  4.0151283E-01;  1.7708582E+03;3;  1.4088454E+02;  0.0000000E+00; -4.0737500E+00;0;  3.8323879E-02;  9.9955332E+03;  0.0000000E+00; -4.1729710E-01;  1.0000000E+04;  0.0000000E+00;  9.9785781E+03; -9.0395227E-02;  0.0000000E+00;  1.2871911E-01;  3.0652769E+03;
 -1.0565279E-05;  9.9999998E-03; -1.8000124E-01;1036; -5.6794453E-03;  0.0000000E+00; -7.1890233E-04;  1.0002160E+03;  4.0000001E-01;  1.7895787E+02;3; -3.2882900E+00;  0.0000000E+00; -4.5610368E-01;0; -1.0745614E-01;  1.0004491E+04;  0.0000000E+00; -5.5612638E-08;  1.0000000E+04;  0.0000000E+00;  9.9998281E+03; -1.1143763E-01;  0.0000000E+00;  3.9814841E-03;  9.6656212E+01;
 -1.0871799E-05;  9.9999998E-03; -1.6000098E-01;1037; -5.8588954E-03;  0.0000000E+00; -5.8555172E-04;  1.0002234E+03;  4.0000001E-01;  1.8508116E+02;3; -3.4021034E+00;  0.0000000E+00; -3.8388896E-01;0; -1.1124866E-01;  1.0004639E+04;  0.0000000E+00; -5.5191894E-08;  1.0000000E+04;  0.0000000E+00;  9.9998330E+03; -1.1528708E-01;  0.0000000E+00;  4.0384219E-03;  9.6165276E+01;
 -1.1053747E-05;  9.9999998E-03; -1.4000076E-01;1038; -5.9714690E-03;  0.0000000E+00; -4.6896451E-04;  1.0002282E+03;  4.0000001E-01;  1.8903166E+02;3; -3.4803200E+00;  0.0000000E+00; -3.1838661E-01;0; -1.1395640E-01;  1.0004722E+04;  0.0000000E+00; -2.8727671E-08;  1.0000000E+04;  0.0000000E+00;  9.9998447E+03; -1.1778200E-01;  0.0000000E+00;  3.8256038E-03;  9.0156898E+01;
 -1.1146944E-05;  9.9999998E-03; -1.2000058E-01;1039; -6.0349423E-03;  0.0000000E+00; -3.6899871E-04;  1.0002318E+03;  4.0000001E-01;  1.9199454E+02;3; -3.5298424E+00;  0.0000000E+00; -2.6068079E-01;0; -1.1579077E-01;  1.0004770E+04;  0.0000000E+00; -1.3412028E-08;  1.0000000E+04;  0.0000000E+00;  9.9998643E+03; -1.1928338E-01;  0.0000000E+00;  3.4926105E-03;  8.1716331E+01;
 -1.1182265E-05;  9.9999998E-03; -1.0000042E-01;1040; -6.0664513E-03;  0.0000000E+00; -2.8058034E-04;  1.0002336E+03;  4.0000001E-01;  1.9347598E+02;3; -3.5604229E+00;  0.0000000E+00; -2.0585465E-01;0; -1.1696770E-01;  1.0004791E+04;  0.0000000E+00; -8.0574889E-09;  1.0000000E+04;  0.0000000E+00;  9.9998809E+03; -1.2009194E-01;  0.0000000E+00;  3.1242422E-03;  7.2666550E+01;
 -1.1181998E-05;  9.9999998E-03; -8.0000296E-02;1041; -6.0770987E-03;  0.0000000E+00; -2.0655361E-04;  1.0002349E+03;  4.0000001E-01;  1.9456236E+02;3; -3.5774784E+00;  0.0000000E+00; -1.5700346E-01;0; -1.1767995E-01;  1.0004795E+04;  0.0000000E+00; -3.4411811E-09;  1.0000000E+04;  0.0000000E+00;  9.9999023E+03; -1.2045240E-01;  0.0000000E+00;  2.7724509E-03;  6.4155029E+01;
 -1.1165050E-05;  9.9999998E-03; -6.0000200E-02;1042; -6.0764425E-03;  0.0000000E+00; -1.4432683E-04;  1.0002355E+03;  4.0000001E-01;  1.9515494E+02;3; -3.5859127E+00;  0.0000000E+00; -1.1380003E-01;0; -1.1808225E-01;  1.0004793E+04;  0.0000000E+00; -1.4191753E-09;  1.0000000E+04;  0.0000000E+00;  9.9999170E+03; -1.2055372E-01;  0.0000000E+00;  2.4714659E-03;  5.6938332E+01;
 -1.1144218E-05;  9.9999998E-03; -4.0000122E-02;1043; -6.0716104E-03;  0.0000000E+00; -9.0667912E-05;  1.0002357E+03;  4.0000001E-01;  1.9525371E+02;3; -3.5898304E+00;  0.0000000E+00; -7.3263600E-02;0; -1.1829074E-01;  1.0004786E+04;  0.0000000E+00; -3.7114073E-10;  1.0000000E+04;  0.0000000E+00;  9.9999297E+03; -1.2053376E-01;  0.0000000E+00;  2.2430166E-03;  5.1495235E+01;
 -1.1128351E-05;  9.9999998E-03; -2.0000057E-02;1044; -6.0668727E-03;  0.0000000E+00; -4.3976375E-05;  1.0002357E+03;  4.0000001E-01;  1.9525371E+02;3; -3.5912132E+00;  0.0000000E+00; -3.6483325E-02;0; -1.1838527E-01;  1.0004780E+04;  0.0000000E+00; -3.3370126E-10;  1.0000000E+04;  0.0000000E+00;  9.9999346E+03; -1.2048607E-01;  0.0000000E+00;  2.1007974E-03;  4.8121082E+01;
  1.9985015E-02;  9.9999998E-03; -1.8000166E-01;1066; -7.9857362E-03;  0.0000000E+00; -9.5649238E-04;  1.0002540E+03;  4.0000001E-01;  2.1036440E+02;3; -4.0190029E+00;  0.0000000E+00; -5.4056650E-01;0; -1.2463439E-01;  1.0005306E+04;  0.0000000E+00;  4.5559716E-07;  1.0000000E+04;  0.0000000E+00;  9.9997793E+03; -1.2973545E-01;  0.0000000E+00;  5.1010628E-03;  1.2431606E+02;
  1.9984618E-02;  9.9999998E-03; -1.6000132E-01;1067; -8.2189431E-03;  0.0000000E+00; -7.8853971E-04;  1.0002618E+03;  4.0000001E-01;  2.1688272E+02;3; -4.1519260E+00;  0.0000000E+00; -4.6330339E-01;0; -1.2866937E-01;  1.0005459E+04;  0.0000000E+00;  2.1854611E-07;  1.0000000E+04;  0.0000000E+00;  9.9997803E+03; -1.3386095E-01;  0.0000000E+00;  5.1915860E-03;  1.2350723E+02;
  1.9984398E-02;  9.9999998E-03; -1.4000104E-01;1068; -8.3591565E-03;  0.0000000E+00; -6.4083235E-04;  1.0002671E+03;  4.0000001E-01;  2.2132704E+02;3; -4.2428017E+00;  0.0000000E+00; -3.9161909E-01;0; -1.3153136E-01;  1.0005547E+04;  0.0000000E+00;  1.0163028E-07;  1.0000000E+04;  0.0000000E+00;  9.9997979E+03; -1.3648067E-01;  0.0000000E+00;  4.9493201E-03;  1.1579116E+02;
  1.9984294E-02;  9.9999998E-03; -1.2000079E-01;1069; -8.4366966E-03;  0.0000000E+00; -5.0527079E-04;  1.0002707E+03;  4.0000001E-01;  2.2428992E+02;3; -4.3021908E+00;  0.0000000E+00; -3.2298163E-01;0; -1.3345365E-01;  1.0005591E+04;  0.0000000E+00;  3.5997218E-08;  1.0000000E+04;  0.0000000E+00;  9.9998203E+03; -1.3800882E-01;  0.0000000E+00;  4.5551695E-03;  1.0501109E+02;
  1.9984268E-02;  9.9999998E-03; -1.0000058E-01;1070; -8.4705232E-03;  0.0000000E+00; -3.8952520E-04;  1.0002726E+03;  4.0000001E-01;  2.2587012E+02;3; -4.3384247E+00;  0.0000000E+00; -2.5962070E-01;0; -1.3467877E-01;  1.0005606E+04;  0.0000000E+00;  8.7573691E-09;  1.0000000E+04;  0.0000000E+00;  9.9998457E+03; -1.3878645E-01;  0.0000000E+00;  4.1076900E-03;  9.3361252E+01;
  1.9984284E-02;  9.9999998E-03; -8.0000415E-02;1071; -8.4778015E-03;  0.0000000E+00; -2.9099415E-04;  1.0002739E+03;  4.0000001E-01;  2.2695651E+02;3; -4.3590641E+00;  0.0000000E+00; -2.0194733E-01;0; -1.3541573E-01;  1.0005607E+04;  0.0000000E+00; -1.2721418E-10;  1.0000000E+04;  0.0000000E+00;  9.9998701E+03; -1.3908979E-01;  0.0000000E+00;  3.6740617E-03;  8.2341331E+01;
  1.9984322E-02;  9.9999998E-03; -6.0000282E-02;1072; -8.4720161E-03;  0.0000000E+00; -2.0474804E-04;  1.0002743E+03;  4.0000001E-01;  2.2725279E+02;3; -4.3702393E+00;  0.0000000E+00; -1.4710683E-01;0; -1.3582908E-01;  1.0005599E+04;  0.0000000E+00; -1.1738437E-09;  1.0000000E+04;  0.0000000E+00;  9.9998887E+03; -1.3912912E-01;  0.0000000E+00;  3.3000458E-03;  7.2965675E+01;
  1.9984361E-02;  9.9999998E-03; -4.0000174E-02;1073; -8.4617054E-03;  0.0000000E+00; -1.3013562E-04;  1.0002746E+03;  4.0000001E-01;  2.2745032E+02;3; -4.3756008E+00;  0.0000000E+00; -9.5620237E-02;0; -1.3604167E-01;  1.0005589E+04;  0.0000000E+00; -7.0218203E-10;  1.0000000E+04;  0.0000000E+00;  9.9999033E+03; -1.3905668E-01;  0.0000000E+00;  3.0150055E-03;  6.5882256E+01;
  1.9984389E-02;  9.9999998E-03; -2.0000083E-02;1074; -8.4531382E-03;  0.0000000E+00; -6.3328473E-05;  1.0002745E+03;  4.0000001E-01;  2.2745032E+02;3; -4.3776455E+00;  0.0000000E+00; -4.7815334E-02;0; -1.3613695E-01;  1.0005580E+04;  0.0000000E+00; -3.1474552E-11;  1.0000000E+04;  0.0000000E+00;  9.9999141E+03; -1.3897415E-01;  0.0000000E+00;  2.8372032E-03;  6.1487740E+01;
  3.9979376E-02;  9.9999998E-03; -1.8000191E-01;1097; -1.0902373E-02;  0.0000000E+00; -1.0960946E-03;  1.0002861E+03;  4.0000001E-01;  2.3703030E+02;3; -4.8575373E+00;  0.0000000E+00; -5.6153816E-01;0; -1.3796650E-01;  1.0005991E+04;  0.0000000E+00;  8.0581975E-07;  1.0000000E+04;  0.0000000E+00;  9.9997363E+03; -1.4386739E-01;  0.0000000E+00;  5.9008850E-03;  1.4691899E+02;
  3.9978880E-02;  9.9999998E-03; -1.6000155E-01;1098; -1.1197233E-02;  0.0000000E+00; -9.1558613E-04;  1.0002938E+03;  4.0000001E-01;  2.4335110E+02;3; -5.0131350E+00;  0.0000000E+00; -4.9016008E-01;0; -1.4192568E-01;  1.0006141E+04;  0.0000000E+00;  4.4302757E-07;  1.0000000E+04;  0.0000000E+00;  9.9997383E+03; -1.4795491E-01;  0.0000000E+00;  6.0292273E-03;  1.4568987E+02;
  3.9978616E-02;  9.9999998E-03; -1.4000122E-01;1099; -1.1370942E-02;  0.0000000E+00; -7.5075170E-04;  1.0002991E+03;  4.0000001E-01;  2.4779543E+02;3; -5.1204271E+00;  0.0000000E+00; -4.2229635E-01;0; -1.4467469E-01;  1.0006224E+04;  0.0000000E+00;  2.0942623E-07;  1.0000000E+04;  0.0000000E+00;  9.9997598E+03; -1.5046921E-01;  0.0000000E+00;  5.7945289E-03;  1.3672380E+02;
  3.9978504E-02;  9.9999998E-03; -1.2000094E-01;1100; -1.1462120E-02;  0.0000000E+00; -5.9995323E-04;  1.0003022E+03;  4.0000001E-01;  2.5036325E+02;3; -5.1916676E+00;  0.0000000E+00; -3.5409963E-01;0; -1.4647622E-01;  1.0006259E+04;  0.0000000E+00;  7.5787788E-08;  1.0000000E+04;  0.0000000E+00;  9.9997852E+03; -1.5186404E-01;  0.0000000E+00;  5.3878073E-03;  1.2428191E+02;
  3.9978497E-02;  9.9999998E-03; -1.0000070E-01;1101; -1.1498041E-02;  0.0000000E+00; -4.6797257E-04;  1.0003041E+03;  4.0000001E-01;  2.5194345E+02;3; -5.2364550E+00;  0.0000000E+00; -2.8908452E-01;0; -1.4759791E-01;  1.0006266E+04;  0.0000000E+00;  2.0366450E-08;  1.0000000E+04;  0.0000000E+00;  9.9998115E+03; -1.5250666E-01;  0.0000000E+00;  4.9087512E-03;  1.1071430E+02;
  3.9978538E-02;  9.9999998E-03; -8.0000505E-02;1102; -1.1501169E-02;  0.0000000E+00; -3.5217375E-04;  1.0003049E+03;  4.0000001E-01;  2.5253603E+02;3; -5.2630205E+00;  0.0000000E+00; -2.2738332E-01;0; -1.4825442E-01;  1.0006259E+04;  0.0000000E+00;  3.5052907E-09;  1.0000000E+04;  0.0000000E+00;  9.9998408E+03; -1.5268929E-01;  0.0000000E+00;  4.4348612E-03;  9.7790154E+01;
  3.9978601E-02;  9.9999998E-03; -6.0000345E-02;1103; -1.1488273E-02;  0.0000000E+00; -2.5040310E-04;  1.0003052E+03;  4.0000001E-01;  2.5293108E+02;3; -5.2782021E+00;  0.0000000E+00; -1.6763896E-01;0; -1.4860937E-01;  1.0006242E+04;  0.0000000E+00; -4.9348123E-11;  1.0000000E+04;  0.0000000E+00;  9.9998633E+03; -1.5263079E-01;  0.0000000E+00;  4.0214201E-03;  8.6746170E+01;
  3.9978664E-02;  9.9999998E-03; -4.0000215E-02;1104; -1.1470975E-02;  0.0000000E+00; -1.6061407E-04;  1.0003053E+03;  4.0000001E-01;  2.5293108E+02;3; -5.2859907E+00;  0.0000000E+00; -1.1056313E-01;0; -1.4878239E-01;  1.0006225E+04;  0.0000000E+00; -3.4780157E-10;  1.0000000E+04;  0.0000000E+00;  9.9998828E+03; -1.5248686E-01;  0.0000000E+00;  3.7044741E-03;  7.8382385E+01;
  3.9978705E-02;  9.9999998E-03; -2.0000102E-02;1105; -1.1457605E-02;  0.0000000E+00; -7.8169651E-05;  1.0003052E+03;  4.0000001E-01;  2.5283232E+02;3; -5.2895947E+00;  0.0000000E+00; -5.5066731E-02;0; -1.4885503E-01;  1.0006213E+04;  0.0000000E+00;  1.3857995E-10;  1.0000000E+04;  0.0000000E+00;  9.9998936E+03; -1.5236121E-01;  0.0000000E+00;  3.5061790E-03;  7.3187263E+01;
  5.9972964E-02;  9.9999998E-03; -1.8000203E-01;1128; -1.4150065E-02;  0.0000000E+00; -1.1539306E-03;  1.0003176E+03;  4.0000001E-01;  2.6310364E+02;3; -5.7576475E+00;  0.0000000E+00; -5.5310655E-01;0; -1.4988595E-01;  1.0006645E+04;  0.0000000E+00;  7.4456256E-07;  1.0000000E+04;  0.0000000E+00;  9.9997080E+03; -1.5616757E-01;  0.0000000E+00;  6.2816110E-03;  1.6298492E+02;
  5.9972379E-02;  9.9999998E-03; -1.6000165E-01;1129; -1.4503375E-02;  0.0000000E+00; -9.7545295E-04;  1.0003246E+03;  4.0000001E-01;  2.6893063E+02;3; -5.9369812E+00;  0.0000000E+00; -4.9180526E-01;0; -1.5355754E-01;  1.0006785E+04;  0.0000000E+00;  4.9418509E-07;  1.0000000E+04;  0.0000000E+00;  9.9997119E+03; -1.6000473E-01;  0.0000000E+00;  6.4472016E-03;  1.6120618E+02;
  5.9972081E-02;  9.9999998E-03; -1.4000131E-01;1130; -1.4708788E-02;  0.0000000E+00; -8.0418179E-04;  1.0003290E+03;  4.0000001E-01;  2.7258484E+02;3; -6.0627804E+00;  0.0000000E+00; -4.2850807E-01;0; -1.5599081E-01;  1.0006853E+04;  0.0000000E+00;  2.4666321E-07;  1.0000000E+04;  0.0000000E+00;  9.9997314E+03; -1.6225439E-01;  0.0000000E+00;  6.2635802E-03;  1.5162383E+02;
  5.9971977E-02;  9.9999998E-03; -1.2000101E-01;1131; -1.4811398E-02;  0.0000000E+00; -6.5017614E-04;  1.0003315E+03;  4.0000001E-01;  2.7465884E+02;3; -6.1471176E+00;  0.0000000E+00; -3.6587158E-01;0; -1.5750134E-01;  1.0006875E+04;  0.0000000E+00;  8.9744248E-08;  1.0000000E+04;  0.0000000E+00;  9.9997598E+03; -1.6340435E-01;  0.0000000E+00;  5.9030084E-03;  1.3843643E+02;
  5.9971988E-02;  9.9999998E-03; -1.0000076E-01;1132; -1.4847302E-02;  0.0000000E+00; -5.1196507E-04;  1.0003331E+03;  4.0000001E-01;  2.7594278E+02;3; -6.2015944E+00;  0.0000000E+00; -3.0358091E-01;0; -1.5838814E-01;  1.0006866E+04;  0.0000000E+00;  2.3387509E-08;  1.0000000E+04;  0.0000000E+00;  9.9997910E+03; -1.6383986E-01;  0.0000000E+00;  5.4517183E-03;  1.2389654E+02;
  5.9972066E-02;  9.9999998E-03; -8.0000550E-02;1133; -1.4844557E-02;  0.0000000E+00; -3.8809006E-04;  1.0003334E+03;  4.0000001E-01;  2.7623904E+02;3; -6.2358742E+00;  0.0000000E+00; -2.4056317E-01;0; -1.5886752E-01;  1.0006848E+04;  0.0000000E+00;  3.6076970E-09;  1.0000000E+04;  0.0000000E+00;  9.9998193E+03; -1.6385815E-01;  0.0000000E+00;  4.9906215E-03;  1.0992077E+02;
  5.9972163E-02;  9.9999998E-03; -6.0000379E-02;1134; -1.4823200E-02;  0.0000000E+00; -2.7847142E-04;  1.0003334E+03;  4.0000001E-01;  2.7623904E+02;3; -6.2563076E+00;  0.0000000E+00; -1.7920646E-01;0; -1.5909578E-01;  1.0006825E+04;  0.0000000E+00;  1.3125311E-10;  1.0000000E+04;  0.0000000E+00;  9.9998447E+03; -1.6367680E-01;  0.0000000E+00;  4.5810137E-03;  9.7905968E+01;
  5.9972253E-02;  9.9999998E-03; -4.0000234E-02;1135; -1.4798108E-02;  0.0000000E+00; -1.7943405E-04;  1.0003331E+03;  4.0000001E-01;  2.7594278E+02;3; -6.2675600E+00;  0.0000000E+00; -1.1930981E-01;0; -1.5918460E-01;  1.0006806E+04;  0.0000000E+00;  4.9282647E-11;  1.0000000E+04;  0.0000000E+00;  9.9998623E+03; -1.6344851E-01;  0.0000000E+00;  4.2639151E-03;  8.8773224E+01;
  5.9972316E-02;  9.9999998E-03; -2.0000113E-02;1136; -1.4779239E-02;  0.0000000E+00; -8.7696033E-05;  1.0003330E+03;  4.0000001E-01;  2.7584399E+02;3; -6.2731123E+00;  0.0000000E+00; -5.9454478E-02;0; -1.5920916E-01;  1.0006786E+04;  0.0000000E+00; -6.1295566E-11;  1.0000000E+04;  0.0000000E+00;  9.9998730E+03; -1.6327369E-01;  0.0000000E+00;  4.0645241E-03;  8.3089355E+01;
  7.9965957E-02;  9.9999998E-03; -1.8000205E-01;1159; -1.7603325E-02;  0.0000000E+00; -1.1487782E-03;  1.0003524E+03;  4.0000001E-01;  2.9194232E+02;3; -6.7567239E+00;  0.0000000E+00; -5.2986711E-01;0; -1.6255866E-01;  1.0007357E+04;  0.0000000E+00;  2.1356057E-07;  1.0000000E+04;  0.0000000E+00;  9.9996904E+03; -1.6881776E-01;  0.0000000E+00;  6.2590986E-03;  1.7307013E+02;
  7.9965308E-02;  9.9999998E-03; -1.6000168E-01;1160; -1.8005615E-02;  0.0000000E+00; -9.7827148E-04;  1.0003586E+03;  4.0000001E-01;  2.9717673E+02;3; -6.9596305E+00;  0.0000000E+00; -4.7927314E-01;0; -1.6581684E-01;  1.0007477E+04;  0.0000000E+00;  3.7712829E-07;  1.0000000E+04;  0.0000000E+00;  9.9996992E+03; -1.7228259E-01;  0.0000000E+00;  6.4657526E-03;  1.7073943E+02;
  7.9964995E-02;  9.9999998E-03; -1.4000133E-01;1161; -1.8234294E-02;  0.0000000E+00; -8.1294071E-04;  1.0003624E+03;  4.0000001E-01;  3.0023837E+02;3; -7.1037641E+00;  0.0000000E+00; -4.2294270E-01;0; -1.6779627E-01;  1.0007530E+04;  0.0000000E+00;  2.2227329E-07;  1.0000000E+04;  0.0000000E+00;  9.9997158E+03; -1.7417528E-01;  0.0000000E+00;  6.3790097E-03;  1.6126097E+02;
  7.9964906E-02;  9.9999998E-03; -1.2000103E-01;1162; -1.8342983E-02;  0.0000000E+00; -6.6398835E-04;  1.0003637E+03;  4.0000001E-01;  3.0132477E+02;3; -7.2016859E+00;  0.0000000E+00; -3.6609107E-01;0; -1.6889331E-01;  1.0007534E+04;  0.0000000E+00;  8.5789708E-08;  1.0000000E+04;  0.0000000E+00;  9.9997432E+03; -1.7501782E-01;  0.0000000E+00;  6.1245137E-03;  1.4829794E+02;
  7.9964958E-02;  9.9999998E-03; -1.0000078E-01;1163; -1.8375477E-02;  0.0000000E+00; -5.2634702E-04;  1.0003643E+03;  4.0000001E-01;  3.0181857E+02;3; -7.2669845E+00;  0.0000000E+00; -3.0698675E-01;0; -1.6944367E-01;  1.0007515E+04;  0.0000000E+00;  2.1707917E-08;  1.0000000E+04;  0.0000000E+00;  9.9997744E+03; -1.7520618E-01;  0.0000000E+00;  5.7625226E-03;  1.3379323E+02;
  7.9965077E-02;  9.9999998E-03; -8.0000564E-02;1164; -1.8363977E-02;  0.0000000E+00; -4.0287149E-04;  1.0003640E+03;  4.0000001E-01;  3.0162106E+02;3; -7.3093128E+00;  0.0000000E+00; -2.4644136E-01;0; -1.6966641E-01;  1.0007480E+04;  0.0000000E+00;  2.5918034E-09;  1.0000000E+04;  0.0000000E+00;  9.9998047E+03; -1.7503548E-01;  0.0000000E+00;  5.3690607E-03;  1.1966695E+02;
  7.9965219E-02;  9.9999998E-03; -6.0000390E-02;1165; -1.8332642E-02;  0.0000000E+00; -2.9128802E-04;  1.0003636E+03;  4.0000001E-01;  3.0122601E+02;3; -7.3355780E+00;  0.0000000E+00; -1.8594247E-01;0; -1.6970927E-01;  1.0007450E+04;  0.0000000E+00; -6.1376426E-10;  1.0000000E+04;  0.0000000E+00;  9.9998301E+03; -1.7471687E-01;  0.0000000E+00;  5.0076097E-03;  1.0740896E+02;
  7.9965346E-02;  9.9999998E-03; -4.0000241E-02;1166; -1.8298756E-02;  0.0000000E+00; -1.8869957E-04;  1.0003633E+03;  4.0000001E-01;  3.0092972E+02;3; -7.3510127E+00;  0.0000000E+00; -1.2411596E-01;0; -1.6967398E-01;  1.0007420E+04;  0.0000000E+00; -3.9148149E-10;  1.0000000E+04;  0.0000000E+00;  9.9998486E+03; -1.7439650E-01;  0.0000000E+00;  4.7225193E-03;  9.8034431E+01;
  7.9965428E-02;  9.9999998E-03; -2.0000117E-02;1167; -1.8273881E-02;  0.0000000E+00; -9.2718758E-05;  1.0003629E+03;  4.0000001E-01;  3.0063342E+02;3; -7.3588581E+00;  0.0000000E+00; -6.2202029E-02;0; -1.6962734E-01;  1.0007400E+04;  0.0000000E+00; -1.1540509E-10;  1.0000000E+04;  0.0000000E+00;  9.9998613E+03; -1.7416885E-01;  0.0000000E+00;  4.5415214E-03;  9.2180069E+01;
  9.9958315E-02;  9.9999998E-03; -1.8000200E-01;1190; -2.1260321E-02;  0.0000000E+00; -1.1056237E-03;  1.0003942E+03;  4.0000001E-01;  3.2650925E+02;3; -7.8823671E+00;  0.0000000E+00; -5.0159168E-01;0; -1.7740808E-01;  1.0008199E+04;  0.0000000E+00; -7.0604972E-07;  1.0000000E+04;  0.0000000E+00;  9.9996885E+03; -1.8334192E-01;  0.0000000E+00;  5.9338417E-03;  1.7923929E+02;
  9.9957623E-02;  9.9999998E-03; -1.6000164E-01;1191; -2.1699362E-02;  0.0000000E+00; -9.4881054E-04;  1.0003993E+03;  4.0000001E-01;  3.3085480E+02;3; -8.1086617E+00;  0.0000000E+00; -4.5986044E-01;0; -1.8015862E-01;  1.0008295E+04;  0.0000000E+00;  1.0730390E-07;  1.0000000E+04;  0.0000000E+00;  9.9996943E+03; -1.8636397E-01;  0.0000000E+00;  6.2053516E-03;  1.7672876E+02;
  9.9957317E-02;  9.9999998E-03; -1.4000131E-01;1192; -2.1940636E-02;  0.0000000E+00; -7.9772720E-04;  1.0004017E+03;  4.0000001E-01;  3.3283005E+02;3; -8.2701769E+00;  0.0000000E+00; -4.1278893E-01;0; -1.8159090E-01;  1.0008325E+04;  0.0000000E+00;  1.6887178E-07;  1.0000000E+04;  0.0000000E+00;  9.9997119E+03; -1.8785529E-01;  0.0000000E+00;  6.2643909E-03;  1.6814815E+02;
  9.9957272E-02;  9.9999998E-03; -1.2000102E-01;1193; -2.2048393E-02;  0.0000000E+00; -6.5704435E-04;  1.0004021E+03;  4.0000001E-01;  3.3312634E+02;3; -8.3817301E+00;  0.0000000E+00; -3.6163628E-01;0; -1.8218961E-01;  1.0008313E+04;  0.0000000E+00;  8.0062911E-08;  1.0000000E+04;  0.0000000E+00;  9.9997344E+03; -1.8836482E-01;  0.0000000E+00;  6.1752070E-03;  1.5636714E+02;
  9.9957384E-02;  9.9999998E-03; -1.0000077E-01;1194; -2.2072036E-02;  0.0000000E+00; -5.2695925E-04;  1.0004017E+03;  4.0000001E-01;  3.3283005E+02;3; -8.4577055E+00;  0.0000000E+00; -3.0701858E-01;0; -1.8232906E-01;  1.0008272E+04;  0.0000000E+00;  2.1068868E-08;  1.0000000E+04;  0.0000000E+00;  9.9997637E+03; -1.8829021E-01;  0.0000000E+00;  5.9611523E-03;  1.4283595E+02;
  9.9957556E-02;  9.9999998E-03; -8.0000564E-02;1195; -2.2048539E-02;  0.0000000E+00; -4.0756923E-04;  1.0004008E+03;  4.0000001E-01;  3.3203995E+02;3; -8.5083055E+00;  0.0000000E+00; -2.5004026E-01;0; -1.8223478E-01;  1.0008226E+04;  0.0000000E+00;  1.3445497E-09;  1.0000000E+04;  0.0000000E+00;  9.9997891E+03; -1.8792063E-01;  0.0000000E+00;  5.6858547E-03;  1.2936072E+02;
  9.9957749E-02;  9.9999998E-03; -6.0000390E-02;1196; -2.2005161E-02;  0.0000000E+00; -2.9697164E-04;  1.0003996E+03;  4.0000001E-01;  3.3105231E+02;3; -8.5409498E+00;  0.0000000E+00; -1.8977074E-01;0; -1.8204692E-01;  1.0008179E+04;  0.0000000E+00; -1.9895792E-09;  1.0000000E+04;  0.0000000E+00;  9.9998135E+03; -1.8745881E-01;  0.0000000E+00;  5.4118945E-03;  1.1747905E+02;
  9.9957913E-02;  9.9999998E-03; -4.0000245E-02;1197; -2.1961151E-02;  0.0000000E+00; -1.9389758E-04;  1.0003988E+03;  4.0000001E-01;  3.3036096E+02;3; -8.5606842E+00;  0.0000000E+00; -1.2758605E-01;0; -1.8185586E-01;  1.0008146E+04;  0.0000000E+00; -1.2272603E-09;  1.0000000E+04;  0.0000000E+00;  9.9998320E+03; -1.8704237E-01;  0.0000000E+00;  5.1865173E-03;  1.0829639E+02;
  9.9958017E-02;  9.9999998E-03; -2.0000119E-02;1198; -2.1929627E-02;  0.0000000E+00; -9.5760064E-05;  1.0003982E+03;  4.0000001E-01;  3.2986716E+02;3; -8.5710649E+00;  0.0000000E+00; -6.4360850E-02;0; -1.8171935E-01;  1.0008121E+04;  0.0000000E+00; -1.9240275E-10;  1.0000000E+04;  0.0000000E+00;  9.9998447E+03; -1.8675967E-01;  0.0000000E+00;  5.0403168E-03;  1.0252634E+02;
  1.1994983E-01;  9.9999998E-03; -1.8000196E-01;1221; -2.5201386E-02;  0.0000000E+00; -1.0550037E-03;  1.0004443E+03;  4.0000001E-01;  3.6808829E+02;3; -9.1355562E+00;  0.0000000E+00; -4.7281897E-01;0; -1.9494246E-01;  1.0009199E+04;  0.0000000E+00; -1.9588392E-06;  1.0000000E+04;  0.0000000E+00;  9.9996865E+03; -2.0041421E-01;  0.0000000E+00;  5.4717581E-03;  1.8484328E+02;
  1.1994914E-01;  9.9999998E-03; -1.6000162E-01;1222; -2.5663694E-02;  0.0000000E+00; -9.2081440E-04;  1.0004479E+03;  4.0000001E-01;  3.7114993E+02;3; -9.3835678E+00;  0.0000000E+00; -4.4368201E-01;0; -1.9708076E-01;  1.0009271E+04;  0.0000000E+00; -2.3747823E-07;  1.0000000E+04;  0.0000000E+00;  9.9996885E+03; -2.0293573E-01;  0.0000000E+00;  5.8549680E-03;  1.8287883E+02;
  1.1994888E-01;  9.9999998E-03; -1.4000130E-01;1223; -2.5907099E-02;  0.0000000E+00; -7.8769086E-04;  1.0004489E+03;  4.0000001E-01;  3.7194003E+02;3; -9.5619268E+00;  0.0000000E+00; -4.0553910E-01;0; -1.9789158E-01;  1.0009278E+04;  0.0000000E+00;  1.2190819E-07;  1.0000000E+04;  0.0000000E+00;  9.9997031E+03; -2.0400672E-01;  0.0000000E+00;  6.1151395E-03;  1.7607034E+02;
  1.1994890E-01;  9.9999998E-03; -1.2000102E-01;1224; -2.6005818E-02;  0.0000000E+00; -6.5725192E-04;  1.0004481E+03;  4.0000001E-01;  3.7124872E+02;3; -9.6866474E+00;  0.0000000E+00; -3.6065847E-01;0; -1.9792864E-01;  1.0009241E+04;  0.0000000E+00;  8.5894051E-08;  1.0000000E+04;  0.0000000E+00;  9.9997227E+03; -2.0417960E-01;  0.0000000E+00;  6.2509649E-03;  1.6639388E+02;
  1.1994908E-01;  9.9999998E-03; -1.0000078E-01;1225; -2.6014781E-02;  0.0000000E+00; -5.3471496E-04;  1.0004462E+03;  4.0000001E-01;  3.6966849E+02;3; -9.7731342E+00;  0.0000000E+00; -3.1029993E-01;0; -1.9760445E-01;  1.0009182E+04;  0.0000000E+00;  2.6735378E-08;  1.0000000E+04;  0.0000000E+00;  9.9997432E+03; -2.0384322E-01;  0.0000000E+00;  6.2387753E-03;  1.5463283E+02;
  1.1994933E-01;  9.9999998E-03; -8.0000579E-02;1226; -2.5975466E-02;  0.0000000E+00; -4.1851250E-04;  1.0004443E+03;  4.0000001E-01;  3.6808829E+02;3; -9.8322649E+00;  0.0000000E+00; -2.5528660E-01;0; -1.9715199E-01;  1.0009120E+04;  0.0000000E+00;  2.0087187E-09;  1.0000000E+04;  0.0000000E+00;  9.9997695E+03; -2.0327665E-01;  0.0000000E+00;  6.1246594E-03;  1.4241533E+02;
  1.1994958E-01;  9.9999998E-03; -6.0000405E-02;1227; -2.5917400E-02;  0.0000000E+00; -3.0852848E-04;  1.0004426E+03;  4.0000001E-01;  3.6670563E+02;3; -9.8715010E+00;  0.0000000E+00; -1.9575185E-01;0; -1.9670297E-01;  1.0009063E+04;  0.0000000E+00; -2.7721401E-09;  1.0000000E+04;  0.0000000E+00;  9.9997949E+03; -2.0267227E-01;  0.0000000E+00;  5.9693041E-03;  1.3132971E+02;
  1.1994979E-01;  9.9999998E-03; -4.0000256E-02;1228; -2.5861658E-02;  0.0000000E+00; -2.0319490E-04;  1.0004412E+03;  4.0000001E-01;  3.6552048E+02;3; -9.8958588E+00;  0.0000000E+00; -1.3268185E-01;0; -1.9633563E-01;  1.0009019E+04;  0.0000000E+00; -1.8285071E-09;  1.0000000E+04;  0.0000000E+00;  9.9998096E+03; -2.0215970E-01;  0.0000000E+00;  5.8240695E-03;  1.2260421E+02;
  1.1994993E-01;  9.9999998E-03; -2.0000124E-02;1229; -2.5822619E-02;  0.0000000E+00; -1.0086172E-04;  1.0004403E+03;  4.0000001E-01;  3.6482913E+02;3; -9.9090099E+00;  0.0000000E+00; -6.6999905E-02;0; -1.9609722E-01;  1.0008991E+04;  0.0000000E+00; -8.3146839E-10;  1.0000000E+04;  0.0000000E+00;  9.9998203E+03; -2.0182131E-01;  0.0000000E+00;  5.7240911E-03;  1.1706225E+02;
  1.3994029E-01;  9.9999998E-03; -1.8000199E-01;1252; -2.9524181E-02;  0.0000000E+00; -1.0391237E-03;  1.0005025E+03;  4.0000001E-01;  4.1628445E+02;3; -1.0500635E+01;  0.0000000E+00; -4.5601898E-01;0; -2.1487994E-01;  1.0010377E+04;  0.0000000E+00; -3.2167380E-05;  1.0000000E+04;  0.0000000E+00;  9.9996758E+03; -2.2000916E-01;  0.0000000E+00;  5.1292148E-03;  1.9523805E+02;
  1.3993962E-01;  9.9999998E-03; -1.6000168E-01;1253; -2.9997189E-02;  0.0000000E+00; -9.3318732E-04;  1.0005044E+03;  4.0000001E-01;  4.1786465E+02;3; -1.0769216E+01;  0.0000000E+00; -4.4122490E-01;0; -2.1629675E-01;  1.0010415E+04;  0.0000000E+00; -5.3984519E-07;  1.0000000E+04;  0.0000000E+00;  9.9996748E+03; -2.2195934E-01;  0.0000000E+00;  5.6625837E-03;  1.9416098E+02;
  1.3993943E-01;  9.9999998E-03; -1.4000137E-01;1254; -3.0233053E-02;  0.0000000E+00; -8.1762177E-04;  1.0005035E+03;  4.0000001E-01;  4.1707455E+02;3; -1.0963851E+01;  0.0000000E+00; -4.1273218E-01;0; -2.1641679E-01;  1.0010388E+04;  0.0000000E+00;  1.2097928E-07;  1.0000000E+04;  0.0000000E+00;  9.9996846E+03; -2.2259639E-01;  0.0000000E+00;  6.1795996E-03;  1.8986496E+02;
  1.3993955E-01;  9.9999998E-03; -1.2000110E-01;1255; -3.0314777E-02;  0.0000000E+00; -6.9666735E-04;  1.0005011E+03;  4.0000001E-01;  4.1519806E+02;3; -1.1101583E+01;  0.0000000E+00; -3.7363300E-01;0; -2.1584553E-01;  1.0010327E+04;  0.0000000E+00;  1.1646478E-07;  1.0000000E+04;  0.0000000E+00;  9.9996943E+03; -2.2244151E-01;  0.0000000E+00;  6.5959836E-03;  1.8303400E+02;
  1.3993981E-01;  9.9999998E-03; -1.0000086E-01;1256; -3.0303396E-02;  0.0000000E+00; -5.7611242E-04;  1.0004981E+03;  4.0000001E-01;  4.1263025E+02;3; -1.1198866E+01;  0.0000000E+00; -3.2595107E-01;0; -2.1502627E-01;  1.0010250E+04;  0.0000000E+00;  4.2639197E-08;  1.0000000E+04;  0.0000000E+00;  9.9997129E+03; -2.2185792E-01;  0.0000000E+00;  6.8316460E-03;  1.7359711E+02;
  1.3994016E-01;  9.9999998E-03; -8.0000639E-02;1257; -3.0243948E-02;  0.0000000E+00; -4.5727610E-04;  1.0004952E+03;  4.0000001E-01;  4.1025995E+02;3; -1.1266946E+01;  0.0000000E+00; -2.7053231E-01;0; -2.1419565E-01;  1.0010171E+04;  0.0000000E+00;  6.2813590E-09;  1.0000000E+04;  0.0000000E+00;  9.9997324E+03; -2.2110735E-01;  0.0000000E+00;  6.9116987E-03;  1.6296864E+02;
  1.3994049E-01;  9.9999998E-03; -6.0000457E-02;1258; -3.0168265E-02;  0.0000000E+00; -3.4103563E-04;  1.0004927E+03;  4.0000001E-01;  4.0818591E+02;3; -1.1313235E+01;  0.0000000E+00; -2.0898153E-01;0; -2.1347368E-01;  1.0010101E+04;  0.0000000E+00; -1.4292418E-09;  1.0000000E+04;  0.0000000E+00;  9.9997549E+03; -2.2036967E-01;  0.0000000E+00;  6.8959873E-03;  1.5283586E+02;
  1.3994075E-01;  9.9999998E-03; -4.0000293E-02;1259; -3.0098919E-02;  0.0000000E+00; -2.2654889E-04;  1.0004907E+03;  4.0000001E-01;  4.0650696E+02;3; -1.1342736E+01;  0.0000000E+00; -1.4255528E-01;0; -2.1292326E-01;  1.0010045E+04;  0.0000000E+00; -2.0401429E-09;  1.0000000E+04;  0.0000000E+00;  9.9997715E+03; -2.1976613E-01;  0.0000000E+00;  6.8428600E-03;  1.4461833E+02;
  1.3994092E-01;  9.9999998E-03; -2.0000143E-02;1260; -3.0051278E-02;  0.0000000E+00; -1.1305981E-04;  1.0004896E+03;  4.0000001E-01;  4.0561810E+02;3; -1.1359009E+01;  0.0000000E+00; -7.2293565E-02;0; -2.1257976E-01;  1.0010013E+04;  0.0000000E+00; -5.2853838E-10;  1.0000000E+04;  0.0000000E+00;  9.9997783E+03; -2.1937460E-01;  0.0000000E+00;  6.7948364E-03;  1.3930893E+02;
  1.5992947E-01;  9.9999998E-03; -1.8000220E-01;1283; -3.4293983E-02;  0.0000000E+00; -1.1170766E-03;  1.0005678E+03;  4.0000001E-01;  4.7040637E+02;3; -1.1962152E+01;  0.0000000E+00; -4.7218490E-01;0; -2.3659234E-01;  1.0011722E+04;  0.0000000E+00; -2.5895936E-04;  1.0000000E+04;  0.0000000E+00;  9.9996406E+03; -2.4188776E-01;  0.0000000E+00;  5.2954326E-03;  2.1895477E+02;
  1.5992887E-01;  9.9999998E-03; -1.6000190E-01;1284; -3.4766071E-02;  0.0000000E+00; -1.0363519E-03;  1.0005680E+03;  4.0000001E-01;  4.7060391E+02;3; -1.2250414E+01;  0.0000000E+00; -4.7056445E-01;0; -2.3717637E-01;  1.0011721E+04;  0.0000000E+00; -7.7893225E-07;  1.0000000E+04;  0.0000000E+00;  9.9996396E+03; -2.4313976E-01;  0.0000000E+00;  5.9633804E-03;  2.1757066E+02;
  1.5992878E-01;  9.9999998E-03; -1.4000161E-01;1285; -3.4985971E-02;  0.0000000E+00; -9.3283935E-04;  1.0005653E+03;  4.0000001E-01;  4.6833237E+02;3; -1.2461546E+01;  0.0000000E+00; -4.5016253E-01;0; -2.3657268E-01;  1.0011664E+04;  0.0000000E+00;  1.6856113E-07;  1.0000000E+04;  0.0000000E+00;  9.9996416E+03; -2.4333154E-01;  0.0000000E+00;  6.7588463E-03;  2.1559665E+02;
  1.5992902E-01;  9.9999998E-03; -1.2000132E-01;1286; -3.5044491E-02;  0.0000000E+00; -8.1161526E-04;  1.0005610E+03;  4.0000001E-01;  4.6477692E+02;3; -1.2613162E+01;  0.0000000E+00; -4.1372213E-01;0; -2.3538049E-01;  1.0011575E+04;  0.0000000E+00;  1.7959054E-07;  1.0000000E+04;  0.0000000E+00;  9.9996455E+03; -2.4286857E-01;  0.0000000E+00;  7.4880836E-03;  2.1172902E+02;
  1.5992941E-01;  9.9999998E-03; -1.0000104E-01;1287; -3.5007857E-02;  0.0000000E+00; -6.8167178E-04;  1.0005568E+03;  4.0000001E-01;  4.6132022E+02;3; -1.2722241E+01;  0.0000000E+00; -3.6470568E-01;0; -2.3406777E-01;  1.0011477E+04;  0.0000000E+00;  7.0748548E-08;  1.0000000E+04;  0.0000000E+00;  9.9996611E+03; -2.4206711E-01;  0.0000000E+00;  7.9993512E-03;  2.0468904E+02;
  1.5992986E-01;  9.9999998E-03; -8.0000803E-02;1288; -3.4924440E-02;  0.0000000E+00; -5.4736569E-04;  1.0005528E+03;  4.0000001E-01;  4.5796228E+02;3; -1.2800337E+01;  0.0000000E+00; -3.0476028E-01;0; -2.3286760E-01;  1.0011381E+04;  0.0000000E+00;  1.7051073E-08;  1.0000000E+04;  0.0000000E+00;  9.9996748E+03; -2.4115896E-01;  0.0000000E+00;  8.2913702E-03;  1.9557884E+02;
  1.5993027E-01;  9.9999998E-03; -6.0000576E-02;1289; -3.4828253E-02;  0.0000000E+00; -4.1164804E-04;  1.0005493E+03;  4.0000001E-01;  4.5509818E+02;3; -1.2854610E+01;  0.0000000E+00; -2.3641756E-01;0; -2.3188365E-01;  1.0011298E+04;  0.0000000E+00;  1.1654069E-09;  1.0000000E+04;  0.0000000E+00;  9.9996914E+03; -2.4030763E-01;  0.0000000E+00;  8.4239813E-03;  1.8622632E+02;
  1.5993060E-01;  9.9999998E-03; -4.0000375E-02;1290; -3.4743264E-02;  0.0000000E+00; -2.7509246E-04;  1.0005469E+03;  4.0000001E-01;  4.5312292E+02;3; -1.2889950E+01;  0.0000000E+00; -1.6152769E-01;0; -2.3115997E-01;  1.0011232E+04;  0.0000000E+00; -1.4226111E-09;  1.0000000E+04;  0.0000000E+00;  9.9997080E+03; -2.3962577E-01;  0.0000000E+00;  8.4658014E-03;  1.7832129E+02;
  1.5993083E-01;  9.9999998E-03; -2.0000184E-02;1291; -3.4685832E-02;  0.0000000E+00; -1.3775496E-04;  1.0005455E+03;  4.0000001E-01;  4.5193777E+02;3; -1.2909765E+01;  0.0000000E+00; -8.2009092E-02;0; -2.3071799E-01;  1.0011193E+04;  0.0000000E+00; -3.7245892E-10;  1.0000000E+04;  0.0000000E+00;  9.9997168E+03; -2.3918788E-01;  0.0000000E+00;  8.4698955E-03;  1.7309599E+02;
  1.7991725E-01;  9.9999998E-03; -1.8000273E-01;1314; -3.9534718E-02;  0.0000000E+00; -1.3625366E-03;  1.0006403E+03;  4.0000001E-01;  5.3045404E+02;3; -1.3508302E+01;  0.0000000E+00; -5.4446250E-01;0; -2.5950819E-01;  1.0013259E+04;  0.0000000E+00; -7.6967583E-04;  1.0000000E+04;  0.0000000E+00;  9.9995508E+03; -2.6599884E-01;  0.0000000E+00;  6.4906571E-03;  2.6788406E+02;
  1.7991675E-01;  9.9999998E-03; -1.6000243E-01;1315; -3.9996114E-02;  0.0000000E+00; -1.2900601E-03;  1.0006381E+03;  4.0000001E-01;  5.2857758E+02;3; -1.3815447E+01;  0.0000000E+00; -5.5269337E-01;0; -2.5923666E-01;  1.0013204E+04;  0.0000000E+00; -3.4590296E-06;  1.0000000E+04;  0.0000000E+00;  9.9995576E+03; -2.6642990E-01;  0.0000000E+00;  7.1932282E-03;  2.6260843E+02;
  1.7991680E-01;  9.9999998E-03; -1.4000210E-01;1316; -4.0194158E-02;  0.0000000E+00; -1.1813443E-03;  1.0006334E+03;  4.0000001E-01;  5.2472583E+02;3; -1.4044339E+01;  0.0000000E+00; -5.3524858E-01;0; -2.5796849E-01;  1.0013110E+04;  0.0000000E+00;  2.8248596E-07;  1.0000000E+04;  0.0000000E+00;  9.9995586E+03; -2.6617891E-01;  0.0000000E+00;  8.2104271E-03;  2.6079706E+02;
  1.7991717E-01;  9.9999998E-03; -1.2000175E-01;1317; -4.0225651E-02;  0.0000000E+00; -1.0407489E-03;  1.0006275E+03;  4.0000001E-01;  5.1988647E+02;3; -1.4212001E+01;  0.0000000E+00; -4.9503538E-01;0; -2.5621328E-01;  1.0012995E+04;  0.0000000E+00;  2.7144208E-07;  1.0000000E+04;  0.0000000E+00;  9.9995557E+03; -2.6544335E-01;  0.0000000E+00;  9.2300912E-03;  2.5868921E+02;
  1.7991771E-01;  9.9999998E-03; -1.0000141E-01;1318; -4.0160552E-02;  0.0000000E+00; -8.8143989E-04;  1.0006219E+03;  4.0000001E-01;  5.1524463E+02;3; -1.4335182E+01;  0.0000000E+00; -4.3686137E-01;0; -2.5445983E-01;  1.0012872E+04;  0.0000000E+00;  1.1554493E-07;  1.0000000E+04;  0.0000000E+00;  9.9995664E+03; -2.6446825E-01;  0.0000000E+00;  1.0008417E-02;  2.5323804E+02;
  1.7991827E-01;  9.9999998E-03; -8.0001093E-02;1319; -4.0050276E-02;  0.0000000E+00; -7.1191054E-04;  1.0006168E+03;  4.0000001E-01;  5.1099780E+02;3; -1.4425070E+01;  0.0000000E+00; -3.6495188E-01;0; -2.5293738E-01;  1.0012760E+04;  0.0000000E+00;  3.4033430E-08;  1.0000000E+04;  0.0000000E+00;  9.9995771E+03; -2.6344323E-01;  0.0000000E+00;  1.0505869E-02;  2.4496962E+02;
  1.7991880E-01;  9.9999998E-03; -6.0000800E-02;1320; -3.9931100E-02;  0.0000000E+00; -5.3737068E-04;  1.0006129E+03;  4.0000001E-01;  5.0773865E+02;3; -1.4488698E+01;  0.0000000E+00; -2.8287777E-01;0; -2.5172967E-01;  1.0012662E+04;  0.0000000E+00;  5.8967302E-09;  1.0000000E+04;  0.0000000E+00;  9.9995977E+03; -2.6250914E-01;  0.0000000E+00;  1.0779479E-02;  2.3580457E+02;
  1.7991921E-01;  9.9999998E-03; -4.0000521E-02;1321; -3.9828576E-02;  0.0000000E+00; -3.6007378E-04;  1.0006097E+03;  4.0000001E-01;  5.0517081E+02;3; -1.4530677E+01;  0.0000000E+00; -1.9354896E-01;0; -2.5086066E-01;  1.0012587E+04;  0.0000000E+00;  8.9775415E-10;  1.0000000E+04;  0.0000000E+00;  9.9996123E+03; -2.6176971E-01;  0.0000000E+00;  1.0909043E-02;  2.2773697E+02;
  1.7991947E-01;  9.9999998E-03; -2.0000257E-02;1322; -3.9760165E-02;  0.0000000E+00; -1.8063984E-04;  1.0006080E+03;  4.0000001E-01;  5.0378815E+02;3; -1.4554469E+01;  0.0000000E+00; -9.8405711E-02;0; -2.5033727E-01;  1.0012540E+04;  0.0000000E+00;  1.4842369E-10;  1.0000000E+04;  0.0000000E+00;  9.9996221E+03; -2.6129732E-01;  0.0000000E+00;  1.0960050E-02;  2.2228700E+02;
  1.9990347E-01;  9.9999998E-03; -1.8000375E-01;1345; -4.5261659E-02;  0.0000000E+00; -1.8362046E-03;  1.0007186E+03;  4.0000001E-01;  5.9534113E+02;3; -1.5124394E+01;  0.0000000E+00; -6.9097656E-01;0; -2.8302425E-01;  1.0014997E+04;  0.0000000E+00; -1.3454113E-03;  1.0000000E+04;  0.0000000E+00;  9.9993789E+03; -2.9230657E-01;  0.0000000E+00;  9.2823124E-03;  3.5547888E+02;
  1.9990312E-01;  9.9999998E-03; -1.6000336E-01;1346; -4.5705441E-02;  0.0000000E+00; -1.7519341E-03;  1.0007144E+03;  4.0000001E-01;  5.9178564E+02;3; -1.5452264E+01;  0.0000000E+00; -7.0621622E-01;0; -2.8206924E-01;  1.0014886E+04;  0.0000000E+00; -1.2380165E-05;  1.0000000E+04;  0.0000000E+00;  9.9994082E+03; -2.9190013E-01;  0.0000000E+00;  9.8308856E-03;  3.4020258E+02;
  1.9990332E-01;  9.9999998E-03; -1.4000292E-01;1347; -4.5879535E-02;  0.0000000E+00; -1.6102437E-03;  1.0007081E+03;  4.0000001E-01;  5.8664996E+02;3; -1.5702692E+01;  0.0000000E+00; -6.8407971E-01;0; -2.8031749E-01;  1.0014751E+04;  0.0000000E+00;  4.0013487E-07;  1.0000000E+04;  0.0000000E+00;  9.9994180E+03; -2.9123327E-01;  0.0000000E+00;  1.0915783E-02;  3.3390134E+02;
  1.9990388E-01;  9.9999998E-03; -1.2000246E-01;1348; -4.5883518E-02;  0.0000000E+00; -1.4206357E-03;  1.0007010E+03;  4.0000001E-01;  5.8072424E+02;3; -1.5890714E+01;  0.0000000E+00; -6.2973714E-01;0; -2.7815163E-01;  1.0014605E+04;  0.0000000E+00;  3.5720302E-07;  1.0000000E+04;  0.0000000E+00;  9.9994189E+03; -2.9027748E-01;  0.0000000E+00;  1.2125847E-02;  3.3048080E+02;
  1.9990456E-01;  9.9999998E-03; -1.0000201E-01;1349; -4.5789257E-02;  0.0000000E+00; -1.2029676E-03;  1.0006939E+03;  4.0000001E-01;  5.7489722E+02;3; -1.6031622E+01;  0.0000000E+00; -5.5285954E-01;0; -2.7607629E-01;  1.0014458E+04;  0.0000000E+00;  1.6174803E-07;  1.0000000E+04;  0.0000000E+00;  9.9994268E+03; -2.8918627E-01;  0.0000000E+00;  1.3109968E-02;  3.2454932E+02;
  1.9990528E-01;  9.9999998E-03; -8.0001563E-02;1350; -4.5650709E-02;  0.0000000E+00; -9.7125984E-04;  1.0006881E+03;  4.0000001E-01;  5.7005786E+02;3; -1.6135981E+01;  0.0000000E+00; -4.5963949E-01;0; -2.7432162E-01;  1.0014329E+04;  0.0000000E+00;  5.3575977E-08;  1.0000000E+04;  0.0000000E+00;  9.9994404E+03; -2.8809512E-01;  0.0000000E+00;  1.3773514E-02;  3.1563376E+02;
  1.9990592E-01;  9.9999998E-03; -6.0001146E-02;1351; -4.5506887E-02;  0.0000000E+00; -7.3268788E-04;  1.0006835E+03;  4.0000001E-01;  5.6620612E+02;3; -1.6210873E+01;  0.0000000E+00; -3.5441738E-01;0; -2.7295703E-01;  1.0014215E+04;  0.0000000E+00;  1.2653687E-08;  1.0000000E+04;  0.0000000E+00;  9.9994580E+03; -2.8711873E-01;  0.0000000E+00;  1.4161700E-02;  3.0555371E+02;
  1.9990641E-01;  9.9999998E-03; -4.0000752E-02;1352; -4.5385379E-02;  0.0000000E+00; -4.9062085E-04;  1.0006801E+03;  4.0000001E-01;  5.6344080E+02;3; -1.6261007E+01;  0.0000000E+00; -2.4104773E-01;0; -2.7198881E-01;  1.0014127E+04;  0.0000000E+00;  3.0764225E-09;  1.0000000E+04;  0.0000000E+00;  9.9994756E+03; -2.8635028E-01;  0.0000000E+00;  1.4361481E-02;  2.9654233E+02;
  1.9990674E-01;  9.9999998E-03; -2.0000372E-02;1353; -4.5305017E-02;  0.0000000E+00; -2.4594733E-04;  1.0006780E+03;  4.0000001E-01;  5.6166302E+02;3; -1.6289585E+01;  0.0000000E+00; -1.2197859E-01;0; -2.7141047E-01;  1.0014073E+04;  0.0000000E+00;  2.0675631E-10;  1.0000000E+04;  0.0000000E+00;  9.9994893E+03; -2.8585979E-01;  0.0000000E+00;  1.4449328E-02;  2.9039667E+02;
  2.1988799E-01;  9.9999998E-03; -1.8000530E-01;1376; -5.1502910E-02;  0.0000000E+00; -2.5751751E-03;  1.0008019E+03;  4.0000001E-01;  6.6437616E+02;3; -1.6807283E+01;  0.0000000E+00; -9.2514348E-01;0; -3.0653867E-01;  1.0016940E+04;  0.0000000E+00; -1.5400924E-03;  1.0000000E+04;  0.0000000E+00;  9.9991074E+03; -3.2065222E-01;  0.0000000E+00;  1.4113533E-02;  4.9305753E+02;
  2.1988779E-01;  9.9999998E-03; -1.6000476E-01;1377; -5.1924217E-02;  0.0000000E+00; -2.4591053E-03;  1.0007966E+03;  4.0000001E-01;  6.6003064E+02;3; -1.7153929E+01;  0.0000000E+00; -9.4731361E-01;0; -3.0528146E-01;  1.0016772E+04;  0.0000000E+00; -1.3977636E-05;  1.0000000E+04;  0.0000000E+00;  9.9991680E+03; -3.1954458E-01;  0.0000000E+00;  1.4263131E-02;  4.5997830E+02;
  2.1988820E-01;  9.9999998E-03; -1.4000417E-01;1378; -5.2077774E-02;  0.0000000E+00; -2.2462478E-03;  1.0007894E+03;  4.0000001E-01;  6.5400610E+02;3; -1.7433590E+01;  0.0000000E+00; -9.0172946E-01;0; -3.0334079E-01;  1.0016597E+04;  0.0000000E+00;  4.0993740E-07;  1.0000000E+04;  0.0000000E+00;  9.9992031E+03; -3.1853336E-01;  0.0000000E+00;  1.5192566E-02;  4.4259119E+02;
  2.1988893E-01;  9.9999998E-03; -1.2000352E-01;1379; -5.2056894E-02;  0.0000000E+00; -1.9719803E-03;  1.0007812E+03;  4.0000001E-01;  6.4719147E+02;3; -1.7647076E+01;  0.0000000E+00; -8.2112575E-01;0; -3.0100596E-01;  1.0016417E+04;  0.0000000E+00;  3.6549878E-07;  1.0000000E+04;  0.0000000E+00;  9.9992129E+03; -3.1743050E-01;  0.0000000E+00;  1.6424533E-02;  4.3300775E+02;
  2.1988979E-01;  9.9999998E-03; -1.0000287E-01;1380; -5.1934250E-02;  0.0000000E+00; -1.6641639E-03;  1.0007734E+03;  4.0000001E-01;  6.4077191E+02;3; -1.7810265E+01;  0.0000000E+00; -7.1251780E-01;0; -2.9878974E-01;  1.0016245E+04;  0.0000000E+00;  1.7355509E-07;  1.0000000E+04;  0.0000000E+00;  9.9992305E+03; -3.1629130E-01;  0.0000000E+00;  1.7501578E-02;  4.2320956E+02;
  2.1989067E-01;  9.9999998E-03; -8.0002241E-02;1381; -5.1767264E-02;  0.0000000E+00; -1.3394286E-03;  1.0007667E+03;  4.0000001E-01;  6.3524121E+02;3; -1.7932455E+01;  0.0000000E+00; -5.8650327E-01;0; -2.9693374E-01;  1.0016093E+04;  0.0000000E+00;  6.1514527E-08;  1.0000000E+04;  0.0000000E+00;  9.9992529E+03; -3.1519368E-01;  0.0000000E+00;  1.8259937E-02;  4.1129752E+02;
  2.1989144E-01;  9.9999998E-03; -6.0001649E-02;1382; -5.1597822E-02;  0.0000000E+00; -1.0086666E-03;  1.0007617E+03;  4.0000001E-01;  6.3109314E+02;3; -1.8020788E+01;  0.0000000E+00; -4.4878229E-01;0; -2.9550302E-01;  1.0015968E+04;  0.0000000E+00;  1.7413969E-08;  1.0000000E+04;  0.0000000E+00;  9.9992744E+03; -3.1422225E-01;  0.0000000E+00;  1.8719235E-02;  3.9868060E+02;
  2.1989205E-01;  9.9999998E-03; -4.0001083E-02;1383; -5.1456239E-02;  0.0000000E+00; -6.7456171E-04;  1.0007579E+03;  4.0000001E-01;  6.2793274E+02;3; -1.8080250E+01;  0.0000000E+00; -3.0351946E-01;0; -2.9449514E-01;  1.0015868E+04;  0.0000000E+00;  1.2755074E-09;  1.0000000E+04;  0.0000000E+00;  9.9992930E+03; -3.1345895E-01;  0.0000000E+00;  1.8963821E-02;  3.8765228E+02;
  2.1989243E-01;  9.9999998E-03; -2.0000536E-02;1384; -5.1363181E-02;  0.0000000E+00; -3.3815997E-04;  1.0007557E+03;  4.0000001E-01;  6.2605627E+02;3; -1.8114298E+01;  0.0000000E+00; -1.5278731E-01;0; -2.9389650E-01;  1.0015812E+04;  0.0000000E+00;  1.8156574E-09;  1.0000000E+04;  0.0000000E+00;  9.9993096E+03; -3.1297180E-01;  0.0000000E+00;  1.9075310E-02;  3.8019482E+02;
  2.3987056E-01;  9.9999998E-03; -1.8000747E-01;1407; -5.8292639E-02;  0.0000000E+00; -3.6422284E-03;  1.0008904E+03;  4.0000001E-01;  7.3775677E+02;3; -1.8543913E+01;  0.0000000E+00; -1.3018885E+00;0; -3.2976779E-01;  1.0019103E+04;  0.0000000E+00; -1.1426888E-03;  1.0000000E+04;  0.0000000E+00;  9.9987119E+03; -3.5086095E-01;  0.0000000E+00;  2.1093162E-02;  6.8544788E+02;
  2.3987058E-01;  9.9999998E-03; -1.6000670E-01;1408; -5.8698162E-02;  0.0000000E+00; -3.4170102E-03;  1.0008850E+03;  4.0000001E-01;  7.3321375E+02;3; -1.8925735E+01;  0.0000000E+00; -1.2637397E+00;0; -3.2868633E-01;  1.0018880E+04;  0.0000000E+00; -4.0150881E-06;  1.0000000E+04;  0.0000000E+00;  9.9988330E+03; -3.4931469E-01;  0.0000000E+00;  2.0628365E-02;  6.2706757E+02;
  2.3987119E-01;  9.9999998E-03; -1.4000584E-01;1409; -5.8835600E-02;  0.0000000E+00; -3.0934198E-03;  1.0008776E+03;  4.0000001E-01;  7.2709045E+02;3; -1.9237085E+01;  0.0000000E+00; -1.1834680E+00;0; -3.2690600E-01;  1.0018661E+04;  0.0000000E+00;  2.3984526E-07;  1.0000000E+04;  0.0000000E+00;  9.9989014E+03; -3.4809029E-01;  0.0000000E+00;  2.1184284E-02;  5.9165137E+02;
  2.3987213E-01;  9.9999998E-03; -1.2000492E-01;1410; -5.8792021E-02;  0.0000000E+00; -2.7056546E-03;  1.0008689E+03;  4.0000001E-01;  7.1988074E+02;3; -1.9480436E+01;  0.0000000E+00; -1.0723505E+00;0; -3.2469240E-01;  1.0018448E+04;  0.0000000E+00;  2.3193171E-07;  1.0000000E+04;  0.0000000E+00;  9.9989395E+03; -3.4694228E-01;  0.0000000E+00;  2.2249866E-02;  5.7019250E+02;
  2.3987320E-01;  9.9999998E-03; -1.0000402E-01;1411; -5.8644313E-02;  0.0000000E+00; -2.2721407E-03;  1.0008607E+03;  4.0000001E-01;  7.1306616E+02;3; -1.9670544E+01;  0.0000000E+00; -9.2206877E-01;0; -3.2255548E-01;  1.0018254E+04;  0.0000000E+00;  1.2368457E-07;  1.0000000E+04;  0.0000000E+00;  9.9989707E+03; -3.4583858E-01;  0.0000000E+00;  2.3283103E-02;  5.5227899E+02;
  2.3987426E-01;  9.9999998E-03; -8.0003142E-02;1412; -5.8450617E-02;  0.0000000E+00; -1.8249648E-03;  1.0008539E+03;  4.0000001E-01;  7.0743665E+02;3; -1.9815647E+01;  0.0000000E+00; -7.5277859E-01;0; -3.2075304E-01;  1.0018081E+04;  0.0000000E+00;  4.7780102E-08;  1.0000000E+04;  0.0000000E+00;  9.9990039E+03; -3.4480199E-01;  0.0000000E+00;  2.4048962E-02;  5.3438965E+02;
  2.3987518E-01;  9.9999998E-03; -6.0002312E-02;1413; -5.8256276E-02;  0.0000000E+00; -1.3729938E-03;  1.0008483E+03;  4.0000001E-01;  7.0279486E+02;3; -1.9920383E+01;  0.0000000E+00; -5.7615495E-01;0; -3.1936213E-01;  1.0017937E+04;  0.0000000E+00;  1.3701016E-08;  1.0000000E+04;  0.0000000E+00;  9.9990352E+03; -3.4389076E-01;  0.0000000E+00;  2.4528628E-02;  5.1722211E+02;
  2.3987590E-01;  9.9999998E-03; -4.0001519E-02;1414; -5.8094844E-02;  0.0000000E+00; -9.1626984E-04;  1.0008442E+03;  4.0000001E-01;  6.9943689E+02;3; -1.9991264E+01;  0.0000000E+00; -3.8978013E-01;0; -3.1838381E-01;  1.0017833E+04;  0.0000000E+00;  3.9687698E-09;  1.0000000E+04;  0.0000000E+00;  9.9990615E+03; -3.4317479E-01;  0.0000000E+00;  2.4790971E-02;  5.0289130E+02;
  2.3987634E-01;  9.9999998E-03; -2.0000752E-02;1415; -5.7989184E-02;  0.0000000E+00; -4.5821178E-04;  1.0008419E+03;  4.0000001E-01;  6.9756042E+02;3; -2.0032330E+01;  0.0000000E+00; -1.9596119E-01;0; -3.1780320E-01;  1.0017763E+04;  0.0000000E+00; -7.8071505E-10;  1.0000000E+04;  0.0000000E+00;  9.9990791E+03; -3.4271657E-01;  0.0000000E+00;  2.4913365E-02;  4.9340704E+02;
  2.5985098E-01;  9.9999998E-03; -1.8001041E-01;1438; -6.5688007E-02;  0.0000000E+00; -5.0551845E-03;  1.0009851E+03;  4.0000001E-01;  8.1617426E+02;3; -2.0347006E+01;  0.0000000E+00; -1.7577673E+00;0; -3.5292321E-01;  1.0021488E+04;  0.0000000E+00; -4.7986704E-04;  1.0000000E+04;  0.0000000E+00;  9.9982227E+03; -3.8278702E-01;  0.0000000E+00;  2.9863805E-02;  9.2818622E+02;
  2.5985122E-01;  9.9999998E-03; -1.6000919E-01;1439; -6.6082105E-02;  0.0000000E+00; -4.6366528E-03;  1.0009804E+03;  4.0000001E-01;  8.1222375E+02;3; -2.0764336E+01;  0.0000000E+00; -1.6625822E+00;0; -3.5241282E-01;  1.0021219E+04;  0.0000000E+00;  5.2686750E-07;  1.0000000E+04;  0.0000000E+00;  9.9984004E+03; -3.8113245E-01;  0.0000000E+00;  2.8719649E-02;  8.4004169E+02;
  2.5985208E-01;  9.9999998E-03; -1.4000796E-01;1440; -6.6204563E-02;  0.0000000E+00; -4.1502034E-03;  1.0009734E+03;  4.0000001E-01;  8.0639679E+02;3; -2.1113440E+01;  0.0000000E+00; -1.5302564E+00;0; -3.5111159E-01;  1.0020964E+04;  0.0000000E+00; -6.0831148E-08;  1.0000000E+04;  0.0000000E+00;  9.9985166E+03; -3.7989548E-01;  0.0000000E+00;  2.8783878E-02;  7.8135822E+02;
  2.5985324E-01;  9.9999998E-03; -1.2000670E-01;1441; -6.6144250E-02;  0.0000000E+00; -3.6093560E-03;  1.0009651E+03;  4.0000001E-01;  7.9958215E+02;3; -2.1396559E+01;  0.0000000E+00; -1.3568164E+00;0; -3.4929591E-01;  1.0020721E+04;  0.0000000E+00; -2.4411211E-08;  1.0000000E+04;  0.0000000E+00;  9.9985918E+03; -3.7884226E-01;  0.0000000E+00;  2.9546352E-02;  7.4288745E+02;
  2.5985456E-01;  9.9999998E-03; -1.0000546E-01;1442; -6.5973386E-02;  0.0000000E+00; -3.0327756E-03;  1.0009567E+03;  4.0000001E-01;  7.9266876E+02;3; -2.1619110E+01;  0.0000000E+00; -1.1621460E+00;0; -3.4745413E-01;  1.0020502E+04;  0.0000000E+00;  3.0079367E-10;  1.0000000E+04;  0.0000000E+00;  9.9986455E+03; -3.7787643E-01;  0.0000000E+00;  3.0422296E-02;  7.1262061E+02;
  2.5985581E-01;  9.9999998E-03; -8.0004275E-02;1443; -6.5754838E-02;  0.0000000E+00; -2.4369243E-03;  1.0009496E+03;  4.0000001E-01;  7.8674298E+02;3; -2.1787607E+01;  0.0000000E+00; -9.5443982E-01;0; -3.4586230E-01;  1.0020308E+04;  0.0000000E+00;  6.2292389E-09;  1.0000000E+04;  0.0000000E+00;  9.9986963E+03; -3.7698299E-01;  0.0000000E+00;  3.1120695E-02;  6.8562476E+02;
  2.5985691E-01;  9.9999998E-03; -6.0003147E-02;1444; -6.5537110E-02;  0.0000000E+00; -1.8298768E-03;  1.0009440E+03;  4.0000001E-01;  7.8210114E+02;3; -2.1909986E+01;  0.0000000E+00; -7.3231637E-01;0; -3.4461835E-01;  1.0020152E+04;  0.0000000E+00; -1.2664628E-09;  1.0000000E+04;  0.0000000E+00;  9.9987432E+03; -3.7619755E-01;  0.0000000E+00;  3.1579193E-02;  6.6176624E+02;
  2.5985774E-01;  9.9999998E-03; -4.0002067E-02;1445; -6.5357186E-02;  0.0000000E+00; -1.2200233E-03;  1.0009401E+03;  4.0000001E-01;  7.7884198E+02;3; -2.1995064E+01;  0.0000000E+00; -4.9244472E-01;0; -3.4373778E-01;  1.0020035E+04;  0.0000000E+00; -2.0821509E-09;  1.0000000E+04;  0.0000000E+00;  9.9987764E+03; -3.7557790E-01;  0.0000000E+00;  3.1840123E-02;  6.4277832E+02;
  2.5985825E-01;  9.9999998E-03; -2.0001026E-02;1446; -6.5239623E-02;  0.0000000E+00; -6.1091554E-04;  1.0009377E+03;  4.0000001E-01;  7.7686676E+02;3; -2.2044436E+01;  0.0000000E+00; -2.4841119E-01;0; -3.4321392E-01;  1.0019962E+04;  0.0000000E+00;  1.9242028E-09;  1.0000000E+04;  0.0000000E+00;  9.9988018E+03; -3.7518036E-01;  0.0000000E+00;  3.1966459E-02;  6.3052557E+02;
  2.7982894E-01;  9.9999998E-03; -1.8001406E-01;1469; -7.3748335E-02;  0.0000000E+00; -6.7846184E-03;  1.0010875E+03;  4.0000001E-01;  9.0091260E+02;3; -2.2209906E+01;  0.0000000E+00; -2.3127677E+00;0; -3.7662476E-01;  1.0024116E+04;  0.0000000E+00; -5.8612190E-05;  1.0000000E+04;  0.0000000E+00;  9.9976514E+03; -4.1630751E-01;  0.0000000E+00;  3.9682761E-02;  1.2087501E+03;
  2.7982947E-01;  9.9999998E-03; -1.6001225E-01;1470; -7.4124992E-02;  0.0000000E+00; -6.1193625E-03;  1.0010844E+03;  4.0000001E-01;  8.9844354E+02;3; -2.2665527E+01;  0.0000000E+00; -2.1490390E+00;0; -3.7689382E-01;  1.0023809E+04;  0.0000000E+00;  6.9756453E-07;  1.0000000E+04;  0.0000000E+00;  9.9978916E+03; -4.1491154E-01;  0.0000000E+00;  3.8017720E-02;  1.0913053E+03;
  2.7983060E-01;  9.9999998E-03; -1.4001052E-01;1471; -7.4236333E-02;  0.0000000E+00; -5.4223752E-03;  1.0010781E+03;  4.0000001E-01;  8.9320911E+02;3; -2.3061193E+01;  0.0000000E+00; -1.9440340E+00;0; -3.7629071E-01;  1.0023518E+04;  0.0000000E+00; -3.5023768E-07;  1.0000000E+04;  0.0000000E+00;  9.9980605E+03; -4.1392666E-01;  0.0000000E+00;  3.7635945E-02;  1.0073384E+03;
  2.7983204E-01;  9.9999998E-03; -1.2000882E-01;1472; -7.4162759E-02;  0.0000000E+00; -4.6833353E-03;  1.0010703E+03;  4.0000001E-01;  8.8669080E+02;3; -2.3389488E+01;  0.0000000E+00; -1.6977212E+00;0; -3.7507358E-01;  1.0023246E+04;  0.0000000E+00; -3.0993669E-07;  1.0000000E+04;  0.0000000E+00;  9.9981709E+03; -4.1314399E-01;  0.0000000E+00;  3.8070407E-02;  9.4858759E+02;
  2.7983359E-01;  9.9999998E-03; -1.0000719E-01;1473; -7.3974378E-02;  0.0000000E+00; -3.9228015E-03;  1.0010624E+03;  4.0000001E-01;  8.8017242E+02;3; -2.3648638E+01;  0.0000000E+00; -1.4407994E+00;0; -3.7369809E-01;  1.0023000E+04;  0.0000000E+00; -1.5657730E-07;  1.0000000E+04;  0.0000000E+00;  9.9982617E+03; -4.1244340E-01;  0.0000000E+00;  3.8745318E-02;  9.0266095E+02;
  2.7983508E-01;  9.9999998E-03; -8.0005631E-02;1474; -7.3735297E-02;  0.0000000E+00; -3.1460887E-03;  1.0010552E+03;  4.0000001E-01;  8.7414795E+02;3; -2.3848568E+01;  0.0000000E+00; -1.1701890E+00;0; -3.7244824E-01;  1.0022790E+04;  0.0000000E+00; -7.0326131E-08;  1.0000000E+04;  0.0000000E+00;  9.9983350E+03; -4.1179228E-01;  0.0000000E+00;  3.9344039E-02;  8.6385828E+02;
  2.7983636E-01;  9.9999998E-03; -6.0004145E-02;1475; -7.3497839E-02;  0.0000000E+00; -2.3628820E-03;  1.0010500E+03;  4.0000001E-01;  8.6990112E+02;3; -2.3995226E+01;  0.0000000E+00; -8.8646042E-01;0; -3.7144452E-01;  1.0022616E+04;  0.0000000E+00; -2.1715712E-08;  1.0000000E+04;  0.0000000E+00;  9.9983965E+03; -4.1121221E-01;  0.0000000E+00;  3.9767686E-02;  8.3137024E+02;
  2.7983734E-01;  9.9999998E-03; -4.0002726E-02;1476; -7.3300570E-02;  0.0000000E+00; -1.5753589E-03;  1.0010459E+03;  4.0000001E-01;  8.6654321E+02;3; -2.4095907E+01;  0.0000000E+00; -5.9346575E-01;0; -3.7072343E-01;  1.0022487E+04;  0.0000000E+00; -7.7377207E-09;  1.0000000E+04;  0.0000000E+00;  9.9984453E+03; -4.1075021E-01;  0.0000000E+00;  4.0026784E-02;  8.0647455E+02;
  2.7983794E-01;  9.9999998E-03; -2.0001352E-02;1477; -7.3171392E-02;  0.0000000E+00; -7.8878616E-04;  1.0010436E+03;  4.0000001E-01;  8.6456793E+02;3; -2.4151619E+01;  0.0000000E+00; -3.0412167E-01;0; -3.7029055E-01;  1.0022409E+04;  0.0000000E+00; -9.5906172E-10;  1.0000000E+04;  0.0000000E+00;  9.9984766E+03; -4.1045156E-01;  0.0000000E+00;  4.0161021E-02;  7.9076581E+02;
  2.9980418E-01;  9.9999998E-03; -1.8001828E-01;1500; -8.2514167E-02;  0.0000000E+00; -8.7359035E-03;  1.0012004E+03;  4.0000001E-01;  9.9453943E+02;3; -2.4127300E+01;  0.0000000E+00; -2.9071240E+00;0; -4.0164989E-01;  1.0026993E+04;  0.0000000E+00;  1.0092116E-05;  1.0000000E+04;  0.0000000E+00;  9.9970332E+03; -4.5134711E-01;  0.0000000E+00;  4.9697235E-02;  1.5120449E+03;
  2.9980507E-01;  9.9999998E-03; -1.6001579E-01;1501; -8.2877830E-02;  0.0000000E+00; -7.8133699E-03;  1.0011982E+03;  4.0000001E-01;  9.9276166E+02;3; -2.4633204E+01;  0.0000000E+00; -2.6770160E+00;0; -4.0275267E-01;  1.0026662E+04;  0.0000000E+00;  7.3537018E-07;  1.0000000E+04;  0.0000000E+00;  9.9973271E+03; -4.5060158E-01;  0.0000000E+00;  4.7848914E-02;  1.3699697E+03;
  2.9980651E-01;  9.9999998E-03; -1.4001347E-01;1502; -8.2979992E-02;  0.0000000E+00; -6.8694465E-03;  1.0011934E+03;  4.0000001E-01;  9.8871240E+02;3; -2.5080351E+01;  0.0000000E+00; -2.3973160E+00;0; -4.0293488E-01;  1.0026344E+04;  0.0000000E+00; -5.1906801E-07;  1.0000000E+04;  0.0000000E+00;  9.9975410E+03; -4.5016083E-01;  0.0000000E+00;  4.7225956E-02;  1.2620874E+03;
  2.9980826E-01;  9.9999998E-03; -1.2001125E-01;1503; -8.2896903E-02;  0.0000000E+00; -5.9050820E-03;  1.0011864E+03;  4.0000001E-01;  9.8288544E+02;3; -2.5455547E+01;  0.0000000E+00; -2.0882308E+00;0; -4.0241364E-01;  1.0026047E+04;  0.0000000E+00; -5.3677996E-07;  1.0000000E+04;  0.0000000E+00;  9.9977002E+03; -4.4984823E-01;  0.0000000E+00;  4.7434609E-02;  1.1821686E+03;
  2.9981008E-01;  9.9999998E-03; -1.0000915E-01;1504; -8.2696699E-02;  0.0000000E+00; -4.9282038E-03;  1.0011794E+03;  4.0000001E-01;  9.7705841E+02;3; -2.5757339E+01;  0.0000000E+00; -1.7569302E+00;0; -4.0160257E-01;  1.0025777E+04;  0.0000000E+00; -3.3086351E-07;  1.0000000E+04;  0.0000000E+00;  9.9978232E+03; -4.4956070E-01;  0.0000000E+00;  4.7958128E-02;  1.1187760E+03;
  2.9981181E-01;  9.9999998E-03; -8.0007166E-02;1505; -8.2444325E-02;  0.0000000E+00; -3.9449162E-03;  1.0011729E+03;  4.0000001E-01;  9.7172522E+02;3; -2.5995842E+01;  0.0000000E+00; -1.4082546E+00;0; -4.0078083E-01;  1.0025547E+04;  0.0000000E+00; -1.5857499E-07;  1.0000000E+04;  0.0000000E+00;  9.9979258E+03; -4.4926956E-01;  0.0000000E+00;  4.8488729E-02;  1.0663325E+03;
  2.9981327E-01;  9.9999998E-03; -6.0005277E-02;1506; -8.2191586E-02;  0.0000000E+00; -2.9584067E-03;  1.0011674E+03;  4.0000001E-01;  9.6718213E+02;3; -2.6167658E+01;  0.0000000E+00; -1.0622973E+00;0; -4.0008545E-01;  1.0025356E+04;  0.0000000E+00; -5.9841135E-08;  1.0000000E+04;  0.0000000E+00;  9.9980098E+03; -4.4899127E-01;  0.0000000E+00;  4.8905808E-02;  1.0237505E+03;
  2.9981440E-01;  9.9999998E-03; -4.0003475E-02;1507; -8.1982657E-02;  0.0000000E+00; -1.9714057E-03;  1.0011635E+03;  4.0000001E-01;  9.6392297E+02;3; -2.6286806E+01;  0.0000000E+00; -7.0896870E-01;0; -3.9956954E-01;  1.0025217E+04;  0.0000000E+00; -1.7055955E-08;  1.0000000E+04;  0.0000000E+00;  9.9980684E+03; -4.4875848E-01;  0.0000000E+00;  4.9188942E-02;  9.9194476E+02;
  2.9981509E-01;  9.9999998E-03; -2.0001722E-02;1508; -8.1846207E-02;  0.0000000E+00; -9.8581251E-04;  1.0011614E+03;  4.0000001E-01;  9.6214526E+02;3; -2.6357544E+01;  0.0000000E+00; -3.5716486E-01;0; -3.9925373E-01;  1.0025134E+04;  0.0000000E+00; -4.5632236E-09;  1.0000000E+04;  0.0000000E+00;  9.9981074E+03; -4.4860357E-01;  0.0000000E+00;  4.9349844E-02;  9.7221387E+02;
  3.1977645E-01;  9.9999998E-03; -1.8002287E-01;1531; -9.2019893E-02;  0.0000000E+00; -1.0789549E-02;  1.0013257E+03;  4.0000001E-01;  1.0983389E+03;3; -2.6091574E+01;  0.0000000E+00; -3.4942145E+00;0; -4.2870075E-01;  1.0030140E+04;  0.0000000E+00;  8.9041223E-06;  1.0000000E+04;  0.0000000E+00;  9.9964053E+03; -4.8793790E-01;  0.0000000E+00;  5.9237160E-02;  1.8262770E+03;
  3.1977770E-01;  9.9999998E-03; -1.6001967E-01;1532; -9.2381433E-02;  0.0000000E+00; -9.6062841E-03;  1.0013250E+03;  4.0000001E-01;  1.0977463E+03;3; -2.6657106E+01;  0.0000000E+00; -3.1906784E+00;0; -4.3061930E-01;  1.0029802E+04;  0.0000000E+00;  7.4235021E-07;  1.0000000E+04;  0.0000000E+00;  9.9967275E+03; -4.8821336E-01;  0.0000000E+00;  5.7594050E-02;  1.6658231E+03;
  3.1977952E-01;  9.9999998E-03; -1.4001670E-01;1533; -9.2482001E-02;  0.0000000E+00; -8.4203212E-03;  1.0013212E+03;  4.0000001E-01;  1.0945859E+03;3; -2.7164183E+01;  0.0000000E+00; -2.8490245E+00;0; -4.3156511E-01;  1.0029461E+04;  0.0000000E+00; -5.2332570E-07;  1.0000000E+04;  0.0000000E+00;  9.9969854E+03; -4.8858532E-01;  0.0000000E+00;  5.7020202E-02;  1.5374783E+03;
  3.1978160E-01;  9.9999998E-03; -1.2001393E-01;1534; -9.2396528E-02;  0.0000000E+00; -7.2287968E-03;  1.0013149E+03;  4.0000001E-01;  1.0893514E+03;3; -2.7594812E+01;  0.0000000E+00; -2.4747422E+00;0; -4.3174383E-01;  1.0029138E+04;  0.0000000E+00; -6.8690673E-07;  1.0000000E+04;  0.0000000E+00;  9.9971875E+03; -4.8894125E-01;  0.0000000E+00;  5.7197411E-02;  1.4374332E+03;
  3.1978375E-01;  9.9999998E-03; -1.0001132E-01;1535; -9.2191644E-02;  0.0000000E+00; -6.0283048E-03;  1.0013083E+03;  4.0000001E-01;  1.0839196E+03;3; -2.7946064E+01;  0.0000000E+00; -2.0826464E+00;0; -4.3152481E-01;  1.0028846E+04;  0.0000000E+00; -4.8268538E-07;  1.0000000E+04;  0.0000000E+00;  9.9973428E+03; -4.8922500E-01;  0.0000000E+00;  5.7700194E-02;  1.3562446E+03;
  3.1978571E-01;  9.9999998E-03; -8.0008857E-02;1536; -9.1932975E-02;  0.0000000E+00; -4.8258528E-03;  1.0013025E+03;  4.0000001E-01;  1.0790802E+03;3; -2.8221508E+01;  0.0000000E+00; -1.6772988E+00;0; -4.3117034E-01;  1.0028592E+04;  0.0000000E+00; -2.5449762E-07;  1.0000000E+04;  0.0000000E+00;  9.9974756E+03; -4.8942637E-01;  0.0000000E+00;  5.8256030E-02;  1.2893082E+03;
  3.1978741E-01;  9.9999998E-03; -6.0006533E-02;1537; -9.1675550E-02;  0.0000000E+00; -3.6249238E-03;  1.0012974E+03;  4.0000001E-01;  1.0748334E+03;3; -2.8426516E+01;  0.0000000E+00; -1.2649776E+00;0; -4.3082023E-01;  1.0028391E+04;  0.0000000E+00; -1.1175241E-07;  1.0000000E+04;  0.0000000E+00;  9.9975791E+03; -4.8955753E-01;  0.0000000E+00;  5.8737293E-02;  1.2357585E+03;
  3.1978866E-01;  9.9999998E-03; -4.0004302E-02;1538; -9.1461651E-02;  0.0000000E+00; -2.4204012E-03;  1.0012937E+03;  4.0000001E-01;  1.0717717E+03;3; -2.8564825E+01;  0.0000000E+00; -8.5268611E-01;0; -4.3053880E-01;  1.0028242E+04;  0.0000000E+00; -3.0795171E-08;  1.0000000E+04;  0.0000000E+00;  9.9976543E+03; -4.8963559E-01;  0.0000000E+00;  5.9096791E-02;  1.1963666E+03;
  3.1978947E-01;  9.9999998E-03; -2.0002136E-02;1539; -9.1322057E-02;  0.0000000E+00; -1.2105976E-03;  1.0012917E+03;  4.0000001E-01;  1.0701915E+03;3; -2.8648312E+01;  0.0000000E+00; -4.2457625E-01;0; -4.3035781E-01;  1.0028155E+04;  0.0000000E+00; -6.2176029E-09;  1.0000000E+04;  0.0000000E+00;  9.9977021E+03; -4.8967549E-01;  0.0000000E+00;  5.9317671E-02;  1.1722064E+03;
  3.3974540E-01;  9.9999998E-03; -1.8002765E-01;1562; -1.0229027E-01;  0.0000000E+00; -1.2822539E-02;  1.0014663E+03;  4.0000001E-01;  1.2147799E+03;3; -2.8091219E+01;  0.0000000E+00; -4.0312233E+00;0; -4.5830885E-01;  1.0033592E+04;  0.0000000E+00;  7.5500570E-06;  1.0000000E+04;  0.0000000E+00;  9.9957617E+03; -5.2625579E-01;  0.0000000E+00;  6.7946933E-02;  2.1455620E+03;
  3.3974707E-01;  9.9999998E-03; -1.6002375E-01;1563; -1.0267098E-01;  0.0000000E+00; -1.1420834E-02;  1.0014664E+03;  4.0000001E-01;  1.2148787E+03;3; -2.8729160E+01;  0.0000000E+00; -3.6714494E+00;0; -4.6096587E-01;  1.0033244E+04;  0.0000000E+00;  6.6005299E-07;  1.0000000E+04;  0.0000000E+00;  9.9961143E+03; -5.2780479E-01;  0.0000000E+00;  6.6838920E-02;  1.9722104E+03;
  3.3974931E-01;  9.9999998E-03; -1.4002015E-01;1564; -1.0278555E-01;  0.0000000E+00; -1.0014732E-02;  1.0014630E+03;  4.0000001E-01;  1.2121133E+03;3; -2.9306601E+01;  0.0000000E+00; -3.2787521E+00;0; -4.6259829E-01;  1.0032888E+04;  0.0000000E+00; -5.3267200E-07;  1.0000000E+04;  0.0000000E+00;  9.9964033E+03; -5.2919251E-01;  0.0000000E+00;  6.6594213E-02;  1.8270863E+03;
  3.3975178E-01;  9.9999998E-03; -1.2001679E-01;1565; -1.0270947E-01;  0.0000000E+00; -8.6008906E-03;  1.0014578E+03;  4.0000001E-01;  1.2077678E+03;3; -2.9800713E+01;  0.0000000E+00; -2.8453438E+00;0; -4.6342972E-01;  1.0032541E+04;  0.0000000E+00; -8.2211477E-07;  1.0000000E+04;  0.0000000E+00;  9.9966396E+03; -5.3039062E-01;  0.0000000E+00;  6.6960894E-02;  1.7088328E+03;
  3.3975425E-01;  9.9999998E-03; -1.0001364E-01;1566; -1.0251349E-01;  0.0000000E+00; -7.1891737E-03;  1.0014515E+03;  4.0000001E-01;  1.2025333E+03;3; -3.0206970E+01;  0.0000000E+00; -2.3991513E+00;0; -4.6378890E-01;  1.0032225E+04;  0.0000000E+00; -6.3242999E-07;  1.0000000E+04;  0.0000000E+00;  9.9968330E+03; -5.3140086E-01;  0.0000000E+00;  6.7611955E-02;  1.6104878E+03;
  3.3975649E-01;  9.9999998E-03; -8.0010690E-02;1567; -1.0226148E-01;  0.0000000E+00; -5.7703638E-03;  1.0014462E+03;  4.0000001E-01;  1.1980890E+03;3; -3.0526096E+01;  0.0000000E+00; -1.9367325E+00;0; -4.6390969E-01;  1.0031953E+04;  0.0000000E+00; -3.5588403E-07;  1.0000000E+04;  0.0000000E+00;  9.9969912E+03; -5.3223097E-01;  0.0000000E+00;  6.8321303E-02;  1.5289867E+03;
  3.3975840E-01;  9.9999998E-03; -6.0007885E-02;1568; -1.0200883E-01;  0.0000000E+00; -4.3428689E-03;  1.0014414E+03;  4.0000001E-01;  1.1941385E+03;3; -3.0764986E+01;  0.0000000E+00; -1.4641725E+00;0; -4.6392176E-01;  1.0031733E+04;  0.0000000E+00; -1.5594804E-07;  1.0000000E+04;  0.0000000E+00;  9.9971162E+03; -5.3288430E-01;  0.0000000E+00;  6.8962537E-02;  1.4641251E+03;
  3.3975983E-01;  9.9999998E-03; -4.0005196E-02;1569; -1.0179837E-01;  0.0000000E+00; -2.9059420E-03;  1.0014379E+03;  4.0000001E-01;  1.1912744E+03;3; -3.0930290E+01;  0.0000000E+00; -9.8525125E-01;0; -4.6389085E-01;  1.0031575E+04;  0.0000000E+00; -5.0934027E-08;  1.0000000E+04;  0.0000000E+00;  9.9972070E+03; -5.3335720E-01;  0.0000000E+00;  6.9466360E-02;  1.4167964E+03;
  3.3976072E-01;  9.9999998E-03; -2.0002581E-02;1570; -1.0165975E-01;  0.0000000E+00; -1.4573655E-03;  1.0014361E+03;  4.0000001E-01;  1.1897930E+03;3; -3.1023943E+01;  0.0000000E+00; -4.9681962E-01;0; -4.6385604E-01;  1.0031478E+04;  0.0000000E+00; -7.7889029E-09;  1.0000000E+04;  0.0000000E+00;  9.9972676E+03; -5.3364432E-01;  0.0000000E+00;  6.9788292E-02;  1.3879713E+03;
  3.5971078E-01;  9.9999998E-03; -1.8003249E-01;1593; -1.1335564E-01;  0.0000000E+00; -1.4770084E-02;  1.0016232E+03;  4.0000001E-01;  1.3448501E+03;3; -3.0119484E+01;  0.0000000E+00; -4.4819031E+00;0; -4.9070770E-01;  1.0037387E+04;  0.0000000E+00;  6.0803432E-06;  1.0000000E+04;  0.0000000E+00;  9.9951182E+03; -5.6650013E-01;  0.0000000E+00;  7.5792439E-02;  2.4700469E+03;
  3.5971290E-01;  9.9999998E-03; -1.6002794E-01;1594; -1.1377981E-01;  0.0000000E+00; -1.3190253E-02;  1.0016237E+03;  4.0000001E-01;  1.3452452E+03;3; -3.0836607E+01;  0.0000000E+00; -4.0928755E+00;0; -4.9402466E-01;  1.0037026E+04;  0.0000000E+00;  2.2296265E-07;  1.0000000E+04;  0.0000000E+00;  9.9954883E+03; -5.6943589E-01;  0.0000000E+00;  7.5411238E-02;  2.2866912E+03;
  3.5971555E-01;  9.9999998E-03; -1.4002371E-01;1595; -1.1392982E-01;  0.0000000E+00; -1.1592634E-02;  1.0016208E+03;  4.0000001E-01;  1.3427761E+03;3; -3.1496733E+01;  0.0000000E+00; -3.6509790E+00;0; -4.9627045E-01;  1.0036642E+04;  0.0000000E+00; -6.9072496E-07;  1.0000000E+04;  0.0000000E+00;  9.9958027E+03; -5.7196289E-01;  0.0000000E+00;  7.5692445E-02;  2.1273381E+03;
  3.5971844E-01;  9.9999998E-03; -1.2001976E-01;1596; -1.1388485E-01;  0.0000000E+00; -9.9908952E-03;  1.0016154E+03;  4.0000001E-01;  1.3383318E+03;3; -3.2064098E+01;  0.0000000E+00; -3.1830518E+00;0; -4.9770409E-01;  1.0036271E+04;  0.0000000E+00; -9.9529211E-07;  1.0000000E+04;  0.0000000E+00;  9.9960723E+03; -5.7413602E-01;  0.0000000E+00;  7.6431938E-02;  1.9927233E+03;
  3.5972124E-01;  9.9999998E-03; -1.0001607E-01;1597; -1.1371522E-01;  0.0000000E+00; -8.3718449E-03;  1.0016095E+03;  4.0000001E-01;  1.3333937E+03;3; -3.2531876E+01;  0.0000000E+00; -2.6896601E+00;0; -4.9862012E-01;  1.0035931E+04;  0.0000000E+00; -7.9041808E-07;  1.0000000E+04;  0.0000000E+00;  9.9962939E+03; -5.7600635E-01;  0.0000000E+00;  7.7386230E-02;  1.8782493E+03;
  3.5972381E-01;  9.9999998E-03; -8.0012597E-02;1598; -1.1348673E-01;  0.0000000E+00; -6.7350282E-03;  1.0016045E+03;  4.0000001E-01;  1.3292456E+03;3; -3.2902023E+01;  0.0000000E+00; -2.1779602E+00;0; -4.9921608E-01;  1.0035638E+04;  0.0000000E+00; -4.5353613E-07;  1.0000000E+04;  0.0000000E+00;  9.9964844E+03; -5.7758802E-01;  0.0000000E+00;  7.8371935E-02;  1.7825859E+03;
  3.5972595E-01;  9.9999998E-03; -6.0009297E-02;1599; -1.1325358E-01;  0.0000000E+00; -5.0797141E-03;  1.0016002E+03;  4.0000001E-01;  1.3257889E+03;3; -3.3180408E+01;  0.0000000E+00; -1.6509175E+00;0; -4.9960226E-01;  1.0035405E+04;  0.0000000E+00; -1.9733119E-07;  1.0000000E+04;  0.0000000E+00;  9.9966318E+03; -5.7886845E-01;  0.0000000E+00;  7.9266183E-02;  1.7064797E+03;
  3.5972753E-01;  9.9999998E-03; -4.0006123E-02;1600; -1.1305635E-01;  0.0000000E+00; -3.3988012E-03;  1.0015972E+03;  4.0000001E-01;  1.3232212E+03;3; -3.3372803E+01;  0.0000000E+00; -1.1049504E+00;0; -4.9983612E-01;  1.0035233E+04;  0.0000000E+00; -6.5334810E-08;  1.0000000E+04;  0.0000000E+00;  9.9967412E+03; -5.7981628E-01;  0.0000000E+00;  7.9980165E-02;  1.6511658E+03;
  3.5972852E-01;  9.9999998E-03; -2.0003041E-02;1601; -1.1292651E-01;  0.0000000E+00; -1.7032893E-03;  1.0015953E+03;  4.0000001E-01;  1.3216410E+03;3; -3.3485775E+01;  0.0000000E+00; -5.5439448E-01;0; -4.9995786E-01;  1.0035131E+04;  0.0000000E+00; -1.0368756E-08;  1.0000000E+04;  0.0000000E+00;  9.9968057E+03; -5.8040035E-01;  0.0000000E+00;  8.0442473E-02;  1.6176216E+03;
  3.7967226E-01;  9.9999998E-03; -1.8003741E-01;1624; -1.2524946E-01;  0.0000000E+00; -1.6608629E-02;  1.0017982E+03;  4.0000001E-01;  1.4898333E+03;3; -3.2157383E+01;  0.0000000E+00; -4.8470864E+00;0; -5.2586490E-01;  1.0041548E+04;  0.0000000E+00;  4.2920697E-06;  1.0000000E+04;  0.0000000E+00;  9.9944639E+03; -6.0879916E-01;  0.0000000E+00;  8.2934260E-02;  2.8031782E+03;
  3.7967482E-01;  9.9999998E-03; -1.6003220E-01;1625; -1.2574407E-01;  0.0000000E+00; -1.4877986E-02;  1.0017984E+03;  4.0000001E-01;  1.4899320E+03;3; -3.2974754E+01;  0.0000000E+00; -4.4302783E+00;0; -5.2980036E-01;  1.0041165E+04;  0.0000000E+00; -4.7365083E-07;  1.0000000E+04;  0.0000000E+00;  9.9948516E+03; -6.1312258E-01;  0.0000000E+00;  8.3322212E-02;  2.6098643E+03;
  3.7967795E-01;  9.9999998E-03; -1.4002734E-01;1626; -1.2595612E-01;  0.0000000E+00; -1.3123551E-02;  1.0017950E+03;  4.0000001E-01;  1.4871667E+03;3; -3.3726139E+01;  0.0000000E+00; -3.9690621E+00;0; -5.3262430E-01;  1.0040752E+04;  0.0000000E+00; -9.8186797E-07;  1.0000000E+04;  0.0000000E+00;  9.9951924E+03; -6.1683917E-01;  0.0000000E+00;  8.4214851E-02;  2.4374292E+03;
  3.7968126E-01;  9.9999998E-03; -1.2002279E-01;1627; -1.2596682E-01;  0.0000000E+00; -1.1340804E-02;  1.0017895E+03;  4.0000001E-01;  1.4825249E+03;3; -3.4377110E+01;  0.0000000E+00; -3.4686663E+00;0; -5.3463864E-01;  1.0040347E+04;  0.0000000E+00; -1.2036473E-06;  1.0000000E+04;  0.0000000E+00;  9.9954873E+03; -6.2007022E-01;  0.0000000E+00;  8.5431576E-02;  2.2879568E+03;
  3.7968445E-01;  9.9999998E-03; -1.0001853E-01;1628; -1.2584811E-01;  0.0000000E+00; -9.5276963E-03;  1.0017837E+03;  4.0000001E-01;  1.4777843E+03;3; -3.4914948E+01;  0.0000000E+00; -2.9428694E+00;0; -5.3610694E-01;  1.0039975E+04;  0.0000000E+00; -9.5180650E-07;  1.0000000E+04;  0.0000000E+00;  9.9957393E+03; -6.2289482E-01;  0.0000000E+00;  8.6787909E-02;  2.1585798E+03;
  3.7968731E-01;  9.9999998E-03; -8.0014527E-02;1629; -1.2566496E-01;  0.0000000E+00; -7.6817269E-03;  1.0017786E+03;  4.0000001E-01;  1.4735375E+03;3; -3.5343197E+01;  0.0000000E+00; -2.3925347E+00;0; -5.3719032E-01;  1.0039657E+04;  0.0000000E+00; -5.3859213E-07;  1.0000000E+04;  0.0000000E+00;  9.9959541E+03; -6.2532300E-01;  0.0000000E+00;  8.8132709E-02;  2.0495500E+03;
  3.7968969E-01;  9.9999998E-03; -6.0010720E-02;1630; -1.2546779E-01;  0.0000000E+00; -5.7950970E-03;  1.0017744E+03;  4.0000001E-01;  1.4700808E+03;3; -3.5665901E+01;  0.0000000E+00; -1.8131801E+00;0; -5.3796804E-01;  1.0039410E+04;  0.0000000E+00; -2.4553867E-07;  1.0000000E+04;  0.0000000E+00;  9.9961182E+03; -6.2731332E-01;  0.0000000E+00;  8.9345306E-02;  1.9626759E+03;
  3.7969145E-01;  9.9999998E-03; -4.0007062E-02;1631; -1.2529841E-01;  0.0000000E+00; -3.8814829E-03;  1.0017715E+03;  4.0000001E-01;  1.4677104E+03;3; -3.5890785E+01;  0.0000000E+00; -1.2172587E+00;0; -5.3848279E-01;  1.0039225E+04;  0.0000000E+00; -7.5678862E-08;  1.0000000E+04;  0.0000000E+00;  9.9962441E+03; -6.2879992E-01;  0.0000000E+00;  9.0317130E-02;  1.8996675E+03;
  3.7969255E-01;  9.9999998E-03; -2.0003507E-02;1632; -1.2518500E-01;  0.0000000E+00; -1.9458822E-03;  1.0017696E+03;  4.0000001E-01;  1.4660315E+03;3; -3.6022957E+01;  0.0000000E+00; -6.0855740E-01;0; -5.3877151E-01;  1.0039112E+04;  0.0000000E+00; -1.3026941E-08;  1.0000000E+04;  0.0000000E+00;  9.9963154E+03; -6.2972134E-01;  0.0000000E+00;  9.0949848E-02;  1.8615688E+03;
  3.9962944E-01;  9.9999998E-03; -1.8004239E-01;1655; -1.3800670E-01;  0.0000000E+00; -1.8321829E-02;  1.0019921E+03;  4.0000001E-01;  1.6504210E+03;3; -3.4204845E+01;  0.0000000E+00; -5.1015992E+00;0; -5.6359440E-01;  1.0046109E+04;  0.0000000E+00;  2.2120416E-06;  1.0000000E+04;  0.0000000E+00;  9.9937891E+03; -6.5316474E-01;  0.0000000E+00;  8.9570336E-02;  3.1483000E+03;
  3.9963251E-01;  9.9999998E-03; -1.6003650E-01;1656; -1.3859902E-01;  0.0000000E+00; -1.6455177E-02;  1.0019913E+03;  4.0000001E-01;  1.6497296E+03;3; -3.5130360E+01;  0.0000000E+00; -4.6714554E+00;0; -5.6814682E-01;  1.0045685E+04;  0.0000000E+00; -1.2133783E-06;  1.0000000E+04;  0.0000000E+00;  9.9941973E+03; -6.5880734E-01;  0.0000000E+00;  9.0660520E-02;  2.9434734E+03;
  3.9963612E-01;  9.9999998E-03; -1.4003100E-01;1657; -1.3890177E-01;  0.0000000E+00; -1.4551745E-02;  1.0019868E+03;  4.0000001E-01;  1.6460754E+03;3; -3.5988400E+01;  0.0000000E+00; -4.2045531E+00;0; -5.7155311E-01;  1.0045230E+04;  0.0000000E+00; -1.1206278E-06;  1.0000000E+04;  0.0000000E+00;  9.9945615E+03; -6.6370559E-01;  0.0000000E+00;  9.2152491E-02;  2.7586697E+03;
  3.9963990E-01;  9.9999998E-03; -1.2002583E-01;1658; -1.3899668E-01;  0.0000000E+00; -1.2605210E-02;  1.0019806E+03;  4.0000001E-01;  1.6408409E+03;3; -3.6729691E+01;  0.0000000E+00; -3.6934865E+00;0; -5.7415491E-01;  1.0044782E+04;  0.0000000E+00; -1.3401705E-06;  1.0000000E+04;  0.0000000E+00;  9.9948789E+03; -6.6802180E-01;  0.0000000E+00;  9.3866907E-02;  2.5961868E+03;
  3.9964348E-01;  9.9999998E-03; -1.0002100E-01;1659; -1.3895752E-01;  0.0000000E+00; -1.0612223E-02;  1.0019740E+03;  4.0000001E-01;  1.6354091E+03;3; -3.7348579E+01;  0.0000000E+00; -3.1439462E+00;0; -5.7619274E-01;  1.0044375E+04;  0.0000000E+00; -1.0846221E-06;  1.0000000E+04;  0.0000000E+00;  9.9951563E+03; -6.7184687E-01;  0.0000000E+00;  9.5654130E-02;  2.4538210E+03;
  3.9964667E-01;  9.9999998E-03; -8.0016457E-02;1660; -1.3884325E-01;  0.0000000E+00; -8.5652471E-03;  1.0019688E+03;  4.0000001E-01;  1.6310635E+03;3; -3.7841877E+01;  0.0000000E+00; -2.5640953E+00;0; -5.7778579E-01;  1.0044030E+04;  0.0000000E+00; -6.4694700E-07;  1.0000000E+04;  0.0000000E+00;  9.9953906E+03; -6.7517126E-01;  0.0000000E+00;  9.7385481E-02;  2.3329600E+03;
  3.9964929E-01;  9.9999998E-03; -6.0012147E-02;1661; -1.3870385E-01;  0.0000000E+00; -6.4723166E-03;  1.0019642E+03;  4.0000001E-01;  1.6273105E+03;3; -3.8215614E+01;  0.0000000E+00; -1.9504739E+00;0; -5.7897729E-01;  1.0043753E+04;  0.0000000E+00; -3.0450548E-07;  1.0000000E+04;  0.0000000E+00;  9.9955791E+03; -6.7791760E-01;  0.0000000E+00;  9.8940313E-02;  2.2364265E+03;
  3.9965126E-01;  9.9999998E-03; -4.0008005E-02;1662; -1.3857655E-01;  0.0000000E+00; -4.3391208E-03;  1.0019610E+03;  4.0000001E-01;  1.6246439E+03;3; -3.8476421E+01;  0.0000000E+00; -1.3120825E+00;0; -5.7979083E-01;  1.0043559E+04;  0.0000000E+00; -1.0812281E-07;  1.0000000E+04;  0.0000000E+00;  9.9957158E+03; -6.7998117E-01;  0.0000000E+00;  1.0019037E-01;  2.1664783E+03;
  3.9965245E-01;  9.9999998E-03; -2.0003974E-02;1663; -1.3848895E-01;  0.0000000E+00; -2.1772005E-03;  1.0019593E+03;  4.0000001E-01;  1.6232612E+03;3; -3.8630924E+01;  0.0000000E+00; -6.5900481E-01;0; -5.8025658E-01;  1.0043438E+04;  0.0000000E+00; -2.0048713E-08;  1.0000000E+04;  0.0000000E+00;  9.9957959E+03; -6.8126380E-01;  0.0000000E+00;  1.0100722E-01;  2.1242729E+03;
  4.1958198E-01;  9.9999998E-03; -1.8004748E-01;1686; -1.5166239E-01;  0.0000000E+00; -1.9891033E-02;  1.0022054E+03;  4.0000001E-01;  1.8272052E+03;3; -3.6258400E+01;  0.0000000E+00; -5.2328806E+00;0; -6.0366225E-01;  1.0051085E+04;  0.0000000E+00;  6.5492998E-07;  1.0000000E+04;  0.0000000E+00;  9.9930918E+03; -6.9947535E-01;  0.0000000E+00;  9.5813088E-02;  3.5063420E+03;
  4.1958559E-01;  9.9999998E-03; -1.6004089E-01;1687; -1.5238006E-01;  0.0000000E+00; -1.7887332E-02;  1.0022026E+03;  4.0000001E-01;  1.8248350E+03;3; -3.7301525E+01;  0.0000000E+00; -4.8037753E+00;0; -6.0882920E-01;  1.0050597E+04;  0.0000000E+00; -1.2528575E-06;  1.0000000E+04;  0.0000000E+00;  9.9935254E+03; -7.0632082E-01;  0.0000000E+00;  9.7491607E-02;  3.2891191E+03;
  4.1958976E-01;  9.9999998E-03; -1.4003471E-01;1688; -1.5280075E-01;  0.0000000E+00; -1.5838206E-02;  1.0021963E+03;  4.0000001E-01;  1.8196006E+03;3; -3.8272644E+01;  0.0000000E+00; -4.3389893E+00;0; -6.1282259E-01;  1.0050087E+04;  0.0000000E+00; -7.8511215E-07;  1.0000000E+04;  0.0000000E+00;  9.9939033E+03; -7.1234345E-01;  0.0000000E+00;  9.9520884E-02;  3.0942405E+03;
  4.1959405E-01;  9.9999998E-03; -1.2002891E-01;1689; -1.5300982E-01;  0.0000000E+00; -1.3740024E-02;  1.0021878E+03;  4.0000001E-01;  1.8125884E+03;3; -3.9115154E+01;  0.0000000E+00; -3.8307822E+00;0; -6.1601913E-01;  1.0049586E+04;  0.0000000E+00; -1.2182973E-06;  1.0000000E+04;  0.0000000E+00;  9.9942412E+03; -7.1771950E-01;  0.0000000E+00;  1.0170034E-01;  2.9225190E+03;
  4.1959807E-01;  9.9999998E-03; -1.0002350E-01;1690; -1.5307754E-01;  0.0000000E+00; -1.1584969E-02;  1.0021802E+03;  4.0000001E-01;  1.8062676E+03;3; -3.9822079E+01;  0.0000000E+00; -3.2848282E+00;0; -6.1864060E-01;  1.0049137E+04;  0.0000000E+00; -1.1625358E-06;  1.0000000E+04;  0.0000000E+00;  9.9945352E+03; -7.2253537E-01;  0.0000000E+00;  1.0389479E-01;  2.7708792E+03;
  4.1960162E-01;  9.9999998E-03; -8.0018423E-02;1691; -1.5305929E-01;  0.0000000E+00; -9.3636559E-03;  1.0021738E+03;  4.0000001E-01;  1.8009344E+03;3; -4.0389145E+01;  0.0000000E+00; -2.6839831E+00;0; -6.2076360E-01;  1.0048754E+04;  0.0000000E+00; -7.6301399E-07;  1.0000000E+04;  0.0000000E+00;  9.9947852E+03; -7.2675431E-01;  0.0000000E+00;  1.0599071E-01;  2.6411641E+03;
  4.1960451E-01;  9.9999998E-03; -6.0013607E-02;1692; -1.5299913E-01;  0.0000000E+00; -7.0866495E-03;  1.0021688E+03;  4.0000001E-01;  1.7967864E+03;3; -4.0819740E+01;  0.0000000E+00; -2.0514569E+00;0; -6.2239105E-01;  1.0048453E+04;  0.0000000E+00; -3.9619408E-07;  1.0000000E+04;  0.0000000E+00;  9.9949863E+03; -7.3026049E-01;  0.0000000E+00;  1.0786945E-01;  2.5370977E+03;
  4.1960666E-01;  9.9999998E-03; -4.0008973E-02;1693; -1.5293011E-01;  0.0000000E+00; -4.7572488E-03;  1.0021654E+03;  4.0000001E-01;  1.7940210E+03;3; -4.1121033E+01;  0.0000000E+00; -1.3844856E+00;0; -6.2352121E-01;  1.0048234E+04;  0.0000000E+00; -1.5123845E-07;  1.0000000E+04;  0.0000000E+00;  9.9951309E+03; -7.3290640E-01;  0.0000000E+00;  1.0938522E-01;  2.4615984E+03;
  4.1960797E-01;  9.9999998E-03; -2.0004459E-02;1694; -1.5287806E-01;  0.0000000E+00; -2.3890445E-03;  1.0021632E+03;  4.0000001E-01;  1.7921445E+03;3; -4.1299320E+01;  0.0000000E+00; -6.9748050E-01;0; -6.2417632E-01;  1.0048107E+04;  0.0000000E+00; -3.5949729E-08;  1.0000000E+04;  0.0000000E+00;  9.9952197E+03; -7.3455584E-01;  0.0000000E+00;  1.1037952E-01;  2.4160728E+03;
  4.3952945E-01;  9.9999998E-03; -1.8005282E-01;1717; -1.6625270E-01;  0.0000000E+00; -2.1290325E-02;  1.0024375E+03;  4.0000001E-01;  2.0193964E+03;3; -3.8301842E+01;  0.0000000E+00; -5.2294197E+00;0; -6.4573842E-01;  1.0056468E+04;  0.0000000E+00;  1.4258528E-06;  1.0000000E+04;  0.0000000E+00;  9.9923818E+03; -7.4736786E-01;  0.0000000E+00;  1.0162944E-01;  3.8756660E+03;
  4.3953371E-01;  9.9999998E-03; -1.6004547E-01;1718; -1.6712058E-01;  0.0000000E+00; -1.9143749E-02;  1.0024316E+03;  4.0000001E-01;  2.0145570E+03;3; -3.9473770E+01;  0.0000000E+00; -4.8079376E+00;0; -6.5145415E-01;  1.0055898E+04;  0.0000000E+00;  5.4888488E-07;  1.0000000E+04;  0.0000000E+00;  9.9928262E+03; -7.5525796E-01;  0.0000000E+00;  1.0380383E-01;  3.6486550E+03;
  4.3953851E-01;  9.9999998E-03; -1.4003861E-01;1719; -1.6768464E-01;  0.0000000E+00; -1.6953303E-02;  1.0024217E+03;  4.0000001E-01;  2.0063596E+03;3; -4.0567120E+01;  0.0000000E+00; -4.3552608E+00;0; -6.5598083E-01;  1.0055308E+04;  0.0000000E+00;  7.3926537E-07;  1.0000000E+04;  0.0000000E+00;  9.9932139E+03; -7.6230621E-01;  0.0000000E+00;  1.0632538E-01;  3.4501526E+03;
  4.3954337E-01;  9.9999998E-03; -1.2003218E-01;1720; -1.6803417E-01;  0.0000000E+00; -1.4717411E-02;  1.0024107E+03;  4.0000001E-01;  1.9971748E+03;3; -4.1520107E+01;  0.0000000E+00; -3.8637121E+00;0; -6.5973389E-01;  1.0054748E+04;  0.0000000E+00; -5.4305275E-07;  1.0000000E+04;  0.0000000E+00;  9.9935498E+03; -7.6867419E-01;  0.0000000E+00;  1.0894031E-01;  3.2768960E+03;
  4.3954787E-01;  9.9999998E-03; -1.0002618E-01;1721; -1.6823530E-01;  0.0000000E+00; -1.2420019E-02;  1.0024005E+03;  4.0000001E-01;  1.9886812E+03;3; -4.2323540E+01;  0.0000000E+00; -3.3322921E+00;0; -6.6292149E-01;  1.0054244E+04;  0.0000000E+00; -1.0304647E-06;  1.0000000E+04;  0.0000000E+00;  9.9938467E+03; -7.7442467E-01;  0.0000000E+00;  1.1150319E-01;  3.1228376E+03;
  4.3955177E-01;  9.9999998E-03; -8.0020539E-02;1722; -1.6833858E-01;  0.0000000E+00; -1.0055238E-02;  1.0023925E+03;  4.0000001E-01;  1.9821628E+03;3; -4.2970737E+01;  0.0000000E+00; -2.7411692E+00;0; -6.6557992E-01;  1.0053821E+04;  0.0000000E+00; -8.2256798E-07;  1.0000000E+04;  0.0000000E+00;  9.9941074E+03; -7.7949238E-01;  0.0000000E+00;  1.1391249E-01;  2.9894355E+03;
  4.3955496E-01;  9.9999998E-03; -6.0015190E-02;1723; -1.6837983E-01;  0.0000000E+00; -7.6219863E-03;  1.0023865E+03;  4.0000001E-01;  1.9771260E+03;3; -4.3465405E+01;  0.0000000E+00; -2.1056020E+00;0; -6.6765970E-01;  1.0053489E+04;  0.0000000E+00; -4.6693080E-07;  1.0000000E+04;  0.0000000E+00;  9.9943184E+03; -7.8372025E-01;  0.0000000E+00;  1.1606053E-01;  2.8813176E+03;
  4.3955731E-01;  9.9999998E-03; -4.0010028E-02;1724; -1.6838618E-01;  0.0000000E+00; -5.1243226E-03;  1.0023821E+03;  4.0000001E-01;  1.9735706E+03;3; -4.3811909E+01;  0.0000000E+00; -1.4282954E+00;0; -6.6912466E-01;  1.0053255E+04;  0.0000000E+00; -2.0421525E-07;  1.0000000E+04;  0.0000000E+00;  9.9944658E+03; -7.8691936E-01;  0.0000000E+00;  1.1779469E-01;  2.8024001E+03;
  4.3955877E-01;  9.9999998E-03; -2.0004986E-02;1725; -1.6838004E-01;  0.0000000E+00; -2.5755321E-03;  1.0023795E+03;  4.0000001E-01;  1.9712990E+03;3; -4.4016594E+01;  0.0000000E+00; -7.2071141E-01;0; -6.6998267E-01;  1.0053110E+04;  0.0000000E+00; -4.5372975E-08;  1.0000000E+04;  0.0000000E+00;  9.9945576E+03; -7.8891772E-01;  0.0000000E+00;  1.1893504E-01;  2.7546897E+03;
  4.5947137E-01;  9.9999998E-03; -1.8005860E-01;1748; -1.8182161E-01;  0.0000000E+00; -2.2493800E-02;  1.0026884E+03;  4.0000090E-01;  2.2272900E+03;3; -4.0324520E+01;  0.0000000E+00; -5.0626936E+00;0; -6.8905365E-01;  1.0062188E+04;  0.0000000E+00;  8.3422410E-06;  1.0000000E+04;  0.0000000E+00;  9.9916484E+03; -7.9591346E-01;  0.0000000E+00;  1.0685978E-01;  4.2547397E+03;
  4.5947641E-01;  9.9999998E-03; -1.6005056E-01;1749; -1.8285877E-01;  0.0000000E+00; -2.0210490E-02;  1.0026769E+03;  4.0000087E-01;  2.2178088E+03;3; -4.1636120E+01;  0.0000000E+00; -4.6547499E+00;0; -6.9512749E-01;  1.0061510E+04;  0.0000000E+00;  6.3694224E-06;  1.0000000E+04;  0.0000000E+00;  9.9920957E+03; -8.0465186E-01;  0.0000000E+00;  1.0952435E-01;  4.0267102E+03;
  4.5948195E-01;  9.9999998E-03; -1.4004299E-01;1750; -1.8358530E-01;  0.0000000E+00; -1.7890489E-02;  1.0026617E+03;  4.0000096E-01;  2.2051672E+03;3; -4.2859356E+01;  0.0000000E+00; -4.2289023E+00;0; -7.0002729E-01;  1.0060835E+04;  0.0000000E+00;  4.7913445E-06;  1.0000000E+04;  0.0000000E+00;  9.9924668E+03; -8.1260574E-01;  0.0000000E+00;  1.1257846E-01;  3.8375261E+03;
  4.5948744E-01;  9.9999998E-03; -1.2003591E-01;1751; -1.8409607E-01;  0.0000000E+00; -1.5532263E-02;  1.0026459E+03;  4.0000090E-01;  2.1921306E+03;3; -4.3929901E+01;  0.0000000E+00; -3.7722211E+00;0; -7.0421696E-01;  1.0060206E+04;  0.0000000E+00;  1.4157171E-06;  1.0000000E+04;  0.0000000E+00;  9.9927744E+03; -8.1987721E-01;  0.0000000E+00;  1.1566026E-01;  3.6760359E+03;
  4.5949247E-01;  9.9999998E-03; -1.0002927E-01;1752; -1.8445371E-01;  0.0000000E+00; -1.3115081E-02;  1.0026324E+03;  4.0000087E-01;  2.1808716E+03;3; -4.4837124E+01;  0.0000000E+00; -3.2762477E+00;0; -7.0790744E-01;  1.0059650E+04;  0.0000000E+00; -3.2573615E-07;  1.0000000E+04;  0.0000000E+00;  9.9930557E+03; -8.2648563E-01;  0.0000000E+00;  1.1857818E-01;  3.5304868E+03;
  4.5949683E-01;  9.9999998E-03; -8.0023006E-02;1753; -1.8470150E-01;  0.0000000E+00; -1.0632039E-02;  1.0026216E+03;  4.0000081E-01;  2.1718843E+03;3; -4.5571438E+01;  0.0000000E+00; -2.7171450E+00;0; -7.1108377E-01;  1.0059185E+04;  0.0000000E+00; -6.5738556E-07;  1.0000000E+04;  0.0000000E+00;  9.9933066E+03; -8.3232504E-01;  0.0000000E+00;  1.2124125E-01;  3.4011328E+03;
  4.5950034E-01;  9.9999998E-03; -6.0017046E-02;1754; -1.8486506E-01;  0.0000000E+00; -8.0719879E-03;  1.0026138E+03;  4.0000081E-01;  2.1654646E+03;3; -4.6135818E+01;  0.0000000E+00; -2.1030128E+00;0; -7.1363080E-01;  1.0058819E+04;  0.0000000E+00; -4.5517660E-07;  1.0000000E+04;  0.0000000E+00;  9.9935088E+03; -8.3720440E-01;  0.0000000E+00;  1.2357362E-01;  3.2938528E+03;
  4.5950291E-01;  9.9999998E-03; -4.0011276E-02;1755; -1.8496346E-01;  0.0000000E+00; -5.4351967E-03;  1.0026082E+03;  4.0000084E-01;  2.1608230E+03;3; -4.6533127E+01;  0.0000000E+00; -1.4360863E+00;0; -7.1545750E-01;  1.0058561E+04;  0.0000000E+00; -2.0437390E-07;  1.0000000E+04;  0.0000000E+00;  9.9936631E+03; -8.4090000E-01;  0.0000000E+00;  1.2544250E-01;  3.2143113E+03;
  4.5950449E-01;  9.9999998E-03; -2.0005612E-02;1756; -1.8501402E-01;  0.0000000E+00; -2.7350863E-03;  1.0026051E+03;  4.0000084E-01;  2.1582551E+03;3; -4.6768097E+01;  0.0000000E+00; -7.2909743E-01;0; -7.1654046E-01;  1.0058403E+04;  0.0000000E+00; -5.0828010E-08;  1.0000000E+04;  0.0000000E+00;  9.9937529E+03; -8.4321004E-01;  0.0000000E+00;  1.2666960E-01;  3.1658010E+03;
  4.7940722E-01;  9.9999998E-03; -1.8006530E-01;1779; -1.9841991E-01;  0.0000000E+00; -2.3500249E-02;  1.0029478E+03;  4.0000257E-01;  2.4421951E+03;3; -4.2320156E+01;  0.0000000E+00; -4.7008882E+00;0; -7.3172879E-01;  1.0068070E+04;  0.0000000E+00;  2.7253365E-05;  1.0000000E+04;  0.0000000E+00;  9.9908936E+03; -8.4304678E-01;  0.0000000E+00;  1.1131798E-01;  4.6478042E+03;
  4.7941315E-01;  9.9999998E-03; -1.6005665E-01;1780; -1.9963621E-01;  0.0000000E+00; -2.1108609E-02;  1.0029286E+03;  4.0000266E-01;  2.4262944E+03;3; -4.3777969E+01;  0.0000000E+00; -4.3134356E+00;0; -7.3781240E-01;  1.0067268E+04;  0.0000000E+00;  2.0500867E-05;  1.0000000E+04;  0.0000000E+00;  9.9913125E+03; -8.5241103E-01;  0.0000000E+00;  1.1459865E-01;  4.4349141E+03;
  4.7941956E-01;  9.9999998E-03; -1.4004840E-01;1781; -2.0053731E-01;  0.0000000E+00; -1.8680362E-02;  1.0029063E+03;  4.0000263E-01;  2.4077271E+03;3; -4.5135002E+01;  0.0000000E+00; -3.9336286E+00;0; -7.4279273E-01;  1.0066505E+04;  0.0000000E+00;  1.4286687E-05;  1.0000000E+04;  0.0000000E+00;  9.9916152E+03; -8.6115009E-01;  0.0000000E+00;  1.1835738E-01;  4.2753408E+03;
  4.7942579E-01;  9.9999998E-03; -1.2004056E-01;1782; -2.0122367E-01;  0.0000000E+00; -1.6213378E-02;  1.0028838E+03;  4.0000257E-01;  2.3891597E+03;3; -4.6327038E+01;  0.0000000E+00; -3.5352867E+00;0; -7.4721032E-01;  1.0065810E+04;  0.0000000E+00;  6.3305824E-06;  1.0000000E+04;  0.0000000E+00;  9.9918633E+03; -8.6924577E-01;  0.0000000E+00;  1.2203545E-01;  4.1449053E+03;
  4.7943142E-01;  9.9999998E-03; -1.0003315E-01;1783; -2.0175554E-01;  0.0000000E+00; -1.3691402E-02;  1.0028651E+03;  4.0000269E-01;  2.3736541E+03;3; -4.7343712E+01;  0.0000000E+00; -3.1011777E+00;0; -7.5129277E-01;  1.0065205E+04;  0.0000000E+00;  1.6815954E-06;  1.0000000E+04;  0.0000000E+00;  9.9920928E+03; -8.7663502E-01;  0.0000000E+00;  1.2534225E-01;  4.0228496E+03;
  4.7943625E-01;  9.9999998E-03; -8.0026135E-02;1784; -2.0216644E-01;  0.0000000E+00; -1.1107013E-02;  1.0028508E+03;  4.0000242E-01;  2.3618027E+03;3; -4.8171593E+01;  0.0000000E+00; -2.5998721E+00;0; -7.5496268E-01;  1.0064699E+04;  0.0000000E+00;  1.2037600E-08;  1.0000000E+04;  0.0000000E+00;  9.9923096E+03; -8.8316256E-01;  0.0000000E+00;  1.2819991E-01;  3.9075667E+03;
  4.7944012E-01;  9.9999998E-03; -6.0019407E-02;1785; -2.0246989E-01;  0.0000000E+00; -8.4429756E-03;  1.0028406E+03;  4.0000272E-01;  2.3533091E+03;3; -4.8811020E+01;  0.0000000E+00; -2.0333824E+00;0; -7.5800359E-01;  1.0064302E+04;  0.0000000E+00; -2.6927933E-07;  1.0000000E+04;  0.0000000E+00;  9.9925020E+03; -8.8860464E-01;  0.0000000E+00;  1.3060105E-01;  3.8070613E+03;
  4.7944298E-01;  9.9999998E-03; -4.0012863E-02;1786; -2.0267537E-01;  0.0000000E+00; -5.6924187E-03;  1.0028337E+03;  4.0000254E-01;  2.3476797E+03;3; -4.9265034E+01;  0.0000000E+00; -1.3999242E+00;0; -7.6023751E-01;  1.0064020E+04;  0.0000000E+00; -1.6091315E-07;  1.0000000E+04;  0.0000000E+00;  9.9926514E+03; -8.9271778E-01;  0.0000000E+00;  1.3248028E-01;  3.7300215E+03;
  4.7944471E-01;  9.9999998E-03; -2.0006413E-02;1787; -2.0279261E-01;  0.0000000E+00; -2.8675909E-03;  1.0028297E+03;  4.0000248E-01;  2.3443218E+03;3; -4.9535004E+01;  0.0000000E+00; -7.1500432E-01;0; -7.6158369E-01;  1.0063845E+04;  0.0000000E+00; -4.7434224E-08;  1.0000000E+04;  0.0000000E+00;  9.9927432E+03; -8.9528537E-01;  0.0000000E+00;  1.3370167E-01;  3.6821230E+03;
  4.9933648E-01;  9.9999998E-03; -1.8007372E-01;1810; -2.1608952E-01;  0.0000000E+00; -2.4357902E-02;  1.0031989E+03;  4.0000612E-01;  2.6501863E+03;3; -4.4283680E+01;  0.0000000E+00; -4.0879617E+00;0; -7.6992893E-01;  1.0073748E+04;  0.0000000E+00;  6.6287910E-05;  1.0000000E+04;  0.0000000E+00;  9.9900811E+03; -8.8490057E-01;  0.0000000E+00;  1.1497162E-01;  5.0732397E+03;
  4.9934345E-01;  9.9999998E-03; -1.6006455E-01;1811; -2.1749160E-01;  0.0000000E+00; -2.1908751E-02;  1.0031692E+03;  4.0000594E-01;  2.6255945E+03;3; -4.5890396E+01;  0.0000000E+00; -3.7607789E+00;0; -7.7554649E-01;  1.0072819E+04;  0.0000000E+00;  5.0241222E-05;  1.0000000E+04;  0.0000000E+00;  9.9904170E+03; -8.9466071E-01;  0.0000000E+00;  1.1911424E-01;  4.8968867E+03;
  4.9935085E-01;  9.9999998E-03; -1.4005554E-01;1812; -2.1857399E-01;  0.0000000E+00; -1.9395491E-02;  1.0031368E+03;  4.0000603E-01;  2.5988298E+03;3; -4.7379490E+01;  0.0000000E+00; -3.4480724E+00;0; -7.8020763E-01;  1.0071976E+04;  0.0000000E+00;  3.4962330E-05;  1.0000000E+04;  0.0000000E+00;  9.9906055E+03; -9.0407676E-01;  0.0000000E+00;  1.2386910E-01;  4.7923853E+03;
  4.9935791E-01;  9.9999998E-03; -1.2004677E-01;1813; -2.1944566E-01;  0.0000000E+00; -1.6824629E-02;  1.0031068E+03;  4.0000591E-01;  2.5738430E+03;3; -4.8694847E+01;  0.0000000E+00; -3.1348574E+00;0; -7.8457499E-01;  1.0071230E+04;  0.0000000E+00;  1.7584569E-05;  1.0000000E+04;  0.0000000E+00;  9.9907393E+03; -9.1293514E-01;  0.0000000E+00;  1.2836017E-01;  4.7164326E+03;
  4.9936423E-01;  9.9999998E-03; -1.0003836E-01;1814; -2.2016355E-01;  0.0000000E+00; -1.4198262E-02;  1.0030817E+03;  4.0000594E-01;  2.5531030E+03;3; -4.9823299E+01;  0.0000000E+00; -2.7936618E+00;0; -7.8891283E-01;  1.0070587E+04;  0.0000000E+00;  6.5765721E-06;  1.0000000E+04;  0.0000000E+00;  9.9908896E+03; -9.2104131E-01;  0.0000000E+00;  1.3212848E-01;  4.6355347E+03;
  4.9936959E-01;  9.9999998E-03; -8.0030322E-02;1815; -2.2074945E-01;  0.0000000E+00; -1.1513430E-02;  1.0030631E+03;  4.0000603E-01;  2.5376960E+03;3; -5.0748024E+01;  0.0000000E+00; -2.3809571E+00;0; -7.9305786E-01;  1.0070047E+04;  0.0000000E+00;  1.7524081E-06;  1.0000000E+04;  0.0000000E+00;  9.9910518E+03; -9.2817116E-01;  0.0000000E+00;  1.3511330E-01;  4.5456606E+03;
  4.9937388E-01;  9.9999998E-03; -6.0022566E-02;1816; -2.2120588E-01;  0.0000000E+00; -8.7533090E-03;  1.0030505E+03;  4.0000594E-01;  2.5273259E+03;3; -5.1470291E+01;  0.0000000E+00; -1.8891549E+00;0; -7.9664874E-01;  1.0069620E+04;  0.0000000E+00;  2.4153874E-07;  1.0000000E+04;  0.0000000E+00;  9.9912197E+03; -9.3407744E-01;  0.0000000E+00;  1.3742869E-01;  4.4582471E+03;
  4.9937701E-01;  9.9999998E-03; -4.0014986E-02;1817; -2.2152975E-01;  0.0000000E+00; -5.9049265E-03;  1.0030417E+03;  4.0000609E-01;  2.5200176E+03;3; -5.1986885E+01;  0.0000000E+00; -1.3145571E+00;0; -7.9937065E-01;  1.0069315E+04;  0.0000000E+00; -3.9434578E-08;  1.0000000E+04;  0.0000000E+00;  9.9913574E+03; -9.3851602E-01;  0.0000000E+00;  1.3914537E-01;  4.3867485E+03;
  4.9937889E-01;  9.9999998E-03; -2.0007480E-02;1818; -2.2172160E-01;  0.0000000E+00; -2.9766078E-03;  1.0030374E+03;  4.0000612E-01;  2.5163635E+03;3; -5.2297363E+01;  0.0000000E+00; -6.7441374E-01;0; -8.0104417E-01;  1.0069126E+04;  0.0000000E+00; -1.6736589E-08;  1.0000000E+04;  0.0000000E+00;  9.9914434E+03; -9.4127417E-01;  0.0000000E+00;  1.4023001E-01;  4.3406782E+03;
  5.1925886E-01;  9.9999998E-03; -1.8008496E-01;1841; -2.3483606E-01;  0.0000000E+00; -2.5180265E-02;  1.0034205E+03;  4.0001652E-01;  2.8337815E+03;3; -4.6207100E+01;  0.0000000E+00; -3.1996090E+00;0; -7.9719460E-01;  1.0078633E+04;  0.0000000E+00;  1.2734294E-04;  1.0000000E+04;  0.0000000E+00;  9.9891025E+03; -9.1538954E-01;  0.0000000E+00;  1.1819495E-01;  5.5747217E+03;
  5.1926702E-01;  9.9999998E-03; -1.6007525E-01;1842; -2.3643149E-01;  0.0000000E+00; -2.2726921E-02;  1.0033795E+03;  4.0001661E-01;  2.7998074E+03;3; -4.7960171E+01;  0.0000000E+00; -2.9720519E+00;0; -8.0189294E-01;  1.0077587E+04;  0.0000000E+00;  1.0052986E-04;  1.0000000E+04;  0.0000000E+00;  9.9893262E+03; -9.2534423E-01;  0.0000000E+00;  1.2345127E-01;  5.4536479E+03;
  5.1927543E-01;  9.9999998E-03; -1.4006530E-01;1843; -2.3770532E-01;  0.0000000E+00; -2.0138793E-02;  1.0033361E+03;  4.0001664E-01;  2.7638579E+03;3; -4.9578354E+01;  0.0000000E+00; -2.7540715E+00;0; -8.0583286E-01;  1.0076683E+04;  0.0000000E+00;  7.3511692E-05;  1.0000000E+04;  0.0000000E+00;  9.9893525E+03; -9.3533403E-01;  0.0000000E+00;  1.2950118E-01;  5.4278843E+03;
  5.1928341E-01;  9.9999998E-03; -1.2005530E-01;1844; -2.3877080E-01;  0.0000000E+00; -1.7452713E-02;  1.0032960E+03;  4.0001652E-01;  2.7306738E+03;3; -5.1014416E+01;  0.0000000E+00; -2.5560451E+00;0; -8.0986428E-01;  1.0075904E+04;  0.0000000E+00;  4.0506475E-05;  1.0000000E+04;  0.0000000E+00;  9.9893281E+03; -9.4488907E-01;  0.0000000E+00;  1.3502476E-01;  5.4290073E+03;
  5.1929045E-01;  9.9999998E-03; -1.0004552E-01;1845; -2.3968078E-01;  0.0000000E+00; -1.4701413E-02;  1.0032643E+03;  4.0001658E-01;  2.7044031E+03;3; -5.2253529E+01;  0.0000000E+00; -2.3365042E+00;0; -8.1432790E-01;  1.0075240E+04;  0.0000000E+00;  1.7333146E-05;  1.0000000E+04;  0.0000000E+00;  9.9893555E+03; -9.5364070E-01;  0.0000000E+00;  1.3931279E-01;  5.4065625E+03;
  5.1929641E-01;  9.9999998E-03; -8.0036044E-02;1846; -2.4044801E-01;  0.0000000E+00; -1.1896584E-02;  1.0032414E+03;  4.0001643E-01;  2.6854407E+03;3; -5.3283390E+01;  0.0000000E+00; -2.0455294E+00;0; -8.1895638E-01;  1.0074684E+04;  0.0000000E+00;  5.8457999E-06;  1.0000000E+04;  0.0000000E+00;  9.9894521E+03; -9.6127731E-01;  0.0000000E+00;  1.4232092E-01;  5.3531064E+03;
  5.1930118E-01;  9.9999998E-03; -6.0026858E-02;1847; -2.4106325E-01;  0.0000000E+00; -9.0306308E-03;  1.0032257E+03;  4.0001664E-01;  2.6724041E+03;3; -5.4093796E+01;  0.0000000E+00; -1.6593360E+00;0; -8.2319039E-01;  1.0074243E+04;  0.0000000E+00;  1.5413971E-06;  1.0000000E+04;  0.0000000E+00;  9.9895781E+03; -9.6753538E-01;  0.0000000E+00;  1.4434499E-01;  5.2847192E+03;
  5.1930463E-01;  9.9999998E-03; -4.0017851E-02;1848; -2.4151148E-01;  0.0000000E+00; -6.0864440E-03;  1.0032156E+03;  4.0001658E-01;  2.6640093E+03;3; -5.4679234E+01;  0.0000000E+00; -1.1738784E+00;0; -8.2651508E-01;  1.0073922E+04;  0.0000000E+00;  2.9284132E-07;  1.0000000E+04;  0.0000000E+00;  9.9896973E+03; -9.7218889E-01;  0.0000000E+00;  1.4567381E-01;  5.2214316E+03;
  5.1930672E-01;  9.9999998E-03; -2.0008918E-02;1849; -2.4178255E-01;  0.0000000E+00; -3.0666431E-03;  1.0032104E+03;  4.0001658E-01;  2.6597627E+03;3; -5.5033836E+01;  0.0000000E+00; -6.0799700E-01;0; -8.2860935E-01;  1.0073725E+04;  0.0000000E+00;  3.8531496E-08;  1.0000000E+04;  0.0000000E+00;  9.9897803E+03; -9.7506070E-01;  0.0000000E+00;  1.4645135E-01;  5.1781396E+03;
  5.3917480E-01;  9.9999998E-03; -1.8010031E-01;1872; -2.5453949E-01;  0.0000000E+00; -2.6127787E-02;  1.0035884E+03;  4.0004438E-01;  2.9729321E+03;3; -4.8069790E+01;  0.0000000E+00; -1.9887285E+00;0; -8.0423224E-01;  1.0081883E+04;  0.0000000E+00;  1.9065944E-04;  1.0000000E+04;  0.0000000E+00;  9.9877959E+03; -9.2629331E-01;  0.0000000E+00;  1.2206107E-01;  6.2330303E+03;
  5.3918403E-01;  9.9999998E-03; -1.6008979E-01;1873; -2.5634912E-01;  0.0000000E+00; -2.3688855E-02;  1.0035379E+03;  4.0004462E-01;  2.9310571E+03;3; -4.9963383E+01;  0.0000000E+00; -1.9108956E+00;0; -8.0788672E-01;  1.0080757E+04;  0.0000000E+00;  1.5679021E-04;  1.0000000E+04;  0.0000000E+00;  9.9878975E+03; -9.3635714E-01;  0.0000000E+00;  1.2847042E-01;  6.1702729E+03;
  5.3919345E-01;  9.9999998E-03; -1.4007856E-01;1874; -2.5783971E-01;  0.0000000E+00; -2.1014538E-02;  1.0034845E+03;  4.0004423E-01;  2.8868118E+03;3; -5.1710945E+01;  0.0000000E+00; -1.8356346E+00;0; -8.1095743E-01;  1.0079835E+04;  0.0000000E+00;  1.2671061E-04;  1.0000000E+04;  0.0000000E+00;  9.9877471E+03; -9.4684392E-01;  0.0000000E+00;  1.3588651E-01;  6.2323887E+03;
  5.3920233E-01;  9.9999998E-03; -1.2006687E-01;1875; -2.5911382E-01;  0.0000000E+00; -1.8179422E-02;  1.0034355E+03;  4.0004444E-01;  2.8462205E+03;3; -5.3265331E+01;  0.0000000E+00; -1.7888566E+00;0; -8.1453812E-01;  1.0079059E+04;  0.0000000E+00;  7.7721095E-05;  1.0000000E+04;  0.0000000E+00;  9.9875361E+03; -9.5701838E-01;  0.0000000E+00;  1.4248022E-01;  6.3232700E+03;
  5.3921020E-01;  9.9999998E-03; -1.0005518E-01;1876; -2.6022208E-01;  0.0000000E+00; -1.5259367E-02;  1.0033969E+03;  4.0004453E-01;  2.8142217E+03;3; -5.4615185E+01;  0.0000000E+00; -1.7102904E+00;0; -8.1909633E-01;  1.0078400E+04;  0.0000000E+00;  3.7181202E-05;  1.0000000E+04;  0.0000000E+00;  9.9874219E+03; -9.6631759E-01;  0.0000000E+00;  1.4722128E-01;  6.3712134E+03;
  5.3921682E-01;  9.9999998E-03; -8.0043748E-02;1877; -2.6117241E-01;  0.0000000E+00; -1.2299584E-02;  1.0033696E+03;  4.0004459E-01;  2.7916052E+03;3; -5.5753685E+01;  0.0000000E+00; -1.5784572E+00;0; -8.2428056E-01;  1.0077848E+04;  0.0000000E+00;  1.4281148E-05;  1.0000000E+04;  0.0000000E+00;  9.9874287E+03; -9.7434235E-01;  0.0000000E+00;  1.5006177E-01;  6.3626255E+03;
  5.3922206E-01;  9.9999998E-03; -6.0032617E-02;1878; -2.6194638E-01;  0.0000000E+00; -9.3023796E-03;  1.0033519E+03;  4.0004453E-01;  2.7769883E+03;3; -5.6658482E+01;  0.0000000E+00; -1.3262506E+00;0; -8.2929724E-01;  1.0077404E+04;  0.0000000E+00;  4.4312637E-06;  1.0000000E+04;  0.0000000E+00;  9.9875088E+03; -9.8082066E-01;  0.0000000E+00;  1.5152340E-01;  6.3181563E+03;
  5.3922588E-01;  9.9999998E-03; -4.0021677E-02;1879; -2.6251885E-01;  0.0000000E+00; -6.2515805E-03;  1.0033406E+03;  4.0004462E-01;  2.7676060E+03;3; -5.7318939E+01;  0.0000000E+00; -9.6165961E-01;0; -8.3337969E-01;  1.0077081E+04;  0.0000000E+00;  1.1548429E-06;  1.0000000E+04;  0.0000000E+00;  9.9876045E+03; -9.8556900E-01;  0.0000000E+00;  1.5218933E-01;  6.2654556E+03;
  5.3922820E-01;  9.9999998E-03; -2.0010822E-02;1880; -2.6286912E-01;  0.0000000E+00; -3.1418891E-03;  1.0033347E+03;  4.0004450E-01;  2.7626680E+03;3; -5.7721493E+01;  0.0000000E+00; -5.0599325E-01;0; -8.3600885E-01;  1.0076880E+04;  0.0000000E+00;  2.1165778E-07;  1.0000000E+04;  0.0000000E+00;  9.9876846E+03; -9.8846734E-01;  0.0000000E+00;  1.5245849E-01;  6.2259131E+03;
  5.5908591E-01;  9.9999998E-03; -1.8012106E-01;1903; -2.7477008E-01;  0.0000000E+00; -2.7357168E-02;  1.0037128E+03;  4.0011963E-01;  3.0759331E+03;3; -4.9822800E+01;  0.0000000E+00; -4.1824311E-01;0; -7.7921659E-01;  1.0082441E+04;  0.0000000E+00;  2.0841473E-04;  1.0000000E+04;  0.0000000E+00;  9.9859053E+03; -9.0771228E-01;  0.0000000E+00;  1.2849569E-01;  7.1678003E+03;
  5.5909616E-01;  9.9999998E-03; -1.6010924E-01;1904; -2.7685997E-01;  0.0000000E+00; -2.4888180E-02;  1.0036592E+03;  4.0011987E-01;  3.0314905E+03;3; -5.1843098E+01;  0.0000000E+00; -5.0761068E-01;0; -7.8242773E-01;  1.0081331E+04;  0.0000000E+00;  1.6749129E-04;  1.0000000E+04;  0.0000000E+00;  9.9859336E+03; -9.1811419E-01;  0.0000000E+00;  1.3568647E-01;  7.1396772E+03;
  5.5910641E-01;  9.9999998E-03; -1.4009608E-01;1905; -2.7862155E-01;  0.0000000E+00; -2.2098262E-02;  1.0036006E+03;  4.0011978E-01;  2.9829983E+03;3; -5.3728889E+01;  0.0000000E+00; -6.6908181E-01;0; -7.8516114E-01;  1.0080447E+04;  0.0000000E+00;  1.6163835E-04;  1.0000000E+04;  0.0000000E+00;  9.9856445E+03; -9.2919677E-01;  0.0000000E+00;  1.4403561E-01;  7.2706807E+03;
  5.5911613E-01;  9.9999998E-03; -1.2008212E-01;1906; -2.8013933E-01;  0.0000000E+00; -1.9060886E-02;  1.0035460E+03;  4.0011978E-01;  2.9377656E+03;3; -5.5406406E+01;  0.0000000E+00; -8.0899489E-01;0; -7.8870529E-01;  1.0079717E+04;  0.0000000E+00;  1.1628462E-04;  1.0000000E+04;  0.0000000E+00;  9.9852734E+03; -9.3999720E-01;  0.0000000E+00;  1.5129192E-01;  7.4423970E+03;
  5.5912471E-01;  9.9999998E-03; -1.0006791E-01;1907; -2.8146315E-01;  0.0000000E+00; -1.5915284E-02;  1.0035030E+03;  4.0011987E-01;  2.9021125E+03;3; -5.6870445E+01;  0.0000000E+00; -9.1302466E-01;0; -7.9367530E-01;  1.0079107E+04;  0.0000000E+00;  6.3498199E-05;  1.0000000E+04;  0.0000000E+00;  9.9850156E+03; -9.4979769E-01;  0.0000000E+00;  1.5612236E-01;  7.5604312E+03;
  5.5913198E-01;  9.9999998E-03; -8.0053903E-02;1908; -2.8260151E-01;  0.0000000E+00; -1.2748213E-02;  1.0034728E+03;  4.0011978E-01;  2.8771257E+03;3; -5.8119553E+01;  0.0000000E+00; -9.5395464E-01;0; -7.9969406E-01;  1.0078597E+04;  0.0000000E+00;  2.7328813E-05;  1.0000000E+04;  0.0000000E+00;  9.9849248E+03; -9.5813197E-01;  0.0000000E+00;  1.5843788E-01;  7.5999980E+03;
  5.5913776E-01;  9.9999998E-03; -6.0040187E-02;1909; -2.8353286E-01;  0.0000000E+00; -9.5839174E-03;  1.0034536E+03;  4.0011999E-01;  2.8611265E+03;3; -5.9121288E+01;  0.0000000E+00; -8.6316162E-01;0; -8.0575502E-01;  1.0078181E+04;  0.0000000E+00;  9.6079457E-06;  1.0000000E+04;  0.0000000E+00;  9.9849512E+03; -9.6473861E-01;  0.0000000E+00;  1.5898357E-01;  7.5830464E+03;
  5.5914193E-01;  9.9999998E-03; -4.0026698E-02;1910; -2.8422740E-01;  0.0000000E+00; -6.4113326E-03;  1.0034420E+03;  4.0012011E-01;  2.8516453E+03;3; -5.9859604E+01;  0.0000000E+00; -6.5164369E-01;0; -8.1082201E-01;  1.0077872E+04;  0.0000000E+00;  2.8486040E-06;  1.0000000E+04;  0.0000000E+00;  9.9850264E+03; -9.6949637E-01;  0.0000000E+00;  1.5867434E-01;  7.5437803E+03;
  5.5914450E-01;  9.9999998E-03; -2.0013327E-02;1911; -2.8465724E-01;  0.0000000E+00; -3.2164461E-03;  1.0034359E+03;  4.0011993E-01;  2.8465098E+03;3; -6.0314949E+01;  0.0000000E+00; -3.5255107E-01;0; -8.1414187E-01;  1.0077680E+04;  0.0000000E+00;  5.8175652E-07;  1.0000000E+04;  0.0000000E+00;  9.9850986E+03; -9.7235984E-01;  0.0000000E+00;  1.5821794E-01;  7.5097959E+03;
  5.7899594E-01;  9.9999998E-03; -1.8014795E-01;1934; -2.9462507E-01;  0.0000000E+00; -2.8968338E-02;  1.0039042E+03;  4.0031934E-01;  3.2345342E+03;3; -5.1340553E+01;  0.0000000E+00;  1.4411025E+00;0; -7.0746100E-01;  1.0079015E+04;  0.0000000E+00;  1.2055579E-04;  1.0000000E+04;  0.0000000E+00;  9.9831416E+03; -8.4739041E-01;  0.0000000E+00;  1.3992940E-01;  8.5146348E+03;
  5.7900679E-01;  9.9999998E-03; -1.6013381E-01;1935; -2.9708341E-01;  0.0000000E+00; -2.6407456E-02;  1.0038594E+03;  4.0031919E-01;  3.1973999E+03;3; -5.3461231E+01;  0.0000000E+00;  1.0658784E+00;0; -7.1180767E-01;  1.0078048E+04;  0.0000000E+00;  5.5741231E-05;  1.0000000E+04;  0.0000000E+00;  9.9831992E+03; -8.5900640E-01;  0.0000000E+00;  1.4719875E-01;  8.4736855E+03;
  5.7901764E-01;  9.9999998E-03; -1.4011790E-01;1936; -2.9921800E-01;  0.0000000E+00; -2.3385232E-02;  1.0038064E+03;  4.0031943E-01;  3.1534512E+03;3; -5.5483261E+01;  0.0000000E+00;  6.7637324E-01;0; -7.1577102E-01;  1.0077308E+04;  0.0000000E+00;  1.1655841E-04;  1.0000000E+04;  0.0000000E+00;  9.9828711E+03; -8.7125933E-01;  0.0000000E+00;  1.5548831E-01;  8.6237930E+03;
  5.7902795E-01;  9.9999998E-03; -1.2010095E-01;1937; -3.0105439E-01;  0.0000000E+00; -2.0057019E-02;  1.0037541E+03;  4.0031943E-01;  3.1101936E+03;3; -5.7299671E+01;  0.0000000E+00;  3.6219227E-01;0; -7.2068453E-01;  1.0076708E+04;  0.0000000E+00;  1.2131395E-04;  1.0000000E+04;  0.0000000E+00;  9.9824131E+03; -8.8307965E-01;  0.0000000E+00;  1.6239515E-01;  8.8393369E+03;
  5.7903725E-01;  9.9999998E-03; -1.0008355E-01;1938; -3.0263290E-01;  0.0000000E+00; -1.6634166E-02;  1.0037115E+03;  4.0031952E-01;  3.0749358E+03;3; -5.8897083E+01;  0.0000000E+00;  2.1373810E-02;0; -7.2715580E-01;  1.0076208E+04;  0.0000000E+00;  8.2565297E-05;  1.0000000E+04;  0.0000000E+00;  9.9820527E+03; -8.9364666E-01;  0.0000000E+00;  1.6649088E-01;  9.0088926E+03;
  5.7904512E-01;  9.9999998E-03; -8.0066323E-02;1939; -3.0397144E-01;  0.0000000E+00; -1.3221916E-02;  1.0036818E+03;  4.0031961E-01;  3.0502454E+03;3; -6.0283081E+01;  0.0000000E+00; -1.6121949E-01;0; -7.3479772E-01;  1.0075790E+04;  0.0000000E+00;  4.1134997E-05;  1.0000000E+04;  0.0000000E+00;  9.9818789E+03; -9.0247136E-01;  0.0000000E+00;  1.6767362E-01;  9.0918213E+03;
  5.7905138E-01;  9.9999998E-03; -6.0049444E-02;1940; -3.0506337E-01;  0.0000000E+00; -9.8704947E-03;  1.0036633E+03;  4.0031967E-01;  3.0349375E+03;3; -6.1388729E+01;  0.0000000E+00; -2.5986347E-01;0; -7.4247032E-01;  1.0075437E+04;  0.0000000E+00;  1.6423823E-05;  1.0000000E+04;  0.0000000E+00;  9.9818525E+03; -9.0932447E-01;  0.0000000E+00;  1.6685416E-01;  9.1043799E+03;
  5.7905602E-01;  9.9999998E-03; -4.0032856E-02;1941; -3.0587602E-01;  0.0000000E+00; -6.5715220E-03;  1.0036526E+03;  4.0031978E-01;  3.0261477E+03;3; -6.2216778E+01;  0.0000000E+00; -2.5661290E-01;0; -7.4891293E-01;  1.0075173E+04;  0.0000000E+00;  5.5566306E-06;  1.0000000E+04;  0.0000000E+00;  9.9818994E+03; -9.1416007E-01;  0.0000000E+00;  1.6524711E-01;  9.0827451E+03;
  5.7905883E-01;  9.9999998E-03; -2.0016409E-02;1942; -3.0638263E-01;  0.0000000E+00; -3.2837878E-03;  1.0036467E+03;  4.0031967E-01;  3.0211108E+03;3; -6.2734028E+01;  0.0000000E+00; -1.4798626E-01;0; -7.5315833E-01;  1.0075000E+04;  0.0000000E+00;  1.2473519E-06;  1.0000000E+04;  0.0000000E+00;  9.9819502E+03; -9.1702437E-01;  0.0000000E+00;  1.6386604E-01;  9.0579717E+03;
  5.9890974E-01;  9.9999998E-03; -1.8017951E-01;1965; -3.1292716E-01;  0.0000000E+00; -3.0780502E-02;  1.0045131E+03;  4.0082607E-01;  3.7389907E+03;3; -5.2388748E+01;  0.0000000E+00;  3.5800591E+00;0; -5.6714618E-01;  1.0069704E+04;  0.0000000E+00; -1.3430817E-04;  1.0000000E+04;  0.0000000E+00;  9.9792813E+03; -7.2542620E-01;  0.0000000E+00;  1.5828004E-01;  1.0372760E+04;
  5.9892130E-01;  9.9999998E-03; -1.6016285E-01;1966; -3.1584030E-01;  0.0000000E+00; -2.7999761E-02;  1.0044937E+03;  4.0082639E-01;  3.7228926E+03;3; -5.4767635E+01;  0.0000000E+00;  3.0804830E+00;0; -5.7516110E-01;  1.0069109E+04;  0.0000000E+00; -2.4874308E-04;  1.0000000E+04;  0.0000000E+00;  9.9794639E+03; -7.4024314E-01;  0.0000000E+00;  1.6508202E-01;  1.0271747E+04;
  5.9893280E-01;  9.9999998E-03; -1.4014398E-01;1967; -3.1837866E-01;  0.0000000E+00; -2.4708195E-02;  1.0044598E+03;  4.0082654E-01;  3.6948445E+03;3; -5.6932919E+01;  0.0000000E+00;  2.4415722E+00;0; -5.8278447E-01;  1.0068656E+04;  0.0000000E+00; -7.6300923E-05;  1.0000000E+04;  0.0000000E+00;  9.9792295E+03; -7.5496179E-01;  0.0000000E+00;  1.7217733E-01;  1.0378595E+04;
  5.9894365E-01;  9.9999998E-03; -1.2012345E-01;1968; -3.2054812E-01;  0.0000000E+00; -2.1081250E-02;  1.0044213E+03;  4.0082672E-01;  3.6629448E+03;3; -5.8849834E+01;  0.0000000E+00;  1.8167958E+00;0; -5.9140444E-01;  1.0068302E+04;  0.0000000E+00;  4.2506661E-05;  1.0000000E+04;  0.0000000E+00;  9.9788008E+03; -7.6878732E-01;  0.0000000E+00;  1.7738287E-01;  1.0582424E+04;
  5.9895337E-01;  9.9999998E-03; -1.0010223E-01;1969; -3.2240039E-01;  0.0000000E+00; -1.7310537E-02;  1.0043878E+03;  4.0082684E-01;  3.6351929E+03;3; -6.0605556E+01;  0.0000000E+00;  1.2709184E+00;0; -6.0137302E-01;  1.0068000E+04;  0.0000000E+00;  6.7792535E-05;  1.0000000E+04;  0.0000000E+00;  9.9784199E+03; -7.8092265E-01;  0.0000000E+00;  1.7954963E-01;  1.0768351E+04;
  5.9896171E-01;  9.9999998E-03; -8.0081150E-02;1970; -3.2393688E-01;  0.0000000E+00; -1.3626019E-02;  1.0043633E+03;  4.0082729E-01;  3.6148481E+03;3; -6.2082699E+01;  0.0000000E+00;  8.2278091E-01;0; -6.1212331E-01;  1.0067736E+04;  0.0000000E+00;  4.5120731E-05;  1.0000000E+04;  0.0000000E+00;  9.9781914E+03; -7.9088247E-01;  0.0000000E+00;  1.7875917E-01;  1.0880854E+04;
  5.9896851E-01;  9.9999998E-03; -6.0060509E-02;1971; -3.2517239E-01;  0.0000000E+00; -1.0087647E-02;  1.0043483E+03;  4.0082741E-01;  3.6024043E+03;3; -6.3307365E+01;  0.0000000E+00;  4.6568185E-01;0; -6.2242520E-01;  1.0067503E+04;  0.0000000E+00;  2.1482161E-05;  1.0000000E+04;  0.0000000E+00;  9.9781094E+03; -7.9848522E-01;  0.0000000E+00;  1.7606004E-01;  1.0922745E+04;
  5.9897357E-01;  9.9999998E-03; -4.0040240E-02;1972; -3.2608375E-01;  0.0000000E+00; -6.6741765E-03;  1.0043395E+03;  4.0082735E-01;  3.5950959E+03;3; -6.4241623E+01;  0.0000000E+00;  2.2844535E-01;0; -6.3089192E-01;  1.0067316E+04;  0.0000000E+00;  8.6138898E-06;  1.0000000E+04;  0.0000000E+00;  9.9781162E+03; -8.0376005E-01;  0.0000000E+00;  1.7286813E-01;  1.0924339E+04;
  5.9897667E-01;  9.9999998E-03; -2.0020114E-02;1973; -3.2665277E-01;  0.0000000E+00; -3.3197554E-03;  1.0043347E+03;  4.0082750E-01;  3.5911455E+03;3; -6.4830452E+01;  0.0000000E+00;  8.7242119E-02;0; -6.3641846E-01;  1.0067195E+04;  0.0000000E+00;  2.1701512E-06;  1.0000000E+04;  0.0000000E+00;  9.9781416E+03; -8.0684066E-01;  0.0000000E+00;  1.7042218E-01;  1.0914592E+04;
  6.1883247E-01;  9.9999998E-03; -1.8021458E-01;1996; -3.2874107E-01;  0.0000000E+00; -3.2176487E-02;  1.0062753E+03;  4.0199009E-01;  5.1988442E+03;3; -5.3097973E+01;  0.0000000E+00;  6.1599617E+00;0; -3.2513320E-01;  1.0051837E+04;  0.0000000E+00; -5.3007167E-04;  1.0000000E+04;  0.0000000E+00;  9.9742910E+03; -5.0905639E-01;  0.0000000E+00;  1.8392318E-01;  1.2748468E+04;
  6.1884511E-01;  9.9999998E-03; -1.6019528E-01;1997; -3.3195555E-01;  0.0000000E+00; -2.9196192E-02;  1.0062971E+03;  4.0199083E-01;  5.2169170E+03;3; -5.5596489E+01;  0.0000000E+00;  5.4529147E+00;0; -3.3946320E-01;  1.0051903E+04;  0.0000000E+00; -7.6208782E-04;  1.0000000E+04;  0.0000000E+00;  9.9746309E+03; -5.2998000E-01;  0.0000000E+00;  1.9051680E-01;  1.2573498E+04;
  6.1885715E-01;  9.9999998E-03; -1.4017308E-01;1998; -3.3484545E-01;  0.0000000E+00; -2.5663262E-02;  1.0062978E+03;  4.0199140E-01;  5.2175098E+03;3; -5.7891155E+01;  0.0000000E+00;  4.5580039E+00;0; -3.5324967E-01;  1.0051938E+04;  0.0000000E+00; -4.5804141E-04;  1.0000000E+04;  0.0000000E+00;  9.9745742E+03; -5.4906738E-01;  0.0000000E+00;  1.9581769E-01;  1.2594567E+04;
  6.1886829E-01;  9.9999998E-03; -1.2014869E-01;1999; -3.3730817E-01;  0.0000000E+00; -2.1719029E-02;  1.0062855E+03;  4.0199155E-01;  5.2073374E+03;3; -5.9954155E+01;  0.0000000E+00;  3.6799207E+00;0; -3.6804754E-01;  1.0051962E+04;  0.0000000E+00; -1.7187805E-04;  1.0000000E+04;  0.0000000E+00;  9.9742803E+03; -5.6629390E-01;  0.0000000E+00;  1.9824636E-01;  1.2737936E+04;
  6.1887842E-01;  9.9999998E-03; -1.0012346E-01;2000; -3.3938429E-01;  0.0000000E+00; -1.7671015E-02;  1.0062700E+03;  4.0199214E-01;  5.1943999E+03;3; -6.1794983E+01;  0.0000000E+00;  2.9161451E+00;0; -3.8380468E-01;  1.0051959E+04;  0.0000000E+00; -2.3236924E-05;  1.0000000E+04;  0.0000000E+00;  9.9739531E+03; -5.8117133E-01;  0.0000000E+00;  1.9736667E-01;  1.2902961E+04;
  6.1888719E-01;  9.9999998E-03; -8.0098271E-02;2001; -3.4108615E-01;  0.0000000E+00; -1.3736336E-02;  1.0062573E+03;  4.0199247E-01;  5.1839312E+03;3; -6.3360332E+01;  0.0000000E+00;  2.1673493E+00;0; -3.9950401E-01;  1.0051935E+04;  0.0000000E+00;  1.4869271E-05;  1.0000000E+04;  0.0000000E+00;  9.9737109E+03; -5.9328187E-01;  0.0000000E+00;  1.9377786E-01;  1.3027438E+04;
  6.1889440E-01;  9.9999998E-03; -6.0073406E-02;2002; -3.4240994E-01;  0.0000000E+00; -1.0062257E-02;  1.0062492E+03;  4.0199277E-01;  5.1772153E+03;3; -6.4668381E+01;  0.0000000E+00;  1.4660933E+00;0; -4.1372025E-01;  1.0051884E+04;  0.0000000E+00;  1.3882411E-05;  1.0000000E+04;  0.0000000E+00;  9.9735791E+03; -6.0247511E-01;  0.0000000E+00;  1.8875484E-01;  1.3097593E+04;
  6.1889988E-01;  9.9999998E-03; -4.0048879E-02;2003; -3.4339589E-01;  0.0000000E+00; -6.5854276E-03;  1.0062439E+03;  4.0199283E-01;  5.1728701E+03;3; -6.5685959E+01;  0.0000000E+00;  9.3922138E-01;0; -4.2501205E-01;  1.0051821E+04;  0.0000000E+00;  8.2909773E-06;  1.0000000E+04;  0.0000000E+00;  9.9735313E+03; -6.0882640E-01;  0.0000000E+00;  1.8381433E-01;  1.3129605E+04;
  6.1890322E-01;  9.9999998E-03; -2.0024478E-02;2004; -3.4400427E-01;  0.0000000E+00; -3.2610067E-03;  1.0062412E+03;  4.0199304E-01;  5.1705986E+03;3; -6.6339462E+01;  0.0000000E+00;  4.3912938E-01;0; -4.3224198E-01;  1.0051776E+04;  0.0000000E+00;  2.6973325E-06;  1.0000000E+04;  0.0000000E+00;  9.9735127E+03; -6.1251968E-01;  0.0000000E+00;  1.8027772E-01;  1.3142758E+04;
  6.3876826E-01;  9.9999998E-03; -1.8025284E-01;2027; -3.4123117E-01;  0.0000000E+00; -3.2968793E-02;  1.0098759E+03;  4.0413803E-01;  8.1817363E+03;3; -5.3358784E+01;  0.0000000E+00;  9.1876831E+00;0;  5.4258808E-02;  1.0022706E+04;  0.0000000E+00; -7.3796464E-04;  1.0000000E+04;  0.0000000E+00;  9.9684072E+03; -1.6083255E-01;  0.0000000E+00;  2.1509136E-01;  1.5515398E+04;
  6.3878167E-01;  9.9999998E-03; -1.6022971E-01;2028; -3.4469485E-01;  0.0000000E+00; -2.9751064E-02;  1.0099479E+03;  4.0413868E-01;  8.2413877E+03;3; -5.5967136E+01;  0.0000000E+00;  8.1697245E+00;0;  3.3150434E-02;  1.0023701E+04;  0.0000000E+00; -1.2868800E-03;  1.0000000E+04;  0.0000000E+00;  9.9688018E+03; -1.8987629E-01;  0.0000000E+00;  2.2302672E-01;  1.5314292E+04;
  6.3879389E-01;  9.9999998E-03; -1.4020354E-01;2029; -3.4789202E-01;  0.0000000E+00; -2.5957599E-02;  1.0099915E+03;  4.0413946E-01;  8.2775332E+03;3; -5.8371803E+01;  0.0000000E+00;  7.0001235E+00;0;  1.2273222E-02;  1.0024409E+04;  0.0000000E+00; -9.4146671E-04;  1.0000000E+04;  0.0000000E+00;  9.9689150E+03; -2.1479312E-01;  0.0000000E+00;  2.2706634E-01;  1.5259448E+04;
  6.3880515E-01;  9.9999998E-03; -1.2017509E-01;2030; -3.5061535E-01;  0.0000000E+00; -2.1879371E-02;  1.0100137E+03;  4.0414008E-01;  8.2959023E+03;3; -6.0491882E+01;  0.0000000E+00;  5.9372149E+00;0; -9.9430084E-03;  1.0024952E+04;  0.0000000E+00; -5.1576889E-04;  1.0000000E+04;  0.0000000E+00;  9.9687754E+03; -2.3649374E-01;  0.0000000E+00;  2.2655073E-01;  1.5330409E+04;
  6.3881558E-01;  9.9999998E-03; -1.0014550E-01;2031; -3.5289907E-01;  0.0000000E+00; -1.7708493E-02;  1.0100241E+03;  4.0414086E-01;  8.3044951E+03;3; -6.2402966E+01;  0.0000000E+00;  4.9137888E+00;0; -3.2882124E-02;  1.0025358E+04;  0.0000000E+00; -2.2149840E-04;  1.0000000E+04;  0.0000000E+00;  9.9685332E+03; -2.5503296E-01;  0.0000000E+00;  2.2215083E-01;  1.5457304E+04;
  6.3882482E-01;  9.9999998E-03; -8.0115855E-02;2032; -3.5472739E-01;  0.0000000E+00; -1.3648055E-02;  1.0100287E+03;  4.0414140E-01;  8.3083467E+03;3; -6.4034813E+01;  0.0000000E+00;  3.8385470E+00;0; -5.4794058E-02;  1.0025654E+04;  0.0000000E+00; -8.1103848E-05;  1.0000000E+04;  0.0000000E+00;  9.9682998E+03; -2.7015823E-01;  0.0000000E+00;  2.1536417E-01;  1.5584319E+04;
  6.3883251E-01;  9.9999998E-03; -6.0086634E-02;2033; -3.5613963E-01;  0.0000000E+00; -9.8583028E-03;  1.0100300E+03;  4.0414178E-01;  8.3094326E+03;3; -6.5445755E+01;  0.0000000E+00;  2.9072900E+00;0; -7.3842496E-02;  1.0025847E+04;  0.0000000E+00; -2.4829489E-05;  1.0000000E+04;  0.0000000E+00;  9.9681201E+03; -2.8172916E-01;  0.0000000E+00;  2.0788667E-01;  1.5685434E+04;
  6.3883829E-01;  9.9999998E-03; -4.0057775E-02;2034; -3.5715401E-01;  0.0000000E+00; -6.3615050E-03;  1.0100304E+03;  4.0414208E-01;  8.3097285E+03;3; -6.6512093E+01;  0.0000000E+00;  1.9834975E+00;0; -8.8501006E-02;  1.0025962E+04;  0.0000000E+00; -3.1690404E-06;  1.0000000E+04;  0.0000000E+00;  9.9679951E+03; -2.8979459E-01;  0.0000000E+00;  2.0129359E-01;  1.5758184E+04;
  6.3884187E-01;  9.9999998E-03; -2.0028934E-02;2035; -3.5777232E-01;  0.0000000E+00; -3.1007421E-03;  1.0100300E+03;  4.0414229E-01;  8.3094326E+03;3; -6.7126762E+01;  0.0000000E+00;  1.0651901E+00;0; -9.7691059E-02;  1.0026022E+04;  0.0000000E+00;  1.0081959E-06;  1.0000000E+04;  0.0000000E+00;  9.9679160E+03; -2.9452038E-01;  0.0000000E+00;  1.9682932E-01;  1.5804532E+04;
  6.5872246E-01;  9.9999998E-03; -1.8029857E-01;2058; -3.4980783E-01;  0.0000000E+00; -3.4008387E-02;  1.0142735E+03;  4.0686852E-01;  1.1824851E+04;3; -5.3388741E+01;  0.0000000E+00;  1.2688581E+01;0;  5.8829230E-01;  9.9812119E+03;  0.0000000E+00; -1.5251647E-04;  1.0000000E+04;  0.0000000E+00;  9.9621553E+03;  3.4044871E-01;  0.0000000E+00;  2.4784359E-01;  1.8413838E+04;
  6.5873575E-01;  9.9999998E-03; -1.6026902E-01;2059; -3.5353398E-01;  0.0000000E+00; -2.9847289E-02;  1.0143870E+03;  4.0686929E-01;  1.1918868E+04;3; -5.5964375E+01;  0.0000000E+00;  1.1357678E+01;0;  5.6486058E-01;  9.9832012E+03;  0.0000000E+00; -1.3385294E-03;  1.0000000E+04;  0.0000000E+00;  9.9623633E+03;  3.0483624E-01;  0.0000000E+00;  2.6002434E-01;  1.8304668E+04;
  6.5874767E-01;  9.9999998E-03; -1.4023791E-01;2060; -3.5699001E-01;  0.0000000E+00; -2.5660302E-02;  1.0144691E+03;  4.0686986E-01;  1.1986913E+04;3; -5.8397064E+01;  0.0000000E+00;  9.9314117E+00;0;  5.3976035E-01;  9.9846816E+03;  0.0000000E+00; -1.2204865E-03;  1.0000000E+04;  0.0000000E+00;  9.9624697E+03;  2.7502832E-01;  0.0000000E+00;  2.6473206E-01;  1.8254211E+04;
  6.5875864E-01;  9.9999998E-03; -1.2020412E-01;2061; -3.5995129E-01;  0.0000000E+00; -2.1285566E-02;  1.0145244E+03;  4.0687022E-01;  1.2032737E+04;3; -6.0610268E+01;  0.0000000E+00;  8.4897308E+00;0;  5.1185071E-01;  9.9858145E+03;  0.0000000E+00; -8.3754287E-04;  1.0000000E+04;  0.0000000E+00;  9.9623994E+03;  2.4949910E-01;  0.0000000E+00;  2.6235160E-01;  1.8297574E+04;
  6.5876877E-01;  9.9999998E-03; -1.0016934E-01;2062; -3.6241561E-01;  0.0000000E+00; -1.6962215E-02;  1.0145609E+03;  4.0687087E-01;  1.2062957E+04;3; -6.2462494E+01;  0.0000000E+00;  7.0338864E+00;0;  4.8267102E-01;  9.9867012E+03;  0.0000000E+00; -4.7992924E-04;  1.0000000E+04;  0.0000000E+00;  9.9622051E+03;  2.2769894E-01;  0.0000000E+00;  2.5497210E-01;  1.8406980E+04;
  6.5877807E-01;  9.9999998E-03; -8.0134980E-02;2063; -3.6433029E-01;  0.0000000E+00; -1.2880174E-02;  1.0145839E+03;  4.0687138E-01;  1.2082018E+04;3; -6.4133560E+01;  0.0000000E+00;  5.6255360E+00;0;  4.5507255E-01;  9.9873789E+03;  0.0000000E+00; -2.4322791E-04;  1.0000000E+04;  0.0000000E+00;  9.9619551E+03;  2.0972335E-01;  0.0000000E+00;  2.4534920E-01;  1.8548064E+04;
  6.5878594E-01;  9.9999998E-03; -6.0101327E-02;2064; -3.6574674E-01;  0.0000000E+00; -9.1620563E-03;  1.0145969E+03;  4.0687186E-01;  1.2092782E+04;3; -6.5518982E+01;  0.0000000E+00;  4.2715569E+00;0;  4.3158665E-01;  9.9878721E+03;  0.0000000E+00; -1.0523339E-04;  1.0000000E+04;  0.0000000E+00;  9.9616943E+03;  1.9574903E-01;  0.0000000E+00;  2.3583762E-01;  1.8693127E+04;
  6.5879190E-01;  9.9999998E-03; -4.0067803E-02;2065; -3.6674157E-01;  0.0000000E+00; -5.8666854E-03;  1.0146025E+03;  4.0687218E-01;  1.2097424E+04;3; -6.6563438E+01;  0.0000000E+00;  2.9118097E+00;0;  4.1393059E-01;  9.9882041E+03;  0.0000000E+00; -3.2401476E-05;  1.0000000E+04;  0.0000000E+00;  9.9614600E+03;  1.8584436E-01;  0.0000000E+00;  2.2808623E-01;  1.8822307E+04;
  6.5879554E-01;  9.9999998E-03; -2.0033972E-02;2066; -3.6734378E-01;  0.0000000E+00; -2.8716940E-03;  1.0146037E+03;  4.0687221E-01;  1.2098411E+04;3; -6.7316254E+01;  0.0000000E+00;  1.4755130E+00;0;  4.0307188E-01;  9.9883906E+03;  0.0000000E+00; -4.8176917E-06;  1.0000000E+04;  0.0000000E+00;  9.9612900E+03;  1.7996229E-01;  0.0000000E+00;  2.2310960E-01;  1.8915105E+04;
  6.7870659E-01;  9.9999998E-03; -1.8036716E-01;2089; -3.5208398E-01;  0.0000000E+00; -3.9131820E-02;  1.0168504E+03;  4.0907708E-01;  1.3959411E+04;3; -5.2997314E+01;  0.0000000E+00;  1.6525320E+01;0;  1.2521724E+00;  9.9296484E+03;  0.0000000E+00;  1.4273304E-03;  1.0000000E+04;  0.0000000E+00;  9.9562275E+03;  9.7507966E-01;  0.0000000E+00;  2.7709270E-01;  2.1109262E+04;
  6.7871869E-01;  9.9999998E-03; -1.6032781E-01;2090; -3.5642481E-01;  0.0000000E+00; -3.2972269E-02;  1.0169758E+03;  4.0907699E-01;  1.4063304E+04;3; -5.5705288E+01;  0.0000000E+00;  1.5267272E+01;0;  1.2367835E+00;  9.9324043E+03;  0.0000000E+00; -5.4483506E-04;  1.0000000E+04;  0.0000000E+00;  9.9559199E+03;  9.3979937E-01;  0.0000000E+00;  2.9698417E-01;  2.1252775E+04;
  6.7872918E-01;  9.9999998E-03; -1.4028928E-01;2091; -3.6048242E-01;  0.0000000E+00; -2.7485870E-02;  1.0170756E+03;  4.0907693E-01;  1.4146062E+04;3; -5.8232159E+01;  0.0000000E+00;  1.3800487E+01;0;  1.2153963E+00;  9.9345430E+03;  0.0000000E+00; -9.5612538E-04;  1.0000000E+04;  0.0000000E+00;  9.9557314E+03;  9.1009849E-01;  0.0000000E+00;  3.0529779E-01;  2.1346354E+04;
  6.7873865E-01;  9.9999998E-03; -1.2024876E-01;2092; -3.6403665E-01;  0.0000000E+00; -2.2321351E-02;  1.0171511E+03;  4.0907696E-01;  1.4208575E+04;3; -6.0548168E+01;  0.0000000E+00;  1.2245943E+01;0;  1.1876564E+00;  9.9362324E+03;  0.0000000E+00; -8.8817644E-04;  1.0000000E+04;  0.0000000E+00;  9.9555273E+03;  8.8448334E-01;  0.0000000E+00;  3.0317307E-01;  2.1460242E+04;
  6.7874771E-01;  9.9999998E-03; -1.0020754E-01;2093; -3.6690870E-01;  0.0000000E+00; -1.7513359E-02;  1.0172067E+03;  4.0907705E-01;  1.4254596E+04;3; -6.2426891E+01;  0.0000000E+00;  1.0545727E+01;0;  1.1566242E+00;  9.9375781E+03;  0.0000000E+00; -6.5065117E-04;  1.0000000E+04;  0.0000000E+00;  9.9552529E+03;  8.6229473E-01;  0.0000000E+00;  2.9432943E-01;  2.1613115E+04;
  6.7875612E-01;  9.9999998E-03; -8.0166966E-02;2094; -3.6911309E-01;  0.0000000E+00; -1.3151539E-02;  1.0172435E+03;  4.0907711E-01;  1.4285112E+04;3; -6.4104591E+01;  0.0000000E+00;  8.8836746E+00;0;  1.1266491E+00;  9.9386396E+03;  0.0000000E+00; -4.0114860E-04;  1.0000000E+04;  0.0000000E+00;  9.9549121E+03;  8.4360814E-01;  0.0000000E+00;  2.8304100E-01;  2.1804949E+04;
  6.7876321E-01;  9.9999998E-03; -6.0126700E-02;2095; -3.7074605E-01;  0.0000000E+00; -9.2241503E-03;  1.0172648E+03;  4.0907735E-01;  1.4302789E+04;3; -6.5462448E+01;  0.0000000E+00;  7.1305580E+00;0;  1.1012554E+00;  9.9394395E+03;  0.0000000E+00; -2.0104853E-04;  1.0000000E+04;  0.0000000E+00;  9.9545205E+03;  8.2873642E-01;  0.0000000E+00;  2.7251902E-01;  2.2019469E+04;
  6.7876852E-01;  9.9999998E-03; -4.0085871E-02;2096; -3.7188593E-01;  0.0000000E+00; -5.8257920E-03;  1.0172737E+03;  4.0907735E-01;  1.4310098E+04;3; -6.6384125E+01;  0.0000000E+00;  5.0171089E+00;0;  1.0824785E+00;  9.9400000E+03;  0.0000000E+00; -7.2409719E-05;  1.0000000E+04;  0.0000000E+00;  9.9541338E+03;  8.1796455E-01;  0.0000000E+00;  2.6451391E-01;  2.2225635E+04;
  6.7877167E-01;  9.9999998E-03; -2.0043548E-02;2097; -3.7256756E-01;  0.0000000E+00; -2.8162063E-03;  1.0172753E+03;  4.0907738E-01;  1.4311480E+04;3; -6.6953430E+01;  0.0000000E+00;  2.6182528E+00;0;  1.0711370E+00;  9.9403213E+03;  0.0000000E+00; -1.3860352E-05;  1.0000000E+04;  0.0000000E+00;  9.9538428E+03;  8.1146193E-01;  0.0000000E+00;  2.5967500E-01;  2.2379725E+04;
  6.9874531E-01;  9.9999998E-03; -1.8047410E-01;2120; -3.4230456E-01;  0.0000000E+00; -5.4953098E-02;  1.0168228E+03;  4.1030085E-01;  1.3936324E+04;3; -5.1216454E+01;  0.0000000E+00;  1.9629532E+01;0;  1.9653740E+00;  9.8746475E+03;  0.0000000E+00;  3.0474139E-03;  1.0000000E+04;  0.0000000E+00;  9.9512969E+03;  1.6666055E+00;  0.0000000E+00;  2.9876852E-01;  2.3302762E+04;
  6.9875300E-01;  9.9999998E-03; -1.6042109E-01;2121; -3.4857580E-01;  0.0000000E+00; -4.5211982E-02;  1.0169203E+03;  4.1030008E-01;  1.4017105E+04;3; -5.4571682E+01;  0.0000000E+00;  1.8948509E+01;0;  1.9716760E+00;  9.8776689E+03;  0.0000000E+00;  6.7908294E-04;  1.0000000E+04;  0.0000000E+00;  9.9501816E+03;  1.6430930E+00;  0.0000000E+00;  3.2858303E-01;  2.3835313E+04;
  6.9875824E-01;  9.9999998E-03; -1.4036913E-01;2122; -3.5451862E-01;  0.0000000E+00; -3.6808461E-02;  1.0170062E+03;  4.1029951E-01;  1.4088308E+04;3; -5.7565800E+01;  0.0000000E+00;  1.7873413E+01;0;  1.9655627E+00;  9.8801484E+03;  0.0000000E+00; -2.3683798E-04;  1.0000000E+04;  0.0000000E+00;  9.9493926E+03;  1.6223431E+00;  0.0000000E+00;  3.4321967E-01;  2.4222996E+04;
  6.9876230E-01;  9.9999998E-03; -1.2031627E-01;2123; -3.5965583E-01;  0.0000000E+00; -2.9722478E-02;  1.0170803E+03;  4.1029915E-01;  1.4149635E+04;3; -6.0047565E+01;  0.0000000E+00;  1.6374523E+01;0;  1.9472260E+00;  9.8821992E+03;  0.0000000E+00; -5.7883316E-04;  1.0000000E+04;  0.0000000E+00;  9.9488037E+03;  1.6035663E+00;  0.0000000E+00;  3.4365979E-01;  2.4526797E+04;
  6.9876760E-01;  9.9999998E-03; -1.0026442E-01;2124; -3.6358681E-01;  0.0000000E+00; -2.3826873E-02;  1.0171398E+03;  4.1029859E-01;  1.4198914E+04;3; -6.2187710E+01;  0.0000000E+00;  1.4620628E+01;0;  1.9218086E+00;  9.8838926E+03;  0.0000000E+00; -5.9179001E-04;  1.0000000E+04;  0.0000000E+00;  9.9482813E+03;  1.5865436E+00;  0.0000000E+00;  3.3526501E-01;  2.4806146E+04;
  6.9877338E-01;  9.9999998E-03; -8.0213934E-02;2125; -3.6667508E-01;  0.0000000E+00; -1.8558862E-02;  1.0171819E+03;  4.1029862E-01;  1.4233873E+04;3; -6.3922325E+01;  0.0000000E+00;  1.2773534E+01;0;  1.8954446E+00;  9.8852695E+03;  0.0000000E+00; -4.3809277E-04;  1.0000000E+04;  0.0000000E+00;  9.9477344E+03;  1.5715522E+00;  0.0000000E+00;  3.2389250E-01;  2.5101414E+04;
  6.9877851E-01;  9.9999998E-03; -6.0163207E-02;2126; -3.6905760E-01;  0.0000000E+00; -1.3621395E-02;  1.0172058E+03;  4.1029835E-01;  1.4253624E+04;3; -6.5209358E+01;  0.0000000E+00;  1.0484189E+01;0;  1.8728218E+00;  9.8863340E+03;  0.0000000E+00; -2.4437532E-04;  1.0000000E+04;  0.0000000E+00;  9.9471377E+03;  1.5591331E+00;  0.0000000E+00;  3.1368881E-01;  2.5418576E+04;
  6.9878227E-01;  9.9999998E-03; -4.0110964E-02;2127; -3.7083521E-01;  0.0000000E+00; -8.9187734E-03;  1.0172147E+03;  4.1029826E-01;  1.4260932E+04;3; -6.6127205E+01;  0.0000000E+00;  7.6401725E+00;0;  1.8563552E+00;  9.8870938E+03;  0.0000000E+00; -9.5507014E-05;  1.0000000E+04;  0.0000000E+00;  9.9465586E+03;  1.5498408E+00;  0.0000000E+00;  3.0651438E-01;  2.5723623E+04;
  6.9878441E-01;  9.9999998E-03; -2.0056307E-02;2128; -3.7185735E-01;  0.0000000E+00; -4.4004265E-03;  1.0172154E+03;  4.1029802E-01;  1.4261524E+04;3; -6.6547821E+01;  0.0000000E+00;  3.9773850E+00;0;  1.8466549E+00;  9.8875518E+03;  0.0000000E+00; -1.9941870E-05;  1.0000000E+04;  0.0000000E+00;  9.9461152E+03;  1.5441033E+00;  0.0000000E+00;  3.0255157E-01;  2.5952359E+04;
  7.1891475E-01;  9.9999998E-03; -1.8061671E-01;2151; -3.0024266E-01;  0.0000000E+00; -8.7868504E-02;  1.0154877E+03;  4.1084304E-01;  1.2829922E+04;3; -4.1812771E+01;  0.0000000E+00;  2.0944422E+01;0;  2.6019151E+00;  9.8262275E+03;  0.0000000E+00;  3.2959604E-03;  1.0000000E+04;  0.0000000E+00;  9.9477256E+03;  2.2894132E+00;  0.0000000E+00;  3.1250200E-01;  2.4850535E+04;
  7.1891969E-01;  9.9999998E-03; -1.6055584E-01;2152; -3.0832833E-01;  0.0000000E+00; -7.7639520E-02;  1.0155228E+03;  4.1084203E-01;  1.2859054E+04;3; -4.6232826E+01;  0.0000000E+00;  1.8814508E+01;0;  2.6407228E+00;  9.8288965E+03;  0.0000000E+00;  1.3390004E-03;  1.0000000E+04;  0.0000000E+00;  9.9457480E+03;  2.2898257E+00;  0.0000000E+00;  3.5089716E-01;  2.5803227E+04;
  7.1892345E-01;  9.9999998E-03; -1.4048941E-01;2153; -3.1654552E-01;  0.0000000E+00; -6.6333413E-02;  1.0155657E+03;  4.1084141E-01;  1.2894604E+04;3; -5.0490814E+01;  0.0000000E+00;  1.7995050E+01;0;  2.6606410E+00;  9.8313105E+03;  0.0000000E+00;  3.8076047E-04;  1.0000000E+04;  0.0000000E+00;  9.9441709E+03;  2.2881007E+00;  0.0000000E+00;  3.7254027E-01;  2.6571404E+04;
  7.1892703E-01;  9.9999998E-03; -1.2041777E-01;2154; -3.2431909E-01;  0.0000000E+00; -5.5483893E-02;  1.0156160E+03;  4.1084072E-01;  1.2936180E+04;3; -5.4498535E+01;  0.0000000E+00;  1.6637854E+01;0;  2.6613369E+00;  9.8334482E+03;  0.0000000E+00; -1.2389086E-04;  1.0000000E+04;  0.0000000E+00;  9.9430117E+03;  2.2845895E+00;  0.0000000E+00;  3.7674740E-01;  2.7154096E+04;
  7.1893233E-01;  9.9999998E-03; -1.0034670E-01;2155; -3.3061105E-01;  0.0000000E+00; -4.5371007E-02;  1.0156639E+03;  4.1084003E-01;  1.2975878E+04;3; -5.8130177E+01;  0.0000000E+00;  1.4941087E+01;0;  2.6498959E+00;  9.8353037E+03;  0.0000000E+00; -3.1309048E-04;  1.0000000E+04;  0.0000000E+00;  9.9420918E+03;  2.2797427E+00;  0.0000000E+00;  3.7015319E-01;  2.7633594E+04;
  7.1893871E-01;  9.9999998E-03; -8.0278277E-02;2156; -3.3530623E-01;  0.0000000E+00; -3.5959791E-02;  1.0157004E+03;  4.1083995E-01;  1.3006096E+04;3; -6.1287666E+01;  0.0000000E+00;  1.2983880E+01;0;  2.6341898E+00;  9.8368779E+03;  0.0000000E+00; -2.9046764E-04;  1.0000000E+04;  0.0000000E+00;  9.9412324E+03;  2.2742174E+00;  0.0000000E+00;  3.5997257E-01;  2.8084791E+04;
  7.1894497E-01;  9.9999998E-03; -6.0211409E-02;2157; -3.3878767E-01;  0.0000000E+00; -2.7038157E-02;  1.0157201E+03;  4.1083935E-01;  1.3022489E+04;3; -6.3884251E+01;  0.0000000E+00;  1.0630525E+01;0;  2.6199801E+00;  9.8381328E+03;  0.0000000E+00; -1.7663017E-04;  1.0000000E+04;  0.0000000E+00;  9.9403623E+03;  2.2688088E+00;  0.0000000E+00;  3.5117131E-01;  2.8538582E+04;
  7.1895027E-01;  9.9999998E-03; -4.0143482E-02;2158; -3.4118393E-01;  0.0000000E+00; -1.8199107E-02;  1.0157247E+03;  4.1083899E-01;  1.3026341E+04;3; -6.5904991E+01;  0.0000000E+00;  7.6470714E+00;0;  2.6099834E+00;  9.8390498E+03;  0.0000000E+00; -7.0922426E-05;  1.0000000E+04;  0.0000000E+00;  9.9395400E+03;  2.2643168E+00;  0.0000000E+00;  3.4566659E-01;  2.8963400E+04;
  7.1895379E-01;  9.9999998E-03; -2.0072846E-02;2159; -3.4254277E-01;  0.0000000E+00; -9.1806576E-03;  1.0157220E+03;  4.1083884E-01;  1.3024068E+04;3; -6.7191849E+01;  0.0000000E+00;  4.0229034E+00;0;  2.6044865E+00;  9.8396084E+03;  0.0000000E+00; -1.4676832E-05;  1.0000000E+04;  0.0000000E+00;  9.9389238E+03;  2.2613616E+00;  0.0000000E+00;  3.4312499E-01;  2.9278232E+04;
  7.3929745E-01;  9.9999998E-03; -1.8063995E-01;2182; -1.9272925E-01;  0.0000000E+00; -8.4691912E-02;  1.0142540E+03;  4.1105875E-01;  1.1807498E+04;3; -2.4271063E+01;  0.0000000E+00;  2.5574488E+01;0;  3.0287039E+00;  9.7942178E+03;  0.0000000E+00;  2.1047799E-03;  1.0000000E+04;  0.0000000E+00;  9.9456201E+03;  2.7097254E+00;  0.0000000E+00;  3.1897849E-01;  2.5736354E+04;
  7.3929751E-01;  9.9999998E-03; -1.6058038E-01;2183; -1.9980119E-01;  0.0000000E+00; -7.4237548E-02;  1.0142062E+03;  4.1105813E-01;  1.1767999E+04;3; -2.7568945E+01;  0.0000000E+00;  2.4538408E+01;0;  3.1038063E+00;  9.7960840E+03;  0.0000000E+00;  1.0755939E-03;  1.0000000E+04;  0.0000000E+00;  9.9428369E+03;  2.7401285E+00;  0.0000000E+00;  3.6367774E-01;  2.7080303E+04;
  7.3929840E-01;  9.9999998E-03; -1.4051282E-01;2184; -2.0679578E-01;  0.0000000E+00; -6.3318767E-02;  1.0141925E+03;  4.1105717E-01;  1.1756544E+04;3; -3.1032282E+01;  0.0000000E+00;  2.3298456E+01;0;  3.1524844E+00;  9.7980996E+03;  0.0000000E+00;  5.2981981E-04;  1.0000000E+04;  0.0000000E+00;  9.9405527E+03;  2.7628138E+00;  0.0000000E+00;  3.8967073E-01;  2.8196887E+04;
  7.3930001E-01;  9.9999998E-03; -1.2043874E-01;2185; -2.1333154E-01;  0.0000000E+00; -5.2708302E-02;  1.0142049E+03;  4.1105652E-01;  1.1766813E+04;3; -3.4455647E+01;  0.0000000E+00;  2.1343550E+01;0;  3.1760459E+00;  9.8000908E+03;  0.0000000E+00;  1.8870330E-04;  1.0000000E+04;  0.0000000E+00;  9.9388115E+03;  2.7794921E+00;  0.0000000E+00;  3.9655375E-01;  2.9067662E+04;
  7.3930228E-01;  9.9999998E-03; -1.0036575E-01;2186; -2.1905619E-01;  0.0000000E+00; -4.3225292E-02;  1.0142290E+03;  4.1105589E-01;  1.1786860E+04;3; -3.7667633E+01;  0.0000000E+00;  1.8996593E+01;0;  3.1830397E+00;  9.8019414E+03;  0.0000000E+00;  4.4730791E-06;  1.0000000E+04;  0.0000000E+00;  9.9374238E+03;  2.7913730E+00;  0.0000000E+00;  3.9166662E-01;  2.9776094E+04;
  7.3930514E-01;  9.9999998E-03; -8.0295339E-02;2187; -2.2378103E-01;  0.0000000E+00; -3.4608059E-02;  1.0142493E+03;  4.1105539E-01;  1.1803647E+04;3; -4.0543110E+01;  0.0000000E+00;  1.6362938E+01;0;  3.1824152E+00;  9.8035674E+03;  0.0000000E+00; -5.0566963E-05;  1.0000000E+04;  0.0000000E+00;  9.9361885E+03;  2.7993824E+00;  0.0000000E+00;  3.8303277E-01;  3.0413896E+04;
  7.3930818E-01;  9.9999998E-03; -6.0225580E-02;2188; -2.2743173E-01;  0.0000000E+00; -2.6278064E-02;  1.0142573E+03;  4.1105485E-01;  1.1810264E+04;3; -4.2968899E+01;  0.0000000E+00;  1.3285793E+01;0;  3.1804247E+00;  9.8049170E+03;  0.0000000E+00; -3.5682275E-05;  1.0000000E+04;  0.0000000E+00;  9.9349961E+03;  2.8044090E+00;  0.0000000E+00;  3.7601569E-01;  3.1027248E+04;
  7.3931098E-01;  9.9999998E-03; -4.0153727E-02;2189; -2.3000474E-01;  0.0000000E+00; -1.7809769E-02;  1.0142527E+03;  4.1105455E-01;  1.1806511E+04;3; -4.4826538E+01;  0.0000000E+00;  9.5231371E+00;0;  3.1796887E+00;  9.8059180E+03;  0.0000000E+00; -1.0150625E-05;  1.0000000E+04;  0.0000000E+00;  9.9339053E+03;  2.8072798E+00;  0.0000000E+00;  3.7240878E-01;  3.1584998E+04;
  7.3931301E-01;  9.9999998E-03; -2.0078246E-02;2190; -2.3152950E-01;  0.0000000E+00; -9.0259658E-03;  1.0142436E+03;  4.1105452E-01;  1.1798906E+04;3; -4.6000534E+01;  0.0000000E+00;  5.0093832E+00;0;  3.1800628E+00;  9.8065400E+03;  0.0000000E+00; -3.6524008E-07;  1.0000000E+04;  0.0000000E+00;  9.9330986E+03;  2.8086927E+00;  0.0000000E+00;  3.7137011E-01;  3.1991709E+04;
  7.5960207E-01;  9.9999998E-03; -1.8063377E-01;2213; -1.1140139E-01;  0.0000000E+00; -7.2983839E-02;  1.0137599E+03;  4.1113985E-01;  1.1397717E+04;3; -1.4598600E+01;  0.0000000E+00;  3.1369991E+01;0;  3.2000890E+00;  9.7820449E+03;  0.0000000E+00;  7.1520393E-04;  1.0000000E+04;  0.0000000E+00;  9.9444902E+03;  2.8758557E+00;  0.0000000E+00;  3.2423332E-01;  2.6216545E+04;
  7.5959772E-01;  9.9999998E-03; -1.6057941E-01;2214; -1.1714957E-01;  0.0000000E+00; -6.4264394E-02;  1.0136423E+03;  4.1113916E-01;  1.1300257E+04;3; -1.6764172E+01;  0.0000000E+00;  3.0206715E+01;0;  3.3017015E+00;  9.7829873E+03;  0.0000000E+00;  4.5665714E-04;  1.0000000E+04;  0.0000000E+00;  9.9412764E+03;  2.9319396E+00;  0.0000000E+00;  3.6976203E-01;  2.7770826E+04;
  7.5959432E-01;  9.9999998E-03; -1.4051567E-01;2215; -1.2300777E-01;  0.0000000E+00; -5.5168584E-02;  1.0135775E+03;  4.1113859E-01;  1.1246540E+04;3; -1.9146479E+01;  0.0000000E+00;  2.8384304E+01;0;  3.3718903E+00;  9.7844600E+03;  0.0000000E+00;  3.3495185E-04;  1.0000000E+04;  0.0000000E+00;  9.9385400E+03;  2.9759867E+00;  0.0000000E+00;  3.9590365E-01;  2.9109779E+04;
  7.5959176E-01;  9.9999998E-03; -1.2044422E-01;2216; -1.2866914E-01;  0.0000000E+00; -4.6311967E-02;  1.0135520E+03;  4.1113788E-01;  1.1225409E+04;3; -2.1594851E+01;  0.0000000E+00;  2.5817356E+01;0;  3.4139242E+00;  9.7861533E+03;  0.0000000E+00;  2.3189084E-04;  1.0000000E+04;  0.0000000E+00;  9.9363516E+03;  3.0110044E+00;  0.0000000E+00;  4.0291989E-01;  3.0200160E+04;
  7.5959003E-01;  9.9999998E-03; -1.0037273E-01;2217; -1.3382488E-01;  0.0000000E+00; -3.8383387E-02;  1.0135469E+03;  4.1113719E-01;  1.1221262E+04;3; -2.3978237E+01;  0.0000000E+00;  2.2866825E+01;0;  3.4372687E+00;  9.7878428E+03;  0.0000000E+00;  1.4625058E-04;  1.0000000E+04;  0.0000000E+00;  9.9345654E+03;  3.0389283E+00;  0.0000000E+00;  3.9834058E-01;  3.1108016E+04;
  7.5958920E-01;  9.9999998E-03; -8.0302782E-02;2218; -1.3825285E-01;  0.0000000E+00; -3.1074004E-02;  1.0135444E+03;  4.1113672E-01;  1.1219090E+04;3; -2.6180897E+01;  0.0000000E+00;  1.9624908E+01;0;  3.4511707E+00;  9.7893828E+03;  0.0000000E+00;  9.0119953E-05;  1.0000000E+04;  0.0000000E+00;  9.9329766E+03;  3.0607164E+00;  0.0000000E+00;  3.9045426E-01;  3.1922150E+04;
  7.5958902E-01;  9.9999998E-03; -6.0232446E-02;2219; -1.4179888E-01;  0.0000000E+00; -2.3831977E-02;  1.0135339E+03;  4.1113618E-01;  1.1210499E+04;3; -2.8085911E+01;  0.0000000E+00;  1.5882310E+01;0;  3.4615541E+00;  9.7906807E+03;  0.0000000E+00;  5.6322922E-05;  1.0000000E+04;  0.0000000E+00;  9.9314707E+03;  3.0769334E+00;  0.0000000E+00;  3.8462073E-01;  3.2690059E+04;
  7.5958937E-01;  9.9999998E-03; -4.0159017E-02;2220; -1.4437118E-01;  0.0000000E+00; -1.6276456E-02;  1.0135151E+03;  4.1113597E-01;  1.1194897E+04;3; -2.9570019E+01;  0.0000000E+00;  1.1351583E+01;0;  3.4704025E+00;  9.7916641E+03;  0.0000000E+00;  3.0800446E-05;  1.0000000E+04;  0.0000000E+00;  9.9301201E+03;  3.0880480E+00;  0.0000000E+00;  3.8235453E-01;  3.3375027E+04;
  7.5958979E-01;  9.9999998E-03; -2.0081125E-02;2221; -1.4592586E-01;  0.0000000E+00; -8.2875425E-03;  1.0134968E+03;  4.1113576E-01;  1.1179690E+04;3; -3.0517412E+01;  0.0000000E+00;  5.9593434E+00;0;  3.4768739E+00;  9.7922813E+03;  0.0000000E+00;  9.2897935E-06;  1.0000000E+04;  0.0000000E+00;  9.9291436E+03;  3.0944972E+00;  0.0000000E+00;  3.8237673E-01;  3.3867934E+04;
  7.7982312E-01;  9.9999998E-03; -1.8062252E-01;2244; -5.6225300E-02;  0.0000000E+00; -6.3768499E-02;  1.0139355E+03;  4.1116831E-01;  1.1542295E+04;3; -1.0270010E+01;  0.0000000E+00;  3.5335960E+01;0;  3.1953988E+00;  9.7846816E+03;  0.0000000E+00;  1.1208853E-05;  1.0000000E+04;  0.0000000E+00;  9.9438848E+03;  2.8643737E+00;  0.0000000E+00;  3.3102509E-01;  2.6489004E+04;
  7.7981812E-01;  9.9999998E-03; -1.6057210E-01;2245; -5.9593815E-02;  0.0000000E+00; -5.6233581E-02;  1.0137803E+03;  4.1116783E-01;  1.1413739E+04;3; -1.1247953E+01;  0.0000000E+00;  3.3833202E+01;0;  3.3075492E+00;  9.7849355E+03;  0.0000000E+00;  5.6910307E-05;  1.0000000E+04;  0.0000000E+00;  9.9406201E+03;  2.9341652E+00;  0.0000000E+00;  3.7338397E-01;  2.8065324E+04;
  7.7981347E-01;  9.9999998E-03; -1.4051150E-01;2246; -6.3302577E-02;  0.0000000E+00; -4.8299644E-02;  1.0136852E+03;  4.1116726E-01;  1.1335045E+04;3; -1.2425560E+01;  0.0000000E+00;  3.1684692E+01;0;  3.3865569E+00;  9.7859707E+03;  0.0000000E+00;  1.0417060E-04;  1.0000000E+04;  0.0000000E+00;  9.9377393E+03;  2.9900546E+00;  0.0000000E+00;  3.9650226E-01;  2.9476373E+04;
  7.7980924E-01;  9.9999998E-03; -1.2044241E-01;2247; -6.7145102E-02;  0.0000000E+00; -4.0555131E-02;  1.0136337E+03;  4.1116652E-01;  1.1292391E+04;3; -1.3735986E+01;  0.0000000E+00;  2.8809000E+01;0;  3.4373574E+00;  9.7873740E+03;  0.0000000E+00;  1.1851663E-04;  1.0000000E+04;  0.0000000E+00;  9.9353369E+03;  3.0361190E+00;  0.0000000E+00;  4.0123841E-01;  3.0677266E+04;
  7.7980548E-01;  9.9999998E-03; -1.0037261E-01;2248; -7.0865914E-02;  0.0000000E+00; -3.3660211E-02;  1.0136050E+03;  4.1116610E-01;  1.1268595E+04;3; -1.5100137E+01;  0.0000000E+00;  2.5556696E+01;0;  3.4698687E+00;  9.7888525E+03;  0.0000000E+00;  1.0705979E-04;  1.0000000E+04;  0.0000000E+00;  9.9333027E+03;  3.0747361E+00;  0.0000000E+00;  3.9513254E-01;  3.1710115E+04;
  7.7980256E-01;  9.9999998E-03; -8.0303766E-02;2249; -7.4231617E-02;  0.0000000E+00; -2.7323654E-02;  1.0135805E+03;  4.1116548E-01;  1.1248354E+04;3; -1.6430975E+01;  0.0000000E+00;  2.1979061E+01;0;  3.4931135E+00;  9.7902236E+03;  0.0000000E+00;  8.3308463E-05;  1.0000000E+04;  0.0000000E+00;  9.9314590E+03;  3.1066189E+00;  0.0000000E+00;  3.8649458E-01;  3.2649740E+04;
  7.7980047E-01;  9.9999998E-03; -6.0233969E-02;2250; -7.7040009E-02;  0.0000000E+00; -2.1028288E-02;  1.0135508E+03;  4.1116503E-01;  1.1223770E+04;3; -1.7628716E+01;  0.0000000E+00;  1.7813593E+01;0;  3.5122125E+00;  9.7913828E+03;  0.0000000E+00;  5.5711109E-05;  1.0000000E+04;  0.0000000E+00;  9.9297178E+03;  3.1316779E+00;  0.0000000E+00;  3.8053459E-01;  3.3534980E+04;
  7.7979916E-01;  9.9999998E-03; -4.0160481E-02;2251; -7.9141237E-02;  0.0000000E+00; -1.4408666E-02;  1.0135168E+03;  4.1116488E-01;  1.1195629E+04;3; -1.8587990E+01;  0.0000000E+00;  1.2739732E+01;0;  3.5281591E+00;  9.7922646E+03;  0.0000000E+00;  2.9013800E-05;  1.0000000E+04;  0.0000000E+00;  9.9281689E+03;  3.1496785E+00;  0.0000000E+00;  3.7848061E-01;  3.4318516E+04;
  7.7979851E-01;  9.9999998E-03; -2.0082010E-02;2252; -8.0437660E-02;  0.0000000E+00; -7.3530599E-03;  1.0134880E+03;  4.1116458E-01;  1.1171636E+04;3; -1.9211021E+01;  0.0000000E+00;  6.6887994E+00;0;  3.5392480E+00;  9.7928203E+03;  0.0000000E+00;  8.1790549E-06;  1.0000000E+04;  0.0000000E+00;  9.9270557E+03;  3.1604910E+00;  0.0000000E+00;  3.7875703E-01;  3.4878301E+04;
  8.0000424E-01;  9.9999998E-03; -1.8061231E-01;2275; -1.0709129E-02;  0.0000000E+00; -5.9175998E-02;  1.0144461E+03;  4.1117612E-01;  1.1964201E+04;3; -6.5482764E+00;  0.0000000E+00;  3.6678947E+01;0;  3.1225398E+00;  9.7944307E+03;  0.0000000E+00; -6.8269903E-05;  1.0000000E+04;  0.0000000E+00;  9.9435244E+03;  2.7832015E+00;  0.0000000E+00;  3.3933821E-01;  2.6652799E+04;
  7.9999983E-01;  9.9999998E-03; -1.6056354E-01;2276; -1.1768346E-02;  0.0000000E+00; -5.1886659E-02;  1.0142909E+03;  4.1117555E-01;  1.1835657E+04;3; -6.5945706E+00;  0.0000000E+00;  3.5063934E+01;0;  3.2295694E+00;  9.7944775E+03;  0.0000000E+00; -3.3483295E-05;  1.0000000E+04;  0.0000000E+00;  9.9404756E+03;  2.8520045E+00;  0.0000000E+00;  3.7756485E-01;  2.8126314E+04;
  7.9999512E-01;  9.9999998E-03; -1.4050448E-01;2277; -1.3247066E-02;  0.0000000E+00; -4.4239230E-02;  1.0141945E+03;  4.1117498E-01;  1.1755787E+04;3; -6.7518568E+00;  0.0000000E+00;  3.2856361E+01;0;  3.3039923E+00;  9.7953906E+03;  0.0000000E+00; -5.9837203E-07;  1.0000000E+04;  0.0000000E+00;  9.9377031E+03;  2.9073272E+00;  0.0000000E+00;  3.9666522E-01;  2.9489281E+04;
  7.9999042E-01;  9.9999998E-03; -1.2043671E-01;2278; -1.5043104E-02;  0.0000000E+00; -3.6779270E-02;  1.0141374E+03;  4.1117427E-01;  1.1708497E+04;3; -7.0264611E+00;  0.0000000E+00;  2.9978170E+01;0;  3.3521004E+00;  9.7966836E+03;  0.0000000E+00;  1.9220246E-05;  1.0000000E+04;  0.0000000E+00;  9.9352959E+03;  2.9541788E+00;  0.0000000E+00;  3.9792150E-01;  3.0692771E+04;
  7.9998600E-01;  9.9999998E-03; -1.0036813E-01;2279; -1.6993748E-02;  0.0000000E+00; -3.0219520E-02;  1.0140990E+03;  4.1117370E-01;  1.1676706E+04;3; -7.4022279E+00;  0.0000000E+00;  2.6735645E+01;0;  3.3841350E+00;  9.7980430E+03;  0.0000000E+00;  2.5823536E-05;  1.0000000E+04;  0.0000000E+00;  9.9331953E+03;  2.9951890E+00;  0.0000000E+00;  3.8894603E-01;  3.1759824E+04;
  7.9998219E-01;  9.9999998E-03; -8.0300450E-02;2280; -1.8909812E-02;  0.0000000E+00; -2.4331795E-02;  1.0140626E+03;  4.1117337E-01;  1.1646495E+04;3; -7.8395996E+00;  0.0000000E+00;  2.3121351E+01;0;  3.4087908E+00;  9.7992783E+03;  0.0000000E+00;  2.3353507E-05;  1.0000000E+04;  0.0000000E+00;  9.9312539E+03;  3.0306771E+00;  0.0000000E+00;  3.7811378E-01;  3.2751271E+04;
  7.9997909E-01;  9.9999998E-03; -6.0231734E-02;2281; -2.0603225E-02;  0.0000000E+00; -1.8626455E-02;  1.0140198E+03;  4.1117299E-01;  1.1611053E+04;3; -8.2805738E+00;  0.0000000E+00;  1.8824783E+01;0;  3.4303808E+00;  9.8003008E+03;  0.0000000E+00;  1.6347809E-05;  1.0000000E+04;  0.0000000E+00;  9.9293965E+03;  3.0597825E+00;  0.0000000E+00;  3.7059823E-01;  3.3694742E+04;
  7.9997694E-01;  9.9999998E-03; -4.0159155E-02;2282; -2.1922618E-02;  0.0000000E+00; -1.2725528E-02;  1.0139741E+03;  4.1117272E-01;  1.1573239E+04;3; -8.6605616E+00;  0.0000000E+00;  1.3503996E+01;0;  3.4489050E+00;  9.8010684E+03;  0.0000000E+00;  8.4698058E-06;  1.0000000E+04;  0.0000000E+00;  9.9277393E+03;  3.0814099E+00;  0.0000000E+00;  3.6749512E-01;  3.4531266E+04;
  7.9997563E-01;  9.9999998E-03; -2.0081406E-02;2283; -2.2757730E-02;  0.0000000E+00; -6.4854333E-03;  1.0139377E+03;  4.1117239E-01;  1.1543128E+04;3; -8.9180708E+00;  0.0000000E+00;  7.1017404E+00;0;  3.4618428E+00;  9.8015469E+03;  0.0000000E+00;  2.3444600E-06;  1.0000000E+04;  0.0000000E+00;  9.9265547E+03;  3.0947051E+00;  0.0000000E+00;  3.6713767E-01;  3.5128227E+04;
  8.2018334E-01;  9.9999998E-03; -1.8060473E-01;2306;  3.7847869E-02;  0.0000000E+00; -5.9089419E-02;  1.0149931E+03;  4.1116032E-01;  1.2415646E+04;3; -5.0151861E-01;  0.0000000E+00;  3.5726250E+01;0;  3.0491385E+00;  9.8057930E+03;  0.0000000E+00;  6.3555366E-05;  1.0000000E+04;  0.0000000E+00;  9.9433740E+03;  2.7017233E+00;  0.0000000E+00;  3.4741518E-01;  2.6707703E+04;
  8.2017839E-01;  9.9999998E-03; -1.6055560E-01;2307;  3.8148299E-02;  0.0000000E+00; -5.1344976E-02;  1.0148699E+03;  4.1115955E-01;  1.2313673E+04;3; -6.0107823E-02;  0.0000000E+00;  3.4143135E+01;0;  3.1401870E+00;  9.8061582E+03;  0.0000000E+00;  8.5061729E-06;  1.0000000E+04;  0.0000000E+00;  9.9406309E+03;  2.7571728E+00;  0.0000000E+00;  3.8301411E-01;  2.8032531E+04;
  8.2017320E-01;  9.9999998E-03; -1.4049661E-01;2308;  3.8221929E-02;  0.0000000E+00; -4.3287914E-02;  1.0147985E+03;  4.1115895E-01;  1.2254543E+04;3;  4.3332419E-01;  0.0000000E+00;  3.2059166E+01;0;  3.1999755E+00;  9.8073184E+03;  0.0000000E+00; -6.5384261E-06;  1.0000000E+04;  0.0000000E+00;  9.9380879E+03;  2.8008425E+00;  0.0000000E+00;  3.9913291E-01;  2.9282592E+04;
  8.2016808E-01;  9.9999998E-03; -1.2042917E-01;2309;  3.8067047E-02;  0.0000000E+00; -3.5435576E-02;  1.0147576E+03;  4.1115841E-01;  1.2220585E+04;3;  9.1240746E-01;  0.0000000E+00;  2.9395845E+01;0;  3.2358642E+00;  9.8087725E+03;  0.0000000E+00; -7.5218613E-06;  1.0000000E+04;  0.0000000E+00;  9.9358359E+03;  2.8386421E+00;  0.0000000E+00;  3.9722201E-01;  3.0411439E+04;
  8.2016325E-01;  9.9999998E-03; -1.0036124E-01;2310;  3.7708215E-02;  0.0000000E+00; -2.8609063E-02;  1.0147272E+03;  4.1115785E-01;  1.2195413E+04;3;  1.3280858E+00;  0.0000000E+00;  2.6397875E+01;0;  3.2585101E+00;  9.8101934E+03;  0.0000000E+00; -7.0916190E-06;  1.0000000E+04;  0.0000000E+00;  9.9338320E+03;  2.8734295E+00;  0.0000000E+00;  3.8508049E-01;  3.1433961E+04;
  8.2015902E-01;  9.9999998E-03; -8.0294587E-02;2311;  3.7225362E-02;  0.0000000E+00; -2.2665679E-02;  1.0146927E+03;  4.1115749E-01;  1.2166884E+04;3;  1.6582148E+00;  0.0000000E+00;  2.2995266E+01;0;  3.2765372E+00;  9.8114209E+03;  0.0000000E+00; -6.9248867E-06;  1.0000000E+04;  0.0000000E+00;  9.9319346E+03;  2.9052267E+00;  0.0000000E+00;  3.7131041E-01;  3.2404021E+04;
  8.2015550E-01;  9.9999998E-03; -6.0227159E-02;2312;  3.6719751E-02;  0.0000000E+00; -1.7132811E-02;  1.0146478E+03;  4.1115716E-01;  1.2129767E+04;3;  1.9002287E+00;  0.0000000E+00;  1.8839540E+01;0;  3.2938442E+00;  9.8123926E+03;  0.0000000E+00; -5.7461057E-06;  1.0000000E+04;  0.0000000E+00;  9.9300928E+03;  2.9325535E+00;  0.0000000E+00;  3.6129057E-01;  3.3342191E+04;
  8.2015294E-01;  9.9999998E-03; -4.0156040E-02;2313;  3.6283150E-02;  0.0000000E+00; -1.1604317E-02;  1.0145989E+03;  4.1115680E-01;  1.2089194E+04;3;  2.0609739E+00;  0.0000000E+00;  1.3576411E+01;0;  3.3098049E+00;  9.8131016E+03;  0.0000000E+00; -3.4041557E-06;  1.0000000E+04;  0.0000000E+00;  9.9284326E+03;  2.9535758E+00;  0.0000000E+00;  3.5622904E-01;  3.4181395E+04;
  8.2015139E-01;  9.9999998E-03; -2.0079833E-02;2314;  3.5988543E-02;  0.0000000E+00; -5.8850269E-03;  1.0145595E+03;  4.1115668E-01;  1.2056619E+04;3;  2.1510098E+00;  0.0000000E+00;  7.1590509E+00;0;  3.3213902E+00;  9.8135293E+03;  0.0000000E+00; -1.0128448E-06;  1.0000000E+04;  0.0000000E+00;  9.9272373E+03;  2.9667978E+00;  0.0000000E+00;  3.5459232E-01;  3.4782762E+04;
  8.4037602E-01;  9.9999998E-03; -1.8059768E-01;2337;  9.3662791E-02;  0.0000000E+00; -6.1919078E-02;  1.0151531E+03;  4.1097784E-01;  1.2546043E+04;3;  8.2881136E+00;  0.0000000E+00;  3.3214714E+01;0;  2.9802642E+00;  9.8173906E+03;  0.0000000E+00;  1.7770582E-04;  1.0000000E+04;  0.0000000E+00;  9.9435430E+03;  2.6272919E+00;  0.0000000E+00;  3.5297215E-01;  2.6591688E+04;
  8.4036845E-01;  9.9999998E-03; -1.6054747E-01;2338;  9.4080731E-02;  0.0000000E+00; -5.3506542E-02;  1.0150814E+03;  4.1097718E-01;  1.2486726E+04;3;  8.7949677E+00;  0.0000000E+00;  3.1698915E+01;0;  3.0506456E+00;  9.8184775E+03;  0.0000000E+00;  5.3259806E-05;  1.0000000E+04;  0.0000000E+00;  9.9410654E+03;  2.6621246E+00;  0.0000000E+00;  3.8852099E-01;  2.7782449E+04;
  8.4036124E-01;  9.9999998E-03; -1.4048788E-01;2339;  9.4711870E-02;  0.0000000E+00; -4.4729102E-02;  1.0150516E+03;  4.1097653E-01;  1.2462051E+04;3;  9.5571070E+00;  0.0000000E+00;  2.9807232E+01;0;  3.0909319E+00;  9.8201943E+03;  0.0000000E+00;  1.3755358E-05;  1.0000000E+04;  0.0000000E+00;  9.9387754E+03;  2.6871562E+00;  0.0000000E+00;  4.0377581E-01;  2.8906754E+04;
  8.4035486E-01;  9.9999998E-03; -1.2042033E-01;2340;  9.5465712E-02;  0.0000000E+00; -3.6155894E-02;  1.0150424E+03;  4.1097605E-01;  1.2454453E+04;3;  1.0465566E+01;  0.0000000E+00;  2.7449497E+01;0;  3.1091475E+00;  9.8220449E+03;  0.0000000E+00;  3.9204028E-06;  1.0000000E+04;  0.0000000E+00;  9.9367559E+03;  2.7090509E+00;  0.0000000E+00;  4.0009668E-01;  2.9923691E+04;
  8.4034926E-01;  9.9999998E-03; -1.0035285E-01;2341;  9.6206620E-02;  0.0000000E+00; -2.8735572E-02;  1.0150356E+03;  4.1097549E-01;  1.2448827E+04;3;  1.1412757E+01;  0.0000000E+00;  2.4810703E+01;0;  3.1164718E+00;  9.8237227E+03;  0.0000000E+00;  9.4225931E-07;  1.0000000E+04;  0.0000000E+00;  9.9349453E+03;  2.7309551E+00;  0.0000000E+00;  3.8551664E-01;  3.0850682E+04;
  8.4034455E-01;  9.9999998E-03; -8.0287181E-02;2342;  9.6853897E-02;  0.0000000E+00; -2.2406634E-02;  1.0150169E+03;  4.1097525E-01;  1.2433331E+04;3;  1.2311475E+01;  0.0000000E+00;  2.1770895E+01;0;  3.1218829E+00;  9.8251006E+03;  0.0000000E+00; -1.2641119E-06;  1.0000000E+04;  0.0000000E+00;  9.9332090E+03;  2.7528791E+00;  0.0000000E+00;  3.6900380E-01;  3.1743813E+04;
  8.4034079E-01;  9.9999998E-03; -6.0221191E-02;2343;  9.7366944E-02;  0.0000000E+00; -1.6706225E-02;  1.0149822E+03;  4.1097465E-01;  1.2404610E+04;3;  1.3090200E+01;  0.0000000E+00;  1.7957432E+01;0;  3.1294475E+00;  9.8261494E+03;  0.0000000E+00; -2.3226023E-06;  1.0000000E+04;  0.0000000E+00;  9.9314814E+03;  2.7731023E+00;  0.0000000E+00;  3.5634509E-01;  3.2623900E+04;
  8.4033799E-01;  9.9999998E-03; -4.0151849E-02;2344;  9.7728662E-02;  0.0000000E+00; -1.1199529E-02;  1.0149388E+03;  4.1097447E-01;  1.2368684E+04;3;  1.3690970E+01;  0.0000000E+00;  1.3009337E+01;0;  3.1385140E+00;  9.8268809E+03;  0.0000000E+00; -1.7758947E-06;  1.0000000E+04;  0.0000000E+00;  9.9299092E+03;  2.7894282E+00;  0.0000000E+00;  3.4908578E-01;  3.3422512E+04;
  8.4033626E-01;  9.9999998E-03; -2.0077668E-02;2345;  9.7939633E-02;  0.0000000E+00; -5.6440174E-03;  1.0149022E+03;  4.1097438E-01;  1.2338284E+04;3;  1.4069827E+01;  0.0000000E+00;  6.8826938E+00;0;  3.1459899E+00;  9.8273135E+03;  0.0000000E+00; -5.7789561E-07;  1.0000000E+04;  0.0000000E+00;  9.9287646E+03;  2.8000033E+00;  0.0000000E+00;  3.4598669E-01;  3.3999781E+04;
  8.6057717E-01;  9.9999998E-03; -1.8058784E-01;2368;  1.5404680E-01;  0.0000000E+00; -6.5705717E-02;  1.0150100E+03;  4.1061983E-01;  1.2424814E+04;3;  1.8676413E+01;  0.0000000E+00;  2.9904533E+01;0;  2.8751793E+00;  9.8311553E+03;  0.0000000E+00;  2.4760791E-04;  1.0000000E+04;  0.0000000E+00;  9.9441719E+03;  2.5205648E+00;  0.0000000E+00;  3.5461462E-01;  2.6236539E+04;
  8.6056495E-01;  9.9999998E-03; -1.6053684E-01;2369;  1.5359251E-01;  0.0000000E+00; -5.6748044E-02;  1.0149960E+03;  4.1061908E-01;  1.2413172E+04;3;  1.8996864E+01;  0.0000000E+00;  2.8448084E+01;0;  2.9248383E+00;  9.8331826E+03;  0.0000000E+00;  6.8673238E-05;  1.0000000E+04;  0.0000000E+00;  9.9418799E+03;  2.5326009E+00;  0.0000000E+00;  3.9223734E-01;  2.7333010E+04;
  8.6055434E-01;  9.9999998E-03; -1.4047688E-01;2370;  1.5391326E-01;  0.0000000E+00; -4.7316283E-02;  1.0150142E+03;  4.1061839E-01;  1.2428271E+04;3;  1.9767572E+01;  0.0000000E+00;  2.6732794E+01;0;  2.9452238E+00;  9.8356191E+03;  0.0000000E+00;  2.1692058E-05;  1.0000000E+04;  0.0000000E+00;  9.9398066E+03;  2.5366137E+00;  0.0000000E+00;  4.0860999E-01;  2.8348867E+04;
  8.6054564E-01;  9.9999998E-03; -1.2040955E-01;2371;  1.5486279E-01;  0.0000000E+00; -3.8063239E-02;  1.0150448E+03;  4.1061795E-01;  1.2453633E+04;3;  2.0856009E+01;  0.0000000E+00;  2.4663074E+01;0;  2.9444687E+00;  9.8379971E+03;  0.0000000E+00;  1.1976387E-05;  1.0000000E+04;  0.0000000E+00;  9.9380156E+03;  2.5396523E+00;  0.0000000E+00;  4.0481633E-01;  2.9248189E+04;
  8.6053866E-01;  9.9999998E-03; -1.0034284E-01;2372;  1.5614803E-01;  0.0000000E+00; -3.0036796E-02;  1.0150696E+03;  4.1061750E-01;  1.2474158E+04;3;  2.2110054E+01;  0.0000000E+00;  2.2386021E+01;0;  2.9342270E+00;  9.8400547E+03;  0.0000000E+00;  1.1774917E-05;  1.0000000E+04;  0.0000000E+00;  9.9364473E+03;  2.5451467E+00;  0.0000000E+00;  3.8908020E-01;  3.0057510E+04;
  8.6053318E-01;  9.9999998E-03; -8.0278434E-02;2373;  1.5751088E-01;  0.0000000E+00; -2.3228690E-02;  1.0150763E+03;  4.1061717E-01;  1.2479686E+04;3;  2.3382561E+01;  0.0000000E+00;  1.9757561E+01;0;  2.9241209E+00;  9.8417041E+03;  0.0000000E+00;  1.0961667E-05;  1.0000000E+04;  0.0000000E+00;  9.9349316E+03;  2.5533633E+00;  0.0000000E+00;  3.7075767E-01;  3.0842160E+04;
  8.6052889E-01;  9.9999998E-03; -6.0214143E-02;2374;  1.5874766E-01;  0.0000000E+00; -1.7180312E-02;  1.0150600E+03;  4.1061687E-01;  1.2466168E+04;3;  2.4538534E+01;  0.0000000E+00;  1.6397879E+01;0;  2.9189041E+00;  9.8429287E+03;  0.0000000E+00;  7.7458180E-06;  1.0000000E+04;  0.0000000E+00;  9.9333936E+03;  2.5627856E+00;  0.0000000E+00;  3.5611838E-01;  3.1630412E+04;
  8.6052585E-01;  9.9999998E-03; -4.0146880E-02;2375;  1.5971358E-01;  0.0000000E+00; -1.1440133E-02;  1.0150299E+03;  4.1061655E-01;  1.2441301E+04;3;  2.5459425E+01;  0.0000000E+00;  1.1942912E+01;0;  2.9184976E+00;  9.8437744E+03;  0.0000000E+00;  3.9557331E-06;  1.0000000E+04;  0.0000000E+00;  9.9319609E+03;  2.5713568E+00;  0.0000000E+00;  3.4714085E-01;  3.2359309E+04;
  8.6052394E-01;  9.9999998E-03; -2.0075092E-02;2376;  1.6032091E-01;  0.0000000E+00; -5.7394463E-03;  1.0150008E+03;  4.1061661E-01;  1.2417224E+04;3;  2.6052240E+01;  0.0000000E+00;  6.3408432E+00;0;  2.9201667E+00;  9.8442666E+03;  0.0000000E+00;  1.0786845E-06;  1.0000000E+04;  0.0000000E+00;  9.9309004E+03;  2.5772741E+00;  0.0000000E+00;  3.4289256E-01;  3.2892848E+04;
  8.8077229E-01;  9.9999998E-03; -1.8057230E-01;2399;  2.1407010E-01;  0.0000000E+00; -6.8799481E-02;  1.0147646E+03;  4.1010615E-01;  1.2218024E+04;3;  2.9448387E+01;  0.0000000E+00;  2.6385855E+01;0;  2.6842108E+00;  9.8499297E+03;  0.0000000E+00;  2.7147075E-04;  1.0000000E+04;  0.0000000E+00;  9.9453604E+03;  2.3317039E+00;  0.0000000E+00;  3.5250694E-01;  2.5606309E+04;
  8.8075459E-01;  9.9999998E-03; -1.6052145E-01;2400;  2.1229522E-01;  0.0000000E+00; -5.9566692E-02;  1.0148070E+03;  4.1010532E-01;  1.2253049E+04;3;  2.9543787E+01;  0.0000000E+00;  2.4994617E+01;0;  2.7147198E+00;  9.8529385E+03;  0.0000000E+00;  4.4456887E-05;  1.0000000E+04;  0.0000000E+00;  9.9431797E+03;  2.3217998E+00;  0.0000000E+00;  3.9292005E-01;  2.6642490E+04;
  8.8073981E-01;  9.9999998E-03; -1.4046200E-01;2401;  2.1182996E-01;  0.0000000E+00; -4.9780507E-02;  1.0148710E+03;  4.1010505E-01;  1.2306025E+04;3;  3.0236549E+01;  0.0000000E+00;  2.3408546E+01;0;  2.7171559E+00;  9.8560957E+03;  0.0000000E+00;  5.4233979E-06;  1.0000000E+04;  0.0000000E+00;  9.9412705E+03;  2.3058004E+00;  0.0000000E+00;  4.1135553E-01;  2.7573217E+04;
  8.8072819E-01;  9.9999998E-03; -1.2039575E-01;2402;  2.1250273E-01;  0.0000000E+00; -4.0144093E-02;  1.0149393E+03;  4.1010451E-01;  1.2362554E+04;3;  3.1383316E+01;  0.0000000E+00;  2.1551584E+01;0;  2.6990287E+00;  9.8590020E+03;  0.0000000E+00;  1.1590017E-06;  1.0000000E+04;  0.0000000E+00;  9.9396953E+03;  2.2904487E+00;  0.0000000E+00;  4.0858012E-01;  2.8364951E+04;
  8.8071930E-01;  9.9999998E-03; -1.0033055E-01;2403;  2.1389011E-01;  0.0000000E+00; -3.1739369E-02;  1.0149966E+03;  4.1010410E-01;  1.2409906E+04;3;  3.2802105E+01;  0.0000000E+00;  1.9567154E+01;0;  2.6720858E+00;  9.8614502E+03;  0.0000000E+00;  5.2946111E-06;  1.0000000E+04;  0.0000000E+00;  9.9383623E+03;  2.2791600E+00;  0.0000000E+00;  3.9292577E-01;  2.9055006E+04;
  8.8071257E-01;  9.9999998E-03; -8.0268003E-02;2404;  2.1558017E-01;  0.0000000E+00; -2.4568850E-02;  1.0150303E+03;  4.1010368E-01;  1.2437825E+04;3;  3.4302452E+01;  0.0000000E+00;  1.7319132E+01;0;  2.6465838E+00;  9.8633975E+03;  0.0000000E+00;  8.9937357E-06;  1.0000000E+04;  0.0000000E+00;  9.9370850E+03;  2.2725434E+00;  0.0000000E+00;  3.7404040E-01;  2.9721191E+04;
  8.8070756E-01;  9.9999998E-03; -6.0205884E-02;2405;  2.1722496E-01;  0.0000000E+00; -1.8170636E-02;  1.0150366E+03;  4.1010341E-01;  1.2443055E+04;3;  3.5701012E+01;  0.0000000E+00;  1.4439448E+01;0;  2.6282098E+00;  9.8648428E+03;  0.0000000E+00;  8.4847024E-06;  1.0000000E+04;  0.0000000E+00;  9.9357598E+03;  2.2696264E+00;  0.0000000E+00;  3.5858342E-01;  3.0403490E+04;
  8.8070399E-01;  9.9999998E-03; -4.0141113E-02;2406;  2.1856436E-01;  0.0000000E+00; -1.2090355E-02;  1.0150224E+03;  4.1010338E-01;  1.2431316E+04;3;  3.6834259E+01;  0.0000000E+00;  1.0565844E+01;0;  2.6177897E+00;  9.8658447E+03;  0.0000000E+00;  5.1009069E-06;  1.0000000E+04;  0.0000000E+00;  9.9344893E+03;  2.2689245E+00;  0.0000000E+00;  3.4886521E-01;  3.1048887E+04;
  8.8070184E-01;  9.9999998E-03; -2.0072114E-02;2407;  2.1942858E-01;  0.0000000E+00; -6.0603861E-03;  1.0150036E+03;  4.1010320E-01;  1.2415729E+04;3;  3.7571480E+01;  0.0000000E+00;  5.6286421E+00;0;  2.6132195E+00;  9.8664268E+03;  0.0000000E+00;  1.5423572E-06;  1.0000000E+04;  0.0000000E+00;  9.9335342E+03;  2.2690890E+00;  0.0000000E+00;  3.4413058E-01;  3.1528982E+04;
  9.0094769E-01;  9.9999998E-03; -1.8054953E-01;2430;  2.6982841E-01;  0.0000000E+00; -7.0198469E-02;  1.0145494E+03;  4.0946513E-01;  1.2035028E+04;3;  4.0118431E+01;  0.0000000E+00;  2.3019476E+01;0;  2.3835659E+00;  9.8749668E+03;  0.0000000E+00;  2.0620490E-04;  1.0000000E+04;  0.0000000E+00;  9.9470967E+03;  2.0356002E+00;  0.0000000E+00;  3.4796560E-01;  2.4705256E+04;
  9.0092474E-01;  9.9999998E-03; -1.6049992E-01;2431;  2.6682827E-01;  0.0000000E+00; -6.0960401E-02;  1.0146417E+03;  4.0946448E-01;  1.2111259E+04;3;  4.0119183E+01;  0.0000000E+00;  2.1736296E+01;0;  2.3962436E+00;  9.8788613E+03;  0.0000000E+00; -1.6909325E-05;  1.0000000E+04;  0.0000000E+00;  9.9449971E+03;  2.0057895E+00;  0.0000000E+00;  3.9045408E-01;  2.5697170E+04;
  9.0090579E-01;  9.9999998E-03; -1.4044210E-01;2432;  2.6550815E-01;  0.0000000E+00; -5.1181622E-02;  1.0147417E+03;  4.0946415E-01;  1.2193996E+04;3;  4.0788532E+01;  0.0000000E+00;  2.0246412E+01;0;  2.3834136E+00;  9.8825898E+03;  0.0000000E+00; -2.2193308E-05;  1.0000000E+04;  0.0000000E+00;  9.9432236E+03;  1.9727498E+00;  0.0000000E+00;  4.1066366E-01;  2.6558342E+04;
  9.0089107E-01;  9.9999998E-03; -1.2037806E-01;2433;  2.6569337E-01;  0.0000000E+00; -4.1550823E-02;  1.0148380E+03;  4.0946379E-01;  1.2273675E+04;3;  4.1977764E+01;  0.0000000E+00;  1.8522614E+01;0;  2.3511186E+00;  9.8858682E+03;  0.0000000E+00; -1.6916423E-05;  1.0000000E+04;  0.0000000E+00;  9.9418291E+03;  1.9419178E+00;  0.0000000E+00;  4.0920070E-01;  2.7255590E+04;
  9.0087986E-01;  9.9999998E-03; -1.0031534E-01;2434;  2.6688230E-01;  0.0000000E+00; -3.3109713E-02;  1.0149203E+03;  4.0946332E-01;  1.2341717E+04;3;  4.3493256E+01;  0.0000000E+00;  1.6737581E+01;0;  2.3105707E+00;  9.8885908E+03;  0.0000000E+00; -1.2273381E-05;  1.0000000E+04;  0.0000000E+00;  9.9407188E+03;  1.9161210E+00;  0.0000000E+00;  3.9444971E-01;  2.7835453E+04;
  9.0087152E-01;  9.9999998E-03; -8.0255419E-02;2435;  2.6856792E-01;  0.0000000E+00; -2.5827231E-02;  1.0149761E+03;  4.0946299E-01;  1.2387868E+04;3;  4.5124638E+01;  0.0000000E+00;  1.4793820E+01;0;  2.2722955E+00;  9.8907480E+03;  0.0000000E+00; -6.0362486E-06;  1.0000000E+04;  0.0000000E+00;  9.9396621E+03;  1.8961277E+00;  0.0000000E+00;  3.7616783E-01;  2.8387543E+04;
  9.0086538E-01;  9.9999998E-03; -6.0196105E-02;2436;  2.7031395E-01;  0.0000000E+00; -1.9224027E-02;  1.0150014E+03;  4.0946287E-01;  1.2408873E+04;3;  4.6664211E+01;  0.0000000E+00;  1.2355442E+01;0;  2.2427709E+00;  9.8923682E+03;  0.0000000E+00; -1.4251713E-06;  1.0000000E+04;  0.0000000E+00;  9.9385469E+03;  1.8816166E+00;  0.0000000E+00;  3.6115441E-01;  2.8964014E+04;
  9.0086102E-01;  9.9999998E-03; -4.0134374E-02;2437;  2.7178574E-01;  0.0000000E+00; -1.2849156E-02;  1.0150031E+03;  4.0946278E-01;  1.2410256E+04;3;  4.7923229E+01;  0.0000000E+00;  9.0696602E+00;0;  2.2237070E+00;  9.8934971E+03;  0.0000000E+00;  4.2645104E-07;  1.0000000E+04;  0.0000000E+00;  9.9374414E+03;  1.8719037E+00;  0.0000000E+00;  3.5180324E-01;  2.9523686E+04;
  9.0085840E-01;  9.9999998E-03; -2.0068660E-02;2438;  2.7275479E-01;  0.0000000E+00; -6.4569926E-03;  1.0149938E+03;  4.0946284E-01;  1.2402564E+04;3;  4.8747551E+01;  0.0000000E+00;  4.8448434E+00;0;  2.2136943E+00;  9.8941611E+03;  0.0000000E+00;  3.7262993E-07;  1.0000000E+04;  0.0000000E+00;  9.9365986E+03;  1.8663559E+00;  0.0000000E+00;  3.4733847E-01;  2.9947947E+04;
  9.2108172E-01;  9.9999998E-03; -1.8051998E-01;2461;  3.1687862E-01;  0.0000000E+00; -6.9639362E-02;  1.0143560E+03;  4.0873033E-01;  1.1868327E+04;3;  5.0782898E+01;  0.0000000E+00;  1.9980450E+01;0;  1.9925845E+00;  9.9045908E+03;  0.0000000E+00;  6.0046608E-05;  1.0000000E+04;  0.0000000E+00;  9.9493066E+03;  1.6501157E+00;  0.0000000E+00;  3.4246877E-01;  2.3564100E+04;
  9.2104965E-01;  9.9999998E-03; -1.6047230E-01;2462;  3.1213298E-01;  0.0000000E+00; -6.0544886E-02;  1.0144845E+03;  4.0873006E-01;  1.1974676E+04;3;  5.0889805E+01;  0.0000000E+00;  1.8875420E+01;0;  1.9890997E+00;  9.9091172E+03;  0.0000000E+00; -6.1119572E-05;  1.0000000E+04;  0.0000000E+00;  9.9472842E+03;  1.6035269E+00;  0.0000000E+00;  3.8557285E-01;  2.4514232E+04;
  9.2102343E-01;  9.9999998E-03; -1.4041705E-01;2463;  3.0936280E-01;  0.0000000E+00; -5.1039018E-02;  1.0146046E+03;  4.0872967E-01;  1.2073929E+04;3;  5.1645580E+01;  0.0000000E+00;  1.7483644E+01;0;  1.9644457E+00;  9.9131279E+03;  0.0000000E+00; -1.5780812E-05;  1.0000000E+04;  0.0000000E+00;  9.9456270E+03;  1.5579351E+00;  0.0000000E+00;  4.0651059E-01;  2.5313119E+04;
  9.2100269E-01;  9.9999998E-03; -1.2035625E-01;2464;  3.0832803E-01;  0.0000000E+00; -4.1756567E-02;  1.0147141E+03;  4.0872949E-01;  1.2164409E+04;3;  5.2901306E+01;  0.0000000E+00;  1.5842052E+01;0;  1.9225250E+00;  9.9165088E+03;  0.0000000E+00; -8.7942535E-06;  1.0000000E+04;  0.0000000E+00;  9.9443936E+03;  1.5164845E+00;  0.0000000E+00;  4.0604052E-01;  2.5927605E+04;
  9.2098635E-01;  9.9999998E-03; -1.0029704E-01;2465;  3.0847806E-01;  0.0000000E+00; -3.3628691E-02;  1.0148078E+03;  4.0872929E-01;  1.2241978E+04;3;  5.4472099E+01;  0.0000000E+00;  1.4173935E+01;0;  1.8732905E+00;  9.9192686E+03;  0.0000000E+00; -1.5456924E-05;  1.0000000E+04;  0.0000000E+00;  9.9434648E+03;  1.4807330E+00;  0.0000000E+00;  3.9255750E-01;  2.6410162E+04;
  9.2097360E-01;  9.9999998E-03; -8.0240682E-02;2466;  3.0930489E-01;  0.0000000E+00; -2.6540769E-02;  1.0148749E+03;  4.0872920E-01;  1.2297467E+04;3;  5.6156193E+01;  0.0000000E+00;  1.2443909E+01;0;  1.8269444E+00;  9.9214443E+03;  0.0000000E+00; -1.5643272E-05;  1.0000000E+04;  0.0000000E+00;  9.9426094E+03;  1.4512444E+00;  0.0000000E+00;  3.7570000E-01;  2.6858975E+04;
  9.2096406E-01;  9.9999998E-03; -6.0184933E-02;2467;  3.1039250E-01;  0.0000000E+00; -1.9967703E-02;  1.0149119E+03;  4.0872887E-01;  1.2328022E+04;3;  5.7748516E+01;  0.0000000E+00;  1.0367847E+01;0;  1.7902794E+00;  9.9230947E+03;  0.0000000E+00; -1.0442584E-05;  1.0000000E+04;  0.0000000E+00;  9.9416875E+03;  1.4281715E+00;  0.0000000E+00;  3.6210781E-01;  2.7336508E+04;
  9.2095733E-01;  9.9999998E-03; -4.0126804E-02;2468;  3.1141010E-01;  0.0000000E+00; -1.3454605E-02;  1.0149225E+03;  4.0872893E-01;  1.2336797E+04;3;  5.9056950E+01;  0.0000000E+00;  7.6148834E+00;0;  1.7655964E+00;  9.9242568E+03;  0.0000000E+00; -4.6408240E-06;  1.0000000E+04;  0.0000000E+00;  9.9407393E+03;  1.4115983E+00;  0.0000000E+00;  3.5399812E-01;  2.7813537E+04;
  9.2095339E-01;  9.9999998E-03; -2.0064821E-02;2469;  3.1211928E-01;  0.0000000E+00; -6.7941728E-03;  1.0149198E+03;  4.0872884E-01;  1.2334531E+04;3;  5.9916954E+01;  0.0000000E+00;  4.0733700E+00;0;  1.7520001E+00;  9.9249424E+03;  0.0000000E+00; -1.0450003E-06;  1.0000000E+04;  0.0000000E+00;  9.9399980E+03;  1.4016079E+00;  0.0000000E+00;  3.5039219E-01;  2.8182615E+04;
  9.4113469E-01;  9.9999998E-03; -1.8048726E-01;2492;  3.4513557E-01;  0.0000000E+00; -6.8029627E-02;  1.0140615E+03;  4.0793815E-01;  1.1616268E+04;3;  6.1457947E+01;  0.0000000E+00;  1.7329359E+01;0;  1.5655692E+00;  9.9347842E+03;  0.0000000E+00; -4.3858534E-05;  1.0000000E+04;  0.0000000E+00;  9.9518779E+03;  1.2287036E+00;  0.0000000E+00;  3.3686554E-01;  2.2220949E+04;
  9.4109750E-01;  9.9999998E-03; -1.6044113E-01;2493;  3.3918965E-01;  0.0000000E+00; -5.8921628E-02;  1.0142085E+03;  4.0793803E-01;  1.1737810E+04;3;  6.1834995E+01;  0.0000000E+00;  1.6466639E+01;0;  1.5488453E+00;  9.9396025E+03;  0.0000000E+00; -1.1472718E-05;  1.0000000E+04;  0.0000000E+00;  9.9499355E+03;  1.1697097E+00;  0.0000000E+00;  3.7913564E-01;  2.3126611E+04;
  9.4106662E-01;  9.9999998E-03; -1.4038864E-01;2494;  3.3499417E-01;  0.0000000E+00; -4.9748559E-02;  1.0143312E+03;  4.0793791E-01;  1.1839161E+04;3;  6.2726944E+01;  0.0000000E+00;  1.5194972E+01;0;  1.5166852E+00;  9.9435635E+03;  0.0000000E+00;  5.9428214E-05;  1.0000000E+04;  0.0000000E+00;  9.9483779E+03;  1.1169624E+00;  0.0000000E+00;  3.9972278E-01;  2.3868258E+04;
  9.4104147E-01;  9.9999998E-03; -1.2033170E-01;2495;  3.3231455E-01;  0.0000000E+00; -4.1010715E-02;  1.0144377E+03;  4.0793782E-01;  1.1927216E+04;3;  6.3978115E+01;  0.0000000E+00;  1.3606619E+01;0;  1.4704808E+00;  9.9467588E+03;  0.0000000E+00;  4.4011362E-05;  1.0000000E+04;  0.0000000E+00;  9.9472764E+03;  1.0707064E+00;  0.0000000E+00;  3.9977443E-01;  2.4411768E+04;
  9.4102120E-01;  9.9999998E-03; -1.0027657E-01;2496;  3.3073461E-01;  0.0000000E+00; -3.3406001E-02;  1.0145279E+03;  4.0793785E-01;  1.2001677E+04;3;  6.5395660E+01;  0.0000000E+00;  1.1981252E+01;0;  1.4183819E+00;  9.9492979E+03;  0.0000000E+00;  1.1083988E-05;  1.0000000E+04;  0.0000000E+00;  9.9465088E+03;  1.0307497E+00;  0.0000000E+00;  3.8763231E-01;  2.4811438E+04;
  9.4100517E-01;  9.9999998E-03; -8.0224194E-02;2497;  3.2987392E-01;  0.0000000E+00; -2.6689615E-02;  1.0145950E+03;  4.0793774E-01;  1.2057030E+04;3;  6.6779816E+01;  0.0000000E+00;  1.0356965E+01;0;  1.3696482E+00;  9.9512969E+03;  0.0000000E+00; -6.1072305E-06;  1.0000000E+04;  0.0000000E+00;  9.9458252E+03;  9.9704695E-01;  0.0000000E+00;  3.7260121E-01;  2.5169576E+04;
  9.4099295E-01;  9.9999998E-03; -6.0172316E-02;2498;  3.2942972E-01;  0.0000000E+00; -2.0283746E-02;  1.0146337E+03;  4.0793768E-01;  1.2089142E+04;3;  6.8053802E+01;  0.0000000E+00;  8.5365448E+00;0;  1.3308384E+00;  9.9528174E+03;  0.0000000E+00; -8.7729422E-06;  1.0000000E+04;  0.0000000E+00;  9.9450732E+03;  9.6990478E-01;  0.0000000E+00;  3.6093372E-01;  2.5556326E+04;
  9.4098437E-01;  9.9999998E-03; -4.0118165E-02;2499;  3.2920864E-01;  0.0000000E+00; -1.3762530E-02;  1.0146482E+03;  4.0793774E-01;  1.2101063E+04;3;  6.8921509E+01;  0.0000000E+00;  6.2359066E+00;0;  1.3043840E+00;  9.9538945E+03;  0.0000000E+00; -5.0442895E-06;  1.0000000E+04;  0.0000000E+00;  9.9442773E+03;  9.4989008E-01;  0.0000000E+00;  3.5449395E-01;  2.5954133E+04;
  9.4097930E-01;  9.9999998E-03; -2.0060387E-02;2500;  3.2911974E-01;  0.0000000E+00; -6.9735148E-03;  1.0146482E+03;  4.0793777E-01;  1.2101064E+04;3;  6.9500923E+01;  0.0000000E+00;  3.3257542E+00;0;  1.2896159E+00;  9.9545391E+03;  0.0000000E+00; -1.3082380E-06;  1.0000000E+04;  0.0000000E+00;  9.9436377E+03;  9.3759972E-01;  0.0000000E+00;  3.5201612E-01;  2.6268328E+04;
  9.6114826E-01;  9.9999998E-03; -1.8045460E-01;2523;  3.5853192E-01;  0.0000000E+00; -6.6910453E-02;  1.0135356E+03;  4.0712318E-01;  1.1170712E+04;3;  6.9993935E+01;  0.0000000E+00;  1.4532676E+01;0;  1.1623160E+00;  9.9614287E+03;  0.0000000E+00; -1.4540427E-05;  1.0000000E+04;  0.0000000E+00;  9.9547070E+03;  8.3151215E-01;  0.0000000E+00;  3.3080378E-01;  2.0702531E+04;
  9.6110886E-01;  9.9999998E-03; -1.6040993E-01;2524;  3.5164729E-01;  0.0000000E+00; -5.7706293E-02;  1.0136851E+03;  4.0712297E-01;  1.1294107E+04;3;  7.0337379E+01;  0.0000000E+00;  1.3906162E+01;0;  1.1368397E+00;  9.9662324E+03;  0.0000000E+00;  1.2028534E-04;  1.0000000E+04;  0.0000000E+00;  9.9528379E+03;  7.6550841E-01;  0.0000000E+00;  3.7133133E-01;  2.1564715E+04;
  9.6107578E-01;  9.9999998E-03; -1.4036013E-01;2525;  3.4619722E-01;  0.0000000E+00; -4.8755113E-02;  1.0137974E+03;  4.0712297E-01;  1.1386806E+04;3;  7.0901352E+01;  0.0000000E+00;  1.2751892E+01;0;  1.1019750E+00;  9.9699141E+03;  0.0000000E+00;  1.6345544E-04;  1.0000000E+04;  0.0000000E+00;  9.9513604E+03;  7.1094263E-01;  0.0000000E+00;  3.9103231E-01;  2.2258820E+04;
  9.6104848E-01;  9.9999998E-03; -1.2030700E-01;2526;  3.4202543E-01;  0.0000000E+00; -4.0481009E-02;  1.0138891E+03;  4.0712306E-01;  1.1462478E+04;3;  7.1508415E+01;  0.0000000E+00;  1.1209080E+01;0;  1.0566478E+00;  9.9727188E+03;  0.0000000E+00;  1.0778409E-04;  1.0000000E+04;  0.0000000E+00;  9.9503643E+03;  6.6522473E-01;  0.0000000E+00;  3.9142302E-01;  2.2747217E+04;
  9.6102619E-01;  9.9999998E-03; -1.0025574E-01;2527;  3.3893111E-01;  0.0000000E+00; -3.3289861E-02;  1.0139664E+03;  4.0712309E-01;  1.1526245E+04;3;  7.2210365E+01;  0.0000000E+00;  9.6224623E+00;0;  1.0069886E+00;  9.9748887E+03;  0.0000000E+00;  4.6582860E-05;  1.0000000E+04;  0.0000000E+00;  9.9497090E+03;  6.2631744E-01;  0.0000000E+00;  3.8067123E-01;  2.3081715E+04;
  9.6100843E-01;  9.9999998E-03; -8.0207035E-02;2528;  3.3666056E-01;  0.0000000E+00; -2.6805827E-02;  1.0140249E+03;  4.0712315E-01;  1.1574562E+04;3;  7.2722992E+01;  0.0000000E+00;  8.1456051E+00;0;  9.6094215E-01;  9.9765762E+03;  0.0000000E+00;  1.1629098E-05;  1.0000000E+04;  0.0000000E+00;  9.9491699E+03;  5.9335285E-01;  0.0000000E+00;  3.6758929E-01;  2.3363955E+04;
  9.6099490E-01;  9.9999998E-03; -6.0158905E-02;2529;  3.3508077E-01;  0.0000000E+00; -2.0485224E-02;  1.0140594E+03;  4.0712318E-01;  1.1603102E+04;3;  7.3212502E+01;  0.0000000E+00;  6.6068296E+00;0;  9.2440671E-01;  9.9778652E+03;  0.0000000E+00; -1.4658506E-06;  1.0000000E+04;  0.0000000E+00;  9.9485674E+03;  5.6648177E-01;  0.0000000E+00;  3.5792494E-01;  2.3668994E+04;
  9.6098542E-01;  9.9999998E-03; -4.0108871E-02;2530;  3.3403119E-01;  0.0000000E+00; -1.3958891E-02;  1.0140728E+03;  4.0712330E-01;  1.1614127E+04;3;  7.3518181E+01;  0.0000000E+00;  4.8093758E+00;0;  8.9957798E-01;  9.9787832E+03;  0.0000000E+00; -2.9614628E-06;  1.0000000E+04;  0.0000000E+00;  9.9479170E+03;  5.4642969E-01;  0.0000000E+00;  3.5314831E-01;  2.3990770E+04;
  9.6097988E-01;  9.9999998E-03; -2.0055667E-02;2531;  3.3343345E-01;  0.0000000E+00; -7.1109924E-03;  1.0140735E+03;  4.0712312E-01;  1.1614721E+04;3;  7.3686928E+01;  0.0000000E+00;  2.5621331E+00;0;  8.8575339E-01;  9.9793311E+03;  0.0000000E+00; -1.0018622E-06;  1.0000000E+04;  0.0000000E+00;  9.9473809E+03;  5.3400940E-01;  0.0000000E+00;  3.5174403E-01;  2.4249777E+04;
  9.8114568E-01;  9.9999998E-03; -1.8042365E-01;2554;  3.6301059E-01;  0.0000000E+00; -6.6586539E-02;  1.0127281E+03;  4.0631622E-01;  1.0490187E+04;3;  7.4204605E+01;  0.0000000E+00;  1.1118948E+01;0;  8.2488763E-01;  9.9820420E+03;  0.0000000E+00;  6.3545216E-05;  1.0000000E+04;  0.0000000E+00;  9.9577461E+03;  5.0210416E-01;  0.0000000E+00;  3.2278344E-01;  1.9026910E+04;
  9.8110491E-01;  9.9999998E-03; -1.6038115E-01;2555;  3.5548526E-01;  0.0000000E+00; -5.7444688E-02;  1.0128700E+03;  4.0631625E-01;  1.0607136E+04;3;  7.4338303E+01;  0.0000000E+00;  1.0822021E+01;0;  7.9589099E-01;  9.9866611E+03;  0.0000000E+00;  2.1010161E-04;  1.0000000E+04;  0.0000000E+00;  9.9559268E+03;  4.3448579E-01;  0.0000000E+00;  3.6140519E-01;  1.9852539E+04;
  9.8107052E-01;  9.9999998E-03; -1.4033391E-01;2556;  3.4932232E-01;  0.0000000E+00; -4.8581425E-02;  1.0129656E+03;  4.0631637E-01;  1.0686060E+04;3;  7.4581268E+01;  0.0000000E+00;  9.9414959E+00;0;  7.6266146E-01;  9.9899727E+03;  0.0000000E+00;  2.0246734E-04;  1.0000000E+04;  0.0000000E+00;  9.9544932E+03;  3.8223377E-01;  0.0000000E+00;  3.8042766E-01;  2.0514781E+04;
  9.8104209E-01;  9.9999998E-03; -1.2028408E-01;2557;  3.4441236E-01;  0.0000000E+00; -4.0512811E-02;  1.0130389E+03;  4.0631652E-01;  1.0746408E+04;3;  7.4742325E+01;  0.0000000E+00;  8.6377850E+00;0;  7.2203588E-01;  9.9923662E+03;  0.0000000E+00;  1.2500021E-04;  1.0000000E+04;  0.0000000E+00;  9.9535449E+03;  3.4053704E-01;  0.0000000E+00;  3.8149884E-01;  2.0969473E+04;
  9.8101884E-01;  9.9999998E-03; -1.0023617E-01;2558;  3.4061909E-01;  0.0000000E+00; -3.3455577E-02;  1.0131000E+03;  4.0631661E-01;  1.0796830E+04;3;  7.4994415E+01;  0.0000000E+00;  7.2705898E+00;0;  6.7829311E-01;  9.9941504E+03;  0.0000000E+00;  5.7635403E-05;  1.0000000E+04;  0.0000000E+00;  9.9529609E+03;  3.0588830E-01;  0.0000000E+00;  3.7240484E-01;  2.1261572E+04;
  9.8100036E-01;  9.9999998E-03; -8.0190822E-02;2559;  3.3775780E-01;  0.0000000E+00; -2.7035726E-02;  1.0131475E+03;  4.0631679E-01;  1.0835949E+04;3;  7.5104881E+01;  0.0000000E+00;  6.0595632E+00;0;  6.3803566E-01;  9.9955186E+03;  0.0000000E+00;  1.7888364E-05;  1.0000000E+04;  0.0000000E+00;  9.9525254E+03;  2.7669120E-01;  0.0000000E+00;  3.6134443E-01;  2.1487270E+04;
  9.8098624E-01;  9.9999998E-03; -6.0146164E-02;2560;  3.3568799E-01;  0.0000000E+00; -2.0694071E-02;  1.0131765E+03;  4.0631673E-01;  1.0859835E+04;3;  7.5267258E+01;  0.0000000E+00;  4.8713379E+00;0;  6.0636210E-01;  9.9965586E+03;  0.0000000E+00;  1.3703443E-08;  1.0000000E+04;  0.0000000E+00;  9.9520537E+03;  2.5282234E-01;  0.0000000E+00;  3.5353976E-01;  2.1723215E+04;
  9.8097622E-01;  9.9999998E-03; -4.0099893E-02;2561;  3.3427858E-01;  0.0000000E+00; -1.4078681E-02;  1.0131874E+03;  4.0631679E-01;  1.0868884E+04;3;  7.5400345E+01;  0.0000000E+00;  3.5384023E+00;0;  5.8507377E-01;  9.9972988E+03;  0.0000000E+00; -3.7198990E-06;  1.0000000E+04;  0.0000000E+00;  9.9515352E+03;  2.3493208E-01;  0.0000000E+00;  3.5014170E-01;  2.1974314E+04;
  9.8097032E-01;  9.9999998E-03; -2.0050922E-02;2562;  3.3346972E-01;  0.0000000E+00; -7.1377163E-03;  1.0131881E+03;  4.0631688E-01;  1.0869477E+04;3;  7.5494637E+01;  0.0000000E+00;  1.9105814E+00;0;  5.7335430E-01;  9.9977461E+03;  0.0000000E+00; -1.5148088E-06;  1.0000000E+04;  0.0000000E+00;  9.9511006E+03;  2.2381391E-01;  0.0000000E+00;  3.4954038E-01;  2.2179023E+04;
  1.0011363E+00;  9.9999998E-03; -1.8039341E-01;2585;  3.6383471E-01;  0.0000000E+00; -6.5578699E-02;  1.0116823E+03;  4.0554377E-01;  9.6109043E+03;3;  7.6213715E+01;  0.0000000E+00;  8.1558104E+00;0;  5.6816375E-01;  9.9962002E+03;  0.0000000E+00; -3.9096555E-04;  1.0000000E+04;  0.0000000E+00;  9.9609336E+03;  2.5721318E-01;  0.0000000E+00;  3.1095061E-01;  1.7220893E+04;
  1.0010942E+00;  9.9999998E-03; -1.6035452E-01;2586;  3.5587296E-01;  0.0000000E+00; -5.6948815E-02;  1.0118134E+03;  4.0554386E-01;  9.7188271E+03;3;  7.6182793E+01;  0.0000000E+00;  8.1757040E+00;0;  5.4029548E-01;  1.0000570E+04;  0.0000000E+00;  1.3375698E-04;  1.0000000E+04;  0.0000000E+00;  9.9591504E+03;  1.9227770E-01;  0.0000000E+00;  3.4801775E-01;  1.8013588E+04;
  1.0010585E+00;  9.9999998E-03; -1.4031067E-01;2587;  3.4930971E-01;  0.0000000E+00; -4.8435088E-02;  1.0118936E+03;  4.0554410E-01;  9.7847686E+03;3;  7.6315697E+01;  0.0000000E+00;  7.6194582E+00;0;  5.1162452E-01;  1.0003580E+04;  0.0000000E+00;  1.1407319E-04;  1.0000000E+04;  0.0000000E+00;  9.9577197E+03;  1.4450510E-01;  0.0000000E+00;  3.6711940E-01;  1.8659213E+04;
  1.0010290E+00;  9.9999998E-03; -1.2026453E-01;2588;  3.4398270E-01;  0.0000000E+00; -4.0598556E-02;  1.0119507E+03;  4.0554410E-01;  9.8318730E+03;3;  7.6400017E+01;  0.0000000E+00;  6.6831708E+00;0;  4.7758216E-01;  1.0005668E+04;  0.0000000E+00;  7.1990165E-05;  1.0000000E+04;  0.0000000E+00;  9.9567646E+03;  1.0788654E-01;  0.0000000E+00;  3.6969563E-01;  1.9103123E+04;
  1.0010052E+00;  9.9999998E-03; -1.0021972E-01;2589;  3.3979639E-01;  0.0000000E+00; -3.3636663E-02;  1.0119989E+03;  4.0554446E-01;  9.8715195E+03;3;  7.6377029E+01;  0.0000000E+00;  5.5874949E+00;0;  4.4101632E-01;  1.0007180E+04;  0.0000000E+00;  3.7629594E-05;  1.0000000E+04;  0.0000000E+00;  9.9561973E+03;  7.8165159E-02;  0.0000000E+00;  3.6285114E-01;  1.9379184E+04;
  1.0009861E+00;  9.9999998E-03; -8.0177173E-02;2590;  3.3653492E-01;  0.0000000E+00; -2.7214624E-02;  1.0120370E+03;  4.0554449E-01;  9.9029229E+03;3;  7.6493042E+01;  0.0000000E+00;  4.5648570E+00;0;  4.0743056E-01;  1.0008314E+04;  0.0000000E+00;  1.0875357E-05;  1.0000000E+04;  0.0000000E+00;  9.9558125E+03;  5.3394984E-02;  0.0000000E+00;  3.5403559E-01;  1.9572777E+04;
  1.0009714E+00;  9.9999998E-03; -6.0135212E-02;2591;  3.3407116E-01;  0.0000000E+00; -2.0844888E-02;  1.0120612E+03;  4.0554458E-01;  9.9228467E+03;3;  7.6551086E+01;  0.0000000E+00;  3.6533864E+00;0;  3.8121483E-01;  1.0009164E+04;  0.0000000E+00; -5.2476880E-06;  1.0000000E+04;  0.0000000E+00;  9.9554326E+03;  3.3258554E-02;  0.0000000E+00;  3.4795627E-01;  1.9757680E+04;
  1.0009608E+00;  9.9999998E-03; -4.0092051E-02;2592;  3.3236390E-01;  0.0000000E+00; -1.4214168E-02;  1.0120710E+03;  4.0554461E-01;  9.9308994E+03;3;  7.6655525E+01;  0.0000000E+00;  2.6003609E+00;0;  3.6380485E-01;  1.0009768E+04;  0.0000000E+00; -7.8531912E-06;  1.0000000E+04;  0.0000000E+00;  9.9550303E+03;  1.8217240E-02;  0.0000000E+00;  3.4558761E-01;  1.9948166E+04;
  1.0009545E+00;  9.9999998E-03; -2.0046813E-02;2593;  3.3134806E-01;  0.0000000E+00; -7.2254441E-03;  1.0120721E+03;  4.0554479E-01;  9.9317891E+03;3;  7.6684952E+01;  0.0000000E+00;  1.3843499E+00;0;  3.5433874E-01;  1.0010131E+04;  0.0000000E+00; -3.0214676E-06;  1.0000000E+04;  0.0000000E+00;  9.9546963E+03;  8.8871298E-03;  0.0000000E+00;  3.4545159E-01;  2.0102744E+04;
  1.0211232E+00;  9.9999998E-03; -1.8036561E-01;2616;  3.6296940E-01;  0.0000000E+00; -6.4636089E-02;  1.0104982E+03;  4.0482643E-01;  8.6159043E+03;3;  7.7244644E+01;  0.0000000E+00;  5.5845532E+00;0;  3.8489780E-01;  1.0004917E+04;  0.0000000E+00; -5.9863883E-03;  1.0000000E+04;  0.0000000E+00;  9.9641738E+03;  9.0569220E-02;  0.0000000E+00;  2.9432857E-01;  1.5341091E+04;
  1.0210797E+00;  9.9999998E-03; -1.6032889E-01;2617;  3.5450158E-01;  0.0000000E+00; -5.6165203E-02;  1.0106207E+03;  4.0482658E-01;  8.7165332E+03;3;  7.7158203E+01;  0.0000000E+00;  5.7237763E+00;0;  3.6113876E-01;  1.0009044E+04;  0.0000000E+00; -3.1104745E-04;  1.0000000E+04;  0.0000000E+00;  9.9624678E+03;  3.1234231E-02;  0.0000000E+00;  3.2990453E-01;  1.6080896E+04;
  1.0210425E+00;  9.9999998E-03; -1.4028835E-01;2618;  3.4752047E-01;  0.0000000E+00; -4.7871571E-02;  1.0106913E+03;  4.0482670E-01;  8.7744971E+03;3;  7.7153664E+01;  0.0000000E+00;  5.5263729E+00;0;  3.3816838E-01;  1.0011892E+04;  0.0000000E+00; -8.8007037E-05;  1.0000000E+04;  0.0000000E+00;  9.9610156E+03; -1.1801137E-02;  0.0000000E+00;  3.4996951E-01;  1.6714492E+04;
  1.0210121E+00;  9.9999998E-03; -1.2024561E-01;2619;  3.4187135E-01;  0.0000000E+00; -4.0152531E-02;  1.0107402E+03;  4.0482697E-01;  8.8147461E+03;3;  7.7164726E+01;  0.0000000E+00;  4.9386306E+00;0;  3.1080559E-01;  1.0013857E+04;  0.0000000E+00; -2.7466367E-05;  1.0000000E+04;  0.0000000E+00;  9.9600107E+03; -4.4296619E-02;  0.0000000E+00;  3.5510221E-01;  1.7164506E+04;
  1.0209876E+00;  9.9999998E-03; -1.0020354E-01;2620;  3.3736715E-01;  0.0000000E+00; -3.3088110E-02;  1.0107809E+03;  4.0482715E-01;  8.8481387E+03;3;  7.7249290E+01;  0.0000000E+00;  4.2448311E+00;0;  2.8097665E-01;  1.0015272E+04;  0.0000000E+00;  8.4874009E-06;  1.0000000E+04;  0.0000000E+00;  9.9594004E+03; -7.0387468E-02;  0.0000000E+00;  3.5136414E-01;  1.7449314E+04;
  1.0209681E+00;  9.9999998E-03; -8.0163620E-02;2621;  3.3380741E-01;  0.0000000E+00; -2.6620030E-02;  1.0108137E+03;  4.0482736E-01;  8.8750674E+03;3;  7.7168152E+01;  0.0000000E+00;  3.7186685E+00;0;  2.5339964E-01;  1.0016314E+04;  0.0000000E+00;  7.6090350E-06;  1.0000000E+04;  0.0000000E+00;  9.9590068E+03; -9.1864981E-02;  0.0000000E+00;  3.4526461E-01;  1.7637570E+04;
  1.0209529E+00;  9.9999998E-03; -6.0124572E-02;2622;  3.3112296E-01;  0.0000000E+00; -2.0366222E-02;  1.0108356E+03;  4.0482736E-01;  8.8930898E+03;3;  7.7120522E+01;  0.0000000E+00;  3.0150154E+00;0;  2.3189470E-01;  1.0017077E+04;  0.0000000E+00; -5.6832146E-06;  1.0000000E+04;  0.0000000E+00;  9.9586738E+03; -1.0907201E-01;  0.0000000E+00;  3.4096670E-01;  1.7794186E+04;
  1.0209420E+00;  9.9999998E-03; -4.0084641E-02;2623;  3.2921627E-01;  0.0000000E+00; -1.3895686E-02;  1.0108459E+03;  4.0482745E-01;  8.9015166E+03;3;  7.7120422E+01;  0.0000000E+00;  2.1481745E+00;0;  2.1764690E-01;  1.0017599E+04;  0.0000000E+00; -9.6103731E-06;  1.0000000E+04;  0.0000000E+00;  9.9583584E+03; -1.2175867E-01;  0.0000000E+00;  3.3940557E-01;  1.7939885E+04;
  1.0209353E+00;  9.9999998E-03; -2.0042948E-02;2624;  3.2807153E-01;  0.0000000E+00; -7.0545790E-03;  1.0108488E+03;  4.0482754E-01;  8.9038730E+03;3;  7.7176064E+01;  0.0000000E+00;  1.1468127E+00;0;  2.0991093E-01;  1.0017908E+04;  0.0000000E+00; -3.9390134E-06;  1.0000000E+04;  0.0000000E+00;  9.9581035E+03; -1.2955835E-01;  0.0000000E+00;  3.3946928E-01;  1.8053135E+04;
  1.0411075E+00;  9.9999998E-03; -1.8033825E-01;2647;  3.6127931E-01;  0.0000000E+00; -6.2526591E-02;  1.0092872E+03;  4.0417850E-01;  7.5973916E+03;3;  7.8237495E+01;  0.0000000E+00;  3.8736389E+00;0;  2.5692418E-01;  1.0009796E+04;  0.0000000E+00; -3.0261250E-02;  1.0000000E+04;  0.0000000E+00;  9.9673320E+03; -1.6183119E-02;  0.0000000E+00;  2.7310729E-01;  1.3466424E+04;
  1.0410614E+00;  9.9999998E-03; -1.6030434E-01;2648;  3.5210389E-01;  0.0000000E+00; -5.4867782E-02;  1.0094037E+03;  4.0417859E-01;  7.6928330E+03;3;  7.7959641E+01;  0.0000000E+00;  4.1007590E+00;0;  2.3848742E-01;  1.0013631E+04;  0.0000000E+00; -3.4192228E-03;  1.0000000E+04;  0.0000000E+00;  9.9657988E+03; -6.8061687E-02;  0.0000000E+00;  3.0654910E-01;  1.4106786E+04;
  1.0410229E+00;  9.9999998E-03; -1.4026788E-01;2649;  3.4464833E-01;  0.0000000E+00; -4.7214042E-02;  1.0094747E+03;  4.0417862E-01;  7.7510107E+03;3;  7.7937462E+01;  0.0000000E+00;  4.1420689E+00;0;  2.2079597E-01;  1.0016478E+04;  0.0000000E+00; -3.5062674E-04;  1.0000000E+04;  0.0000000E+00;  9.9643652E+03; -1.0723938E-01;  0.0000000E+00;  3.2803535E-01;  1.4710963E+04;
  1.0409912E+00;  9.9999998E-03; -1.2022834E-01;2650;  3.3854967E-01;  0.0000000E+00; -3.9664648E-02;  1.0095236E+03;  4.0417877E-01;  7.7909429E+03;3;  7.7826172E+01;  0.0000000E+00;  3.8568199E+00;0;  1.9899961E-01;  1.0018516E+04;  0.0000000E+00; -1.4593318E-04;  1.0000000E+04;  0.0000000E+00;  9.9632910E+03; -1.3766161E-01;  0.0000000E+00;  3.3666122E-01;  1.5170712E+04;
  1.0409659E+00;  9.9999998E-03; -1.0018916E-01;2651;  3.3373556E-01;  0.0000000E+00; -3.2707911E-02;  1.0095631E+03;  4.0417901E-01;  7.8233569E+03;3;  7.7705933E+01;  0.0000000E+00;  3.4315197E+00;0;  1.7459391E-01;  1.0020010E+04;  0.0000000E+00; -1.5316855E-05;  1.0000000E+04;  0.0000000E+00;  9.9625859E+03; -1.6237070E-01;  0.0000000E+00;  3.3696461E-01;  1.5480987E+04;
  1.0409459E+00;  9.9999998E-03; -8.0151364E-02;2652;  3.2995868E-01;  0.0000000E+00; -2.6179202E-02;  1.0095948E+03;  4.0417913E-01;  7.8493276E+03;3;  7.7627533E+01;  0.0000000E+00;  2.8229885E+00;0;  1.5170093E-01;  1.0021094E+04;  0.0000000E+00;  1.9965395E-05;  1.0000000E+04;  0.0000000E+00;  9.9621260E+03; -1.8255816E-01;  0.0000000E+00;  3.3425909E-01;  1.5687797E+04;
  1.0409303E+00;  9.9999998E-03; -6.0114559E-02;2653;  3.2705435E-01;  0.0000000E+00; -1.9781889E-02;  1.0096165E+03;  4.0417925E-01;  7.8670996E+03;3;  7.7600540E+01;  0.0000000E+00;  2.2665637E+00;0;  1.3363853E-01;  1.0021865E+04;  0.0000000E+00;  9.2148775E-06;  1.0000000E+04;  0.0000000E+00;  9.9617881E+03; -1.9841927E-01;  0.0000000E+00;  3.3205780E-01;  1.5840513E+04;
  1.0409188E+00;  9.9999998E-03; -4.0077340E-02;2654;  3.2497674E-01;  0.0000000E+00; -1.3272380E-02;  1.0096290E+03;  4.0417933E-01;  7.8773564E+03;3;  7.7697105E+01;  0.0000000E+00;  1.7474470E+00;0;  1.2147482E-01;  1.0022379E+04;  0.0000000E+00; -2.4103983E-06;  1.0000000E+04;  0.0000000E+00;  9.9615166E+03; -2.0987378E-01;  0.0000000E+00;  3.3134860E-01;  1.5961827E+04;
  1.0409119E+00;  9.9999998E-03; -2.0039108E-02;2655;  3.2371369E-01;  0.0000000E+00; -6.6847294E-03;  1.0096339E+03;  4.0417928E-01;  7.8813647E+03;3;  7.7833862E+01;  0.0000000E+00;  9.8968667E-01;0;  1.1474101E-01;  1.0022680E+04;  0.0000000E+00; -2.3625676E-06;  1.0000000E+04;  0.0000000E+00;  9.9613184E+03; -2.1680598E-01;  0.0000000E+00;  3.3154699E-01;  1.6047018E+04;
  1.0610901E+00;  9.9999998E-03; -1.8030971E-01;2678;  3.5879517E-01;  0.0000000E+00; -5.9324726E-02;  1.0081362E+03;  4.0360790E-01;  6.6272979E+03;3;  7.8937042E+01;  0.0000000E+00;  2.5529468E+00;0;  1.6589749E-01;  1.0012292E+04;  0.0000000E+00; -9.7107098E-02;  1.0000000E+04;  0.0000000E+00;  9.9702432E+03; -8.2964204E-02;  0.0000000E+00;  2.4886170E-01;  1.1687440E+04;
  1.0610410E+00;  9.9999998E-03; -1.6027968E-01;2679;  3.4880900E-01;  0.0000000E+00; -5.2673835E-02;  1.0082479E+03;  4.0360805E-01;  6.7183623E+03;3;  7.8374107E+01;  0.0000000E+00;  2.9542024E+00;0;  1.5255062E-01;  1.0015710E+04;  0.0000000E+00; -1.6793385E-02;  1.0000000E+04;  0.0000000E+00;  9.9690361E+03; -1.2617756E-01;  0.0000000E+00;  2.7872819E-01;  1.2166112E+04;
  1.0610003E+00;  9.9999998E-03; -1.4024720E-01;2680;  3.4081677E-01;  0.0000000E+00; -4.5793235E-02;  1.0083270E+03;  4.0360826E-01;  6.7828096E+03;3;  7.8263626E+01;  0.0000000E+00;  3.0413380E+00;0;  1.3872246E-01;  1.0018602E+04;  0.0000000E+00; -9.1108464E-04;  1.0000000E+04;  0.0000000E+00;  9.9677139E+03; -1.6246583E-01;  0.0000000E+00;  3.0118829E-01;  1.2698831E+04;
  1.0609672E+00;  9.9999998E-03; -1.2021212E-01;2681;  3.3429334E-01;  0.0000000E+00; -3.8820855E-02;  1.0083851E+03;  4.0360841E-01;  6.8302520E+03;3;  7.8132553E+01;  0.0000000E+00;  3.0941975E+00;0;  1.2079923E-01;  1.0020874E+04;  0.0000000E+00; -3.0022621E-04;  1.0000000E+04;  0.0000000E+00;  9.9665977E+03; -1.9294716E-01;  0.0000000E+00;  3.1374639E-01;  1.3153492E+04;
  1.0609407E+00;  9.9999998E-03; -1.0017592E-01;2682;  3.2915139E-01;  0.0000000E+00; -3.2108732E-02;  1.0084301E+03;  4.0360841E-01;  6.8668081E+03;3;  7.8075294E+01;  0.0000000E+00;  2.7983809E+00;0;  1.0031377E-01;  1.0022580E+04;  0.0000000E+00; -6.1395163E-05;  1.0000000E+04;  0.0000000E+00;  9.9657852E+03; -2.1847616E-01;  0.0000000E+00;  3.1878993E-01;  1.3490646E+04;
  1.0609199E+00;  9.9999998E-03; -8.0140322E-02;2683;  3.2503423E-01;  0.0000000E+00; -2.5572879E-02;  1.0084641E+03;  4.0360859E-01;  6.8946147E+03;3;  7.8069489E+01;  0.0000000E+00;  2.3828695E+00;0;  8.0777794E-02;  1.0023827E+04;  0.0000000E+00;  3.1124549E-05;  1.0000000E+04;  0.0000000E+00;  9.9652158E+03; -2.3935676E-01;  0.0000000E+00;  3.2013455E-01;  1.3729237E+04;
  1.0609038E+00;  9.9999998E-03; -6.0105391E-02;2684;  3.2184556E-01;  0.0000000E+00; -1.9223865E-02;  1.0084877E+03;  4.0360868E-01;  6.9138687E+03;3;  7.8088470E+01;  0.0000000E+00;  1.8402505E+00;0;  6.5006912E-02;  1.0024700E+04;  0.0000000E+00;  3.3976670E-05;  1.0000000E+04;  0.0000000E+00;  9.9648125E+03; -2.5551230E-01;  0.0000000E+00;  3.2051921E-01;  1.3898238E+04;
  1.0608921E+00;  9.9999998E-03; -4.0070627E-02;2685;  3.1952518E-01;  0.0000000E+00; -1.2880499E-02;  1.0085021E+03;  4.0360874E-01;  6.9256392E+03;3;  7.8151909E+01;  0.0000000E+00;  1.2391678E+00;0;  5.4057598E-02;  1.0025269E+04;  0.0000000E+00;  1.3640840E-05;  1.0000000E+04;  0.0000000E+00;  9.9645303E+03; -2.6694530E-01;  0.0000000E+00;  3.2100290E-01;  1.4016525E+04;
  1.0608848E+00;  9.9999998E-03; -2.0035461E-02;2686;  3.1813878E-01;  0.0000000E+00; -6.4395289E-03;  1.0085090E+03;  4.0360871E-01;  6.9312837E+03;3;  7.8205109E+01;  0.0000000E+00;  5.8096677E-01;0;  4.7792405E-02;  1.0025582E+04;  0.0000000E+00;  2.2355748E-06;  1.0000000E+04;  0.0000000E+00;  9.9643525E+03; -2.7374679E-01;  0.0000000E+00;  3.2153919E-01;  1.4089727E+04;
  1.0810717E+00;  9.9999998E-03; -1.8027925E-01;2709;  3.5584524E-01;  0.0000000E+00; -5.5175662E-02;  1.0070967E+03;  4.0311801E-01;  5.7474683E+03;3;  7.9570885E+01;  0.0000000E+00;  1.3896998E+00;0;  9.8596245E-02;  1.0013409E+04;  0.0000000E+00; -2.4337153E-01;  1.0000000E+04;  0.0000000E+00;  9.9727637E+03; -1.2548539E-01;  0.0000000E+00;  2.2408164E-01;  1.0102307E+04;
  1.0810196E+00;  9.9999998E-03; -1.6025509E-01;2710;  3.4501275E-01;  0.0000000E+00; -4.9950738E-02;  1.0071979E+03;  4.0311837E-01;  5.8295352E+03;3;  7.8654099E+01;  0.0000000E+00;  1.8277309E+00;0;  8.9623004E-02;  1.0016181E+04;  0.0000000E+00; -6.1721362E-02;  1.0000000E+04;  0.0000000E+00;  9.9719961E+03; -1.5901883E-01;  0.0000000E+00;  2.4864183E-01;  1.0351403E+04;
  1.0809760E+00;  9.9999998E-03; -1.4022650E-01;2711;  3.3615896E-01;  0.0000000E+00; -4.3957293E-02;  1.0072877E+03;  4.0311849E-01;  5.9024170E+03;3;  7.8365425E+01;  0.0000000E+00;  2.0710242E+00;0;  7.8297004E-02;  1.0019021E+04;  0.0000000E+00; -5.9219752E-03;  1.0000000E+04;  0.0000000E+00;  9.9709395E+03; -1.9227915E-01;  0.0000000E+00;  2.7057615E-01;  1.0755885E+04;
  1.0809412E+00;  9.9999998E-03; -1.2019602E-01;2712;  3.2914454E-01;  0.0000000E+00; -3.7676267E-02;  1.0073619E+03;  4.0311852E-01;  5.9625381E+03;3;  7.8268356E+01;  0.0000000E+00;  2.1429636E+00;0;  6.2624514E-02;  1.0021579E+04;  0.0000000E+00; -5.3780776E-04;  1.0000000E+04;  0.0000000E+00;  9.9698672E+03; -2.2396544E-01;  0.0000000E+00;  2.8658995E-01;  1.1169616E+04;
  1.0809133E+00;  9.9999998E-03; -1.0016332E-01;2713;  3.2349771E-01;  0.0000000E+00; -3.1224899E-02;  1.0074189E+03;  4.0311846E-01;  6.0087441E+03;3;  7.8229332E+01;  0.0000000E+00;  2.1009598E+00;0;  4.4703871E-02;  1.0023602E+04;  0.0000000E+00; -1.9282028E-04;  1.0000000E+04;  0.0000000E+00;  9.9689795E+03; -2.5177953E-01;  0.0000000E+00;  2.9648340E-01;  1.1515298E+04;
  1.0808914E+00;  9.9999998E-03; -8.0130219E-02;2714;  3.1901288E-01;  0.0000000E+00; -2.4830930E-02;  1.0074600E+03;  4.0311870E-01;  6.0420977E+03;3;  7.8211441E+01;  0.0000000E+00;  1.8553566E+00;0;  2.7460605E-02;  1.0025102E+04;  0.0000000E+00; -9.6029480E-06;  1.0000000E+04;  0.0000000E+00;  9.9682979E+03; -2.7476928E-01;  0.0000000E+00;  3.0222988E-01;  1.1781428E+04;
  1.0808747E+00;  9.9999998E-03; -6.0097322E-02;2715;  3.1551814E-01;  0.0000000E+00; -1.8505603E-02;  1.0074874E+03;  4.0311861E-01;  6.0643379E+03;3;  7.8221550E+01;  0.0000000E+00;  1.4973726E+00;0;  1.3192266E-02;  1.0026142E+04;  0.0000000E+00;  3.9453967E-05;  1.0000000E+04;  0.0000000E+00;  9.9678018E+03; -2.9247883E-01;  0.0000000E+00;  3.0567110E-01;  1.1975197E+04;
  1.0808625E+00;  9.9999998E-03; -4.0064778E-02;2716;  3.1299785E-01;  0.0000000E+00; -1.2303587E-02;  1.0075046E+03;  4.0311888E-01;  6.0782651E+03;3;  7.8276726E+01;  0.0000000E+00;  1.0420765E+00;0;  2.9714108E-03;  1.0026814E+04;  0.0000000E+00;  2.6946846E-05;  1.0000000E+04;  0.0000000E+00;  9.9674678E+03; -3.0486286E-01;  0.0000000E+00;  3.0783427E-01;  1.2106121E+04;
  1.0808553E+00;  9.9999998E-03; -2.0032413E-02;2717;  3.1147972E-01;  0.0000000E+00; -6.1757634E-03;  1.0075135E+03;  4.0311879E-01;  6.0855215E+03;3;  7.8348015E+01;  0.0000000E+00;  5.2314591E-01;0; -3.0495524E-03;  1.0027187E+04;  0.0000000E+00;  7.2878270E-06;  1.0000000E+04;  0.0000000E+00;  9.9672705E+03; -3.1213781E-01;  0.0000000E+00;  3.0908826E-01;  1.2181792E+04;
  1.1010550E+00;  9.9999998E-03; -1.8024836E-01;2739;  3.5277250E-01;  0.0000000E+00; -5.0062448E-02;  1.0061890E+03;  4.0270701E-01;  4.9745615E+03;3;  8.0642929E+01;  0.0000000E+00;  4.5309061E-01;0;  4.7393337E-02;  1.0013730E+04;  0.0000000E+00; -5.1496142E-01;  1.0000000E+04;  0.0000000E+00;  9.9748027E+03; -1.5385729E-01;  0.0000000E+00;  2.0125063E-01;  8.8353838E+03;
  1.1009983E+00;  9.9999998E-03; -1.6022755E-01;2740;  3.4091595E-01;  0.0000000E+00; -4.6126042E-02;  1.0062699E+03;  4.0270743E-01;  5.0397456E+03;3;  7.8907257E+01;  0.0000000E+00;  9.4153136E-01;0;  4.2454898E-02;  1.0015604E+04;  0.0000000E+00; -1.7803749E-01;  1.0000000E+04;  0.0000000E+00;  9.9745205E+03; -1.7687845E-01;  0.0000000E+00;  2.1933335E-01;  8.7547471E+03;
  1.1009521E+00;  9.9999998E-03; -1.4020544E-01;2741;  3.3116502E-01;  0.0000000E+00; -4.1563671E-02;  1.0063627E+03;  4.0270752E-01;  5.1143955E+03;3;  7.8327896E+01;  0.0000000E+00;  1.1159317E+00;0;  3.3288360E-02;  1.0018117E+04;  0.0000000E+00; -3.4174420E-02;  1.0000000E+04;  0.0000000E+00;  9.9738506E+03; -2.0545071E-01;  0.0000000E+00;  2.3873907E-01;  8.9770254E+03;
  1.1009145E+00;  9.9999998E-03; -1.2017927E-01;2742;  3.2333335E-01;  0.0000000E+00; -3.6182359E-02;  1.0064545E+03;  4.0270746E-01;  5.1883589E+03;3;  7.8161652E+01;  0.0000000E+00;  1.2722673E+00;0;  1.9096553E-02;  1.0020827E+04;  0.0000000E+00; -2.6432548E-03;  1.0000000E+04;  0.0000000E+00;  9.9729727E+03; -2.3737070E-01;  0.0000000E+00;  2.5646725E-01;  9.2983516E+03;
  1.1008850E+00;  9.9999998E-03; -1.0015098E-01;2743;  3.1709617E-01;  0.0000000E+00; -3.0272674E-02;  1.0065298E+03;  4.0270746E-01;  5.2488901E+03;3;  7.8052963E+01;  0.0000000E+00;  1.3229994E+00;0;  2.6443005E-03;  1.0023201E+04;  0.0000000E+00; -4.4970526E-04;  1.0000000E+04;  0.0000000E+00;  9.9720986E+03; -2.6777482E-01;  0.0000000E+00;  2.7041912E-01;  9.6168164E+03;
  1.1008618E+00;  9.9999998E-03; -8.0120526E-02;2744;  3.1213522E-01;  0.0000000E+00; -2.4031727E-02;  1.0065841E+03;  4.0270770E-01;  5.2925435E+03;3;  7.8015465E+01;  0.0000000E+00;  1.2634121E+00;0; -1.3180375E-02;  1.0025027E+04;  0.0000000E+00; -1.5904705E-04;  1.0000000E+04;  0.0000000E+00;  9.9713584E+03; -2.9353109E-01;  0.0000000E+00;  2.8035071E-01;  9.8879434E+03;
  1.1008443E+00;  9.9999998E-03; -6.0089909E-02;2745;  3.0830520E-01;  0.0000000E+00; -1.7791970E-02;  1.0066198E+03;  4.0270761E-01;  5.3212354E+03;3;  7.7998383E+01;  0.0000000E+00;  1.0860721E+00;0; -2.6482701E-02;  1.0026324E+04;  0.0000000E+00; -2.0101354E-05;  1.0000000E+04;  0.0000000E+00;  9.9707744E+03; -3.1352881E-01;  0.0000000E+00;  2.8704610E-01;  1.0098203E+04;
  1.1008317E+00;  9.9999998E-03; -4.0059496E-02;2746;  3.0558899E-01;  0.0000000E+00; -1.1691851E-02;  1.0066414E+03;  4.0270776E-01;  5.3387051E+03;3;  7.8066818E+01;  0.0000000E+00;  7.5164163E-01;0; -3.6217064E-02;  1.0027151E+04;  0.0000000E+00;  1.3743718E-05;  1.0000000E+04;  0.0000000E+00;  9.9703721E+03; -3.2750788E-01;  0.0000000E+00;  2.9129082E-01;  1.0244507E+04;
  1.1008244E+00;  9.9999998E-03; -2.0029608E-02;2747;  3.0400589E-01;  0.0000000E+00; -5.8498019E-03;  1.0066525E+03;  4.0270787E-01;  5.3476338E+03;3;  7.8131073E+01;  0.0000000E+00;  3.2057077E-01;0; -4.2043865E-02;  1.0027613E+04;  0.0000000E+00;  6.5969234E-06;  1.0000000E+04;  0.0000000E+00;  9.9701367E+03; -3.3568150E-01;  0.0000000E+00;  2.9363763E-01;  1.0329389E+04;
  1.1210415E+00;  9.9999998E-03; -1.8021789E-01;2768;  3.4983033E-01;  0.0000000E+00; -4.4210546E-02;  1.0054226E+03;  4.0237021E-01;  4.3154419E+03;3;  8.2229042E+01;  0.0000000E+00; -3.5953417E-01;0;  7.6082647E-03;  1.0013654E+04;  0.0000000E+00; -9.6750689E-01;  1.0000000E+04;  0.0000000E+00;  9.9763691E+03; -1.7450675E-01;  0.0000000E+00;  1.8211502E-01;  8.0683071E+03;
  1.1209793E+00;  9.9999998E-03; -1.6019909E-01;2769;  3.3682871E-01;  0.0000000E+00; -4.1235723E-02;  1.0054700E+03;  4.0237060E-01;  4.3533530E+03;3;  7.9421875E+01;  0.0000000E+00;  1.1919107E-01;0;  6.8100691E-03;  1.0014463E+04;  0.0000000E+00; -4.3385303E-01;  1.0000000E+04;  0.0000000E+00;  9.9764854E+03; -1.8697661E-01;  0.0000000E+00;  1.9378668E-01;  7.4904150E+03;
  1.1209294E+00;  9.9999998E-03; -1.4018135E-01;2770;  3.2623887E-01;  0.0000000E+00; -3.8050368E-02;  1.0055502E+03;  4.0237054E-01;  4.4173281E+03;3;  7.8281174E+01;  0.0000000E+00;  4.0501422E-01;0;  8.7258220E-04;  1.0016289E+04;  0.0000000E+00; -1.3513941E-01;  1.0000000E+04;  0.0000000E+00;  9.9762500E+03; -2.0819098E-01;  0.0000000E+00;  2.0906356E-01;  7.4496699E+03;
  1.1208893E+00;  9.9999998E-03; -1.2016121E-01;2771;  3.1736413E-01;  0.0000000E+00; -3.3860896E-02;  1.0056491E+03;  4.0237081E-01;  4.4960820E+03;3;  7.7798668E+01;  0.0000000E+00;  4.9928999E-01;0; -1.1167541E-02;  1.0018792E+04;  0.0000000E+00; -2.5055584E-02;  1.0000000E+04;  0.0000000E+00;  9.9757168E+03; -2.3706424E-01;  0.0000000E+00;  2.2589670E-01;  7.6278145E+03;
  1.1208574E+00;  9.9999998E-03; -1.0013729E-01;2772;  3.1042358E-01;  0.0000000E+00; -2.8874006E-02;  1.0057432E+03;  4.0237069E-01;  4.5710229E+03;3;  7.7652748E+01;  0.0000000E+00;  6.3850623E-01;0; -2.6351154E-02;  1.0021372E+04;  0.0000000E+00; -2.4061739E-03;  1.0000000E+04;  0.0000000E+00;  9.9750117E+03; -2.6820448E-01;  0.0000000E+00;  2.4185333E-01;  7.8716587E+03;
  1.1208328E+00;  9.9999998E-03; -8.0110893E-02;2773;  3.0484754E-01;  0.0000000E+00; -2.3099104E-02;  1.0058169E+03;  4.0237084E-01;  4.6298184E+03;3;  7.7519051E+01;  0.0000000E+00;  6.9976884E-01;0; -4.1439712E-02;  1.0023548E+04;  0.0000000E+00; -4.1716747E-04;  1.0000000E+04;  0.0000000E+00;  9.9743105E+03; -2.9638016E-01;  0.0000000E+00;  2.5494045E-01;  8.1128667E+03;
  1.1208142E+00;  9.9999998E-03; -6.0082749E-02;2774;  3.0064178E-01;  0.0000000E+00; -1.7087288E-02;  1.0058670E+03;  4.0237090E-01;  4.6697173E+03;3;  7.7494881E+01;  0.0000000E+00;  6.8171823E-01;0; -5.4261774E-02;  1.0025153E+04;  0.0000000E+00; -1.6992136E-04;  1.0000000E+04;  0.0000000E+00;  9.9737080E+03; -3.1880978E-01;  0.0000000E+00;  2.6454800E-01;  8.3165449E+03;
  1.1208012E+00;  9.9999998E-03; -4.0054742E-02;2775;  2.9774240E-01;  0.0000000E+00; -1.1269438E-02;  1.0058977E+03;  4.0237078E-01;  4.6942314E+03;3;  7.7578194E+01;  0.0000000E+00;  3.2322603E-01;0; -6.3739210E-02;  1.0026214E+04;  0.0000000E+00; -4.7870592E-05;  1.0000000E+04;  0.0000000E+00;  9.9732637E+03; -3.3467707E-01;  0.0000000E+00;  2.7093786E-01;  8.4662979E+03;
  1.1207936E+00;  9.9999998E-03; -2.0027209E-02;2776;  2.9603413E-01;  0.0000000E+00; -5.6368480E-03;  1.0059138E+03;  4.0237072E-01;  4.7070610E+03;3;  7.7562180E+01;  0.0000000E+00;  1.6169195E-01;0; -6.9445252E-02;  1.0026807E+04;  0.0000000E+00; -7.2048906E-06;  1.0000000E+04;  0.0000000E+00;  9.9729932E+03; -3.4400803E-01;  0.0000000E+00;  2.7456278E-01;  8.5562598E+03;
  1.1410321E+00;  9.9999998E-03; -1.8018982E-01;2796;  3.4726331E-01;  0.0000000E+00; -3.8238741E-02;  1.0048015E+03;  4.0210018E-01;  3.7720691E+03;3;  8.5059578E+01;  0.0000000E+00; -1.1915731E+00;0; -2.4000362E-02;  1.0013498E+04;  0.0000000E+00; -1.6396768E+00;  1.0000000E+04;  0.0000000E+00;  9.9775947E+03; -1.9135173E-01;  0.0000000E+00;  1.6735137E-01;  7.9547163E+03;
  1.1409647E+00;  9.9999998E-03; -1.6017170E-01;2797;  3.3338705E-01;  0.0000000E+00; -3.5746112E-02;  1.0048077E+03;  4.0210021E-01;  3.7771250E+03;3;  8.0632401E+01;  0.0000000E+00; -4.9960649E-01;0; -2.1338090E-02;  1.0013279E+04;  0.0000000E+00; -9.1108894E-01;  1.0000000E+04;  0.0000000E+00;  9.9779199E+03; -1.9521342E-01;  0.0000000E+00;  1.7387533E-01;  6.7528101E+03;
  1.1409098E+00;  9.9999998E-03; -1.4015576E-01;2798;  3.2148978E-01;  0.0000000E+00; -3.3313811E-02;  1.0048564E+03;  4.0210044E-01;  3.8155837E+03;3;  7.8533165E+01;  0.0000000E+00; -2.5723535E-01;0; -2.2601575E-02;  1.0014114E+04;  0.0000000E+00; -3.9732555E-01;  1.0000000E+04;  0.0000000E+00;  9.9780430E+03; -2.0709841E-01;  0.0000000E+00;  1.8449683E-01;  6.2711270E+03;
  1.1408664E+00;  9.9999998E-03; -1.2014031E-01;2799;  3.1193355E-01;  0.0000000E+00; -3.0537600E-02;  1.0049423E+03;  4.0210053E-01;  3.8831416E+03;3;  7.7596367E+01;  0.0000000E+00; -6.4756922E-02;0; -3.0514225E-02;  1.0015963E+04;  0.0000000E+00; -1.2940340E-01;  1.0000000E+04;  0.0000000E+00;  9.9779063E+03; -2.2872229E-01;  0.0000000E+00;  1.9820806E-01;  6.2310410E+03;
  1.1408321E+00;  9.9999998E-03; -1.0012195E-01;2800;  3.0384195E-01;  0.0000000E+00; -2.6560642E-02;  1.0050417E+03;  4.0210044E-01;  3.9613555E+03;3;  7.7083038E+01;  0.0000000E+00;  2.9272197E-02;0; -4.3112129E-02;  1.0018322E+04;  0.0000000E+00; -2.9747320E-02;  1.0000000E+04;  0.0000000E+00;  9.9775313E+03; -2.5633311E-01;  0.0000000E+00;  2.1322098E-01;  6.3541680E+03;
  1.1408055E+00;  9.9999998E-03; -8.0099702E-02;2801;  2.9768339E-01;  0.0000000E+00; -2.1725643E-02;  1.0051319E+03;  4.0210056E-01;  4.0322441E+03;3;  7.6876762E+01;  0.0000000E+00;  2.1051301E-01;0; -5.7019606E-02;  1.0020635E+04;  0.0000000E+00; -4.4507785E-03;  1.0000000E+04;  0.0000000E+00;  9.9770176E+03; -2.8428727E-01;  0.0000000E+00;  2.2726767E-01;  6.5247178E+03;
  1.1407859E+00;  9.9999998E-03; -6.0075302E-02;2802;  2.9297063E-01;  0.0000000E+00; -1.6217859E-02;  1.0052003E+03;  4.0210050E-01;  4.0860671E+03;3;  7.6813560E+01;  0.0000000E+00;  2.0256321E-01;0; -6.9556013E-02;  1.0022521E+04;  0.0000000E+00; -5.3971831E-04;  1.0000000E+04;  0.0000000E+00;  9.9765020E+03; -3.0818161E-01;  0.0000000E+00;  2.3862560E-01;  6.6911953E+03;
  1.1407723E+00;  9.9999998E-03; -4.0049974E-02;2803;  2.8985232E-01;  0.0000000E+00; -1.0828727E-02;  1.0052453E+03;  4.0210053E-01;  4.1215146E+03;3;  7.6837646E+01;  0.0000000E+00;  3.9186172E-02;0; -7.9027936E-02;  1.0023846E+04;  0.0000000E+00; -1.4792982E-04;  1.0000000E+04;  0.0000000E+00;  9.9760820E+03; -3.2569563E-01;  0.0000000E+00;  2.4666770E-01;  6.8237217E+03;
  1.1407644E+00;  9.9999998E-03; -2.0024927E-02;2804;  2.8796670E-01;  0.0000000E+00; -5.4091956E-03;  1.0052698E+03;  4.0210044E-01;  4.1407407E+03;3;  7.6779800E+01;  0.0000000E+00;  3.5663862E-02;0; -8.4760666E-02;  1.0024601E+04;  0.0000000E+00; -3.3542325E-05;  1.0000000E+04;  0.0000000E+00;  9.9758154E+03; -3.3616695E-01;  0.0000000E+00;  2.5140628E-01;  6.9069683E+03;
  1.1610284E+00;  9.9999998E-03; -1.8016763E-01;2823;  3.4491315E-01;  0.0000000E+00; -3.2474723E-02;  1.0043130E+03;  4.0188807E-01;  3.3323923E+03;3;  8.9845680E+01;  0.0000000E+00; -1.7546557E+00;0; -4.9210191E-02;  1.0013308E+04;  0.0000000E+00; -2.5019810E+00;  1.0000000E+04;  0.0000000E+00;  9.9786094E+03; -2.0519716E-01;  0.0000000E+00;  1.5598696E-01;  8.3317510E+03;
  1.1609554E+00;  9.9999998E-03; -1.6014792E-01;2824;  3.3071730E-01;  0.0000000E+00; -3.0331045E-02;  1.0042933E+03;  4.0188840E-01;  3.3174214E+03;3;  8.3428215E+01;  0.0000000E+00; -1.0979825E+00;0; -4.5703650E-02;  1.0012519E+04;  0.0000000E+00; -1.6570648E+00;  1.0000000E+04;  0.0000000E+00;  9.9789854E+03; -2.0557420E-01;  0.0000000E+00;  1.5987055E-01;  6.7173818E+03;
  1.1608952E+00;  9.9999998E-03; -1.4013177E-01;2825;  3.1773823E-01;  0.0000000E+00; -2.8172199E-02;  1.0042980E+03;  4.0188864E-01;  3.3212009E+03;3;  7.9724930E+01;  0.0000000E+00; -6.9730955E-01;0; -4.2310581E-02;  1.0012283E+04;  0.0000000E+00; -9.1755247E-01;  1.0000000E+04;  0.0000000E+00;  9.9793008E+03; -2.0870908E-01;  0.0000000E+00;  1.6639850E-01;  5.6299482E+03;
  1.1608473E+00;  9.9999998E-03; -1.2011776E-01;2826;  3.0680403E-01;  0.0000000E+00; -2.5926232E-02;  1.0043483E+03;  4.0188855E-01;  3.3602251E+03;3;  7.7872864E+01;  0.0000000E+00; -5.6208074E-01;0; -4.4305831E-02;  1.0013093E+04;  0.0000000E+00; -4.1996029E-01;  1.0000000E+04;  0.0000000E+00;  9.9794951E+03; -2.2023447E-01;  0.0000000E+00;  1.7592864E-01;  5.1907085E+03;
  1.1608101E+00;  9.9999998E-03; -1.0010375E-01;2827;  2.9815039E-01;  0.0000000E+00; -2.3279585E-02;  1.0044303E+03;  4.0188849E-01;  3.4237234E+03;3;  7.6805939E+01;  0.0000000E+00; -3.5445201E-01;0; -5.1972866E-02;  1.0014731E+04;  0.0000000E+00; -1.5744846E-01;  1.0000000E+04;  0.0000000E+00;  9.9794873E+03; -2.3958857E-01;  0.0000000E+00;  1.8761571E-01;  5.1194419E+03;
  1.1607815E+00;  9.9999998E-03; -8.0086805E-02;2828;  2.9100209E-01;  0.0000000E+00; -1.9442024E-02;  1.0045199E+03;  4.0188855E-01;  3.4930947E+03;3;  7.6254234E+01;  0.0000000E+00; -1.8537530E-01;0; -6.2869787E-02;  1.0016711E+04;  0.0000000E+00; -4.7509126E-02;  1.0000000E+04;  0.0000000E+00;  9.9792920E+03; -2.6262072E-01;  0.0000000E+00;  1.9975093E-01;  5.1815967E+03;
  1.1607603E+00;  9.9999998E-03; -6.0066365E-02;2829;  2.8585872E-01;  0.0000000E+00; -1.4961097E-02;  1.0045983E+03;  4.0188846E-01;  3.5537852E+03;3;  7.6122307E+01;  0.0000000E+00; -1.8465987E-01;0; -7.3944435E-02;  1.0018568E+04;  0.0000000E+00; -1.0712276E-02;  1.0000000E+04;  0.0000000E+00;  9.9790000E+03; -2.8454551E-01;  0.0000000E+00;  2.1060108E-01;  5.2797515E+03;
  1.1607460E+00;  9.9999998E-03; -4.0044580E-02;2830;  2.8233674E-01;  0.0000000E+00; -1.0118382E-02;  1.0046557E+03;  4.0188846E-01;  3.5981470E+03;3;  7.6002495E+01;  0.0000000E+00; -2.2290434E-01;0; -8.3002761E-02;  1.0020015E+04;  0.0000000E+00; -1.6860031E-03;  1.0000000E+04;  0.0000000E+00;  9.9787090E+03; -3.0196297E-01;  0.0000000E+00;  2.1896021E-01;  5.3722158E+03;
  1.1607378E+00;  9.9999998E-03; -2.0022389E-02;2831;  2.8030735E-01;  0.0000000E+00; -5.0937957E-03;  1.0046901E+03;  4.0188846E-01;  3.6248005E+03;3;  7.5925636E+01;  0.0000000E+00; -9.2732467E-02;0; -8.8733733E-02;  1.0020907E+04;  0.0000000E+00; -1.1794990E-04;  1.0000000E+04;  0.0000000E+00;  9.9785000E+03; -3.1289572E-01;  0.0000000E+00;  2.2416198E-01;  5.4352124E+03;
  1.1810349E+00;  9.9999998E-03; -1.8015586E-01;2849;  3.4247479E-01;  0.0000000E+00; -2.7058246E-02;  1.0038781E+03;  4.0172532E-01;  2.9337864E+03;3;  9.7402664E+01;  0.0000000E+00; -1.7231166E+00;0; -6.6202238E-02;  1.0012139E+04;  0.0000000E+00; -3.4075418E+00;  1.0000000E+04;  0.0000000E+00;  9.9792324E+03; -2.1107833E-01;  0.0000000E+00;  1.4487609E-01;  8.6392607E+03;
  1.1809542E+00;  9.9999998E-03; -1.6013214E-01;2850;  3.2852015E-01;  0.0000000E+00; -2.5343837E-02;  1.0039080E+03;  4.0172526E-01;  2.9567935E+03;3;  8.8673134E+01;  0.0000000E+00; -1.3580720E+00;0; -6.7035988E-02;  1.0012155E+04;  0.0000000E+00; -2.6110201E+00;  1.0000000E+04;  0.0000000E+00;  9.9797852E+03; -2.1733950E-01;  0.0000000E+00;  1.5030351E-01;  7.1431943E+03;
  1.1808866E+00;  9.9999998E-03; -1.4011261E-01;2851;  3.1485096E-01;  0.0000000E+00; -2.3195583E-02;  1.0038896E+03;  4.0172562E-01;  2.9430474E+03;3;  8.2913002E+01;  0.0000000E+00; -1.0534501E+00;0; -6.2982231E-02;  1.0011331E+04;  0.0000000E+00; -1.7292577E+00;  1.0000000E+04;  0.0000000E+00;  9.9802266E+03; -2.1709605E-01;  0.0000000E+00;  1.5411381E-01;  5.6646206E+03;
  1.1808336E+00;  9.9999998E-03; -1.2009754E-01;2852;  3.0282333E-01;  0.0000000E+00; -2.1133883E-02;  1.0038910E+03;  4.0172568E-01;  2.9443130E+03;3;  7.9296906E+01;  0.0000000E+00; -7.9634941E-01;0; -5.9236363E-02;  1.0010972E+04;  0.0000000E+00; -9.9136215E-01;  1.0000000E+04;  0.0000000E+00;  9.9806064E+03; -2.1894599E-01;  0.0000000E+00;  1.5970963E-01;  4.6813779E+03;
  1.1807925E+00;  9.9999998E-03; -1.0008459E-01;2853;  2.9302561E-01;  0.0000000E+00; -1.8870579E-02;  1.0039307E+03;  4.0172565E-01;  2.9744954E+03;3;  7.7293724E+01;  0.0000000E+00; -6.7342854E-01;0; -6.0203657E-02;  1.0011476E+04;  0.0000000E+00; -4.8988926E-01;  1.0000000E+04;  0.0000000E+00;  9.9808936E+03; -2.2708873E-01;  0.0000000E+00;  1.6688508E-01;  4.2420923E+03;
  1.1807612E+00;  9.9999998E-03; -8.0071442E-02;2854;  2.8549895E-01;  0.0000000E+00; -1.6321149E-02;  1.0039950E+03;  4.0172568E-01;  3.0232292E+03;3;  7.6289833E+01;  0.0000000E+00; -5.3340292E-01;0; -6.5622419E-02;  1.0012616E+04;  0.0000000E+00; -2.0603608E-01;  1.0000000E+04;  0.0000000E+00;  9.9810352E+03; -2.4060036E-01;  0.0000000E+00;  1.7497794E-01;  4.1218379E+03;
  1.1807386E+00;  9.9999998E-03; -6.0055938E-02;2855;  2.7964067E-01;  0.0000000E+00; -1.2913633E-02;  1.0040639E+03;  4.0172556E-01;  3.0754546E+03;3;  7.5666634E+01;  0.0000000E+00; -4.5405257E-01;0; -7.3293701E-02;  1.0013986E+04;  0.0000000E+00; -7.0435904E-02;  1.0000000E+04;  0.0000000E+00;  9.9810410E+03; -2.5607011E-01;  0.0000000E+00;  1.8277641E-01;  4.1234893E+03;
  1.1807233E+00;  9.9999998E-03; -4.0038127E-02;2856;  2.7582273E-01;  0.0000000E+00; -8.9981575E-03;  1.0041218E+03;  4.0172571E-01;  3.1193552E+03;3;  7.5407738E+01;  0.0000000E+00; -3.9820698E-01;0; -8.0590978E-02;  1.0015217E+04;  0.0000000E+00; -1.7844627E-02;  1.0000000E+04;  0.0000000E+00;  9.9809668E+03; -2.6992223E-01;  0.0000000E+00;  1.8933125E-01;  4.1580908E+03;
  1.1807146E+00;  9.9999998E-03; -2.0019228E-02;2857;  2.7357200E-01;  0.0000000E+00; -4.5851259E-03;  1.0041599E+03;  4.0172562E-01;  3.1482568E+03;3;  7.5213371E+01;  0.0000000E+00; -2.0702061E-01;0; -8.5657448E-02;  1.0016053E+04;  0.0000000E+00; -2.4498515E-03;  1.0000000E+04;  0.0000000E+00;  9.9808877E+03; -2.7936018E-01;  0.0000000E+00;  1.9370273E-01;  4.1893325E+03;
  1.2010477E+00;  9.9999998E-03; -1.8015255E-01;2873;  3.3955550E-01;  0.0000000E+00; -2.2642996E-02;  1.0033777E+03;  4.0160272E-01;  2.4891509E+03;3;  1.0821574E+02;  0.0000000E+00; -1.3415928E+00;0; -6.3076615E-02;  1.0008146E+04;  0.0000000E+00; -3.9256270E+00;  1.0000000E+04;  0.0000000E+00;  9.9793535E+03; -1.9599406E-01;  0.0000000E+00;  1.3291745E-01;  7.9833799E+03;
  1.2009674E+00;  9.9999998E-03; -1.6012934E-01;2874;  3.2658392E-01;  0.0000000E+00; -2.1132991E-02;  1.0035306E+03;  4.0160283E-01;  2.6021650E+03;3;  9.6582932E+01;  0.0000000E+00; -9.1017824E-01;0; -7.6848432E-02;  1.0010544E+04;  0.0000000E+00; -3.5821688E+00;  1.0000000E+04;  0.0000000E+00;  9.9799902E+03; -2.1997668E-01;  0.0000000E+00;  1.4312825E-01;  7.4070845E+03;
  1.2008892E+00;  9.9999998E-03; -1.4010429E-01;2875;  3.1264600E-01;  0.0000000E+00; -1.9036131E-02;  1.0035944E+03;  4.0160289E-01;  2.6494700E+03;3;  8.9017586E+01;  0.0000000E+00; -9.9702078E-01;0; -8.2771286E-02;  1.0010944E+04;  0.0000000E+00; -2.7143183E+00;  1.0000000E+04;  0.0000000E+00;  9.9808457E+03; -2.2883958E-01;  0.0000000E+00;  1.4606829E-01;  6.0198706E+03;
  1.2008270E+00;  9.9999998E-03; -1.2008388E-01;2876;  2.9972956E-01;  0.0000000E+00; -1.6634151E-02;  1.0035825E+03;  4.0160295E-01;  2.6409204E+03;3;  8.3015152E+01;  0.0000000E+00; -8.2349634E-01;0; -7.9557225E-02;  1.0010084E+04;  0.0000000E+00; -1.8116878E+00;  1.0000000E+04;  0.0000000E+00;  9.9814541E+03; -2.2761689E-01;  0.0000000E+00;  1.4805967E-01;  4.7153174E+03;
  1.2007806E+00;  9.9999998E-03; -1.0006884E-01;2877;  2.8919864E-01;  0.0000000E+00; -1.4586531E-02;  1.0035698E+03;  4.0160304E-01;  2.6316938E+03;3;  7.9431183E+01;  0.0000000E+00; -7.3597682E-01;0; -7.4533671E-02;  1.0009364E+04;  0.0000000E+00; -1.0637906E+00;  1.0000000E+04;  0.0000000E+00;  9.9819121E+03; -2.2540341E-01;  0.0000000E+00;  1.5086974E-01;  3.8294268E+03;
  1.2007462E+00;  9.9999998E-03; -8.0056481E-02;2878;  2.8068995E-01;  0.0000000E+00; -1.2301400E-02;  1.0035855E+03;  4.0160307E-01;  2.6434260E+03;3;  7.7330521E+01;  0.0000000E+00; -6.2328660E-01;0; -7.3361859E-02;  1.0009301E+04;  0.0000000E+00; -5.3805083E-01;  1.0000000E+04;  0.0000000E+00;  9.9822832E+03; -2.2724709E-01;  0.0000000E+00;  1.5388523E-01;  3.3929624E+03;
  1.2007213E+00;  9.9999998E-03; -6.0044348E-02;2879;  2.7466679E-01;  0.0000000E+00; -1.0060397E-02;  1.0036218E+03;  4.0160310E-01;  2.6703279E+03;3;  7.6327332E+01;  0.0000000E+00; -6.1468697E-01;0; -7.5567767E-02;  1.0009759E+04;  0.0000000E+00; -2.2554237E-01;  1.0000000E+04;  0.0000000E+00;  9.9825508E+03; -2.3267713E-01;  0.0000000E+00;  1.5710936E-01;  3.2402356E+03;
  1.2007048E+00;  9.9999998E-03; -4.0030710E-02;2880;  2.7045923E-01;  0.0000000E+00; -7.2588143E-03;  1.0036625E+03;  4.0160298E-01;  2.7004512E+03;3;  7.5465225E+01;  0.0000000E+00; -4.9012280E-01;0; -7.9629451E-02;  1.0010416E+04;  0.0000000E+00; -7.2213046E-02;  1.0000000E+04;  0.0000000E+00;  9.9827109E+03; -2.3963968E-01;  0.0000000E+00;  1.6001023E-01;  3.2027583E+03;
  1.2006955E+00;  9.9999998E-03; -2.0015649E-02;2881;  2.6806220E-01;  0.0000000E+00; -3.7990557E-03;  1.0036935E+03;  4.0160301E-01;  2.7233403E+03;3;  7.5251274E+01;  0.0000000E+00; -2.9375139E-01;0; -8.3166674E-02;  1.0010959E+04;  0.0000000E+00; -1.3507486E-02;  1.0000000E+04;  0.0000000E+00;  9.9827900E+03; -2.4527618E-01;  0.0000000E+00;  1.6210951E-01;  3.1980520E+03;
  1.2210531E+00;  9.9999998E-03; -1.8015361E-01;2896;  3.3534381E-01;  0.0000000E+00; -2.0384386E-02;  1.0027861E+03;  4.0151262E-01;  1.9888079E+03;3;  1.2303567E+02;  0.0000000E+00; -1.7027791E+00;0; -2.2106782E-02;  1.0001058E+04;  0.0000000E+00; -3.0870023E+00;  1.0000000E+04;  0.0000000E+00;  9.9791357E+03; -1.4984755E-01;  0.0000000E+00;  1.2774077E-01;  5.4422261E+03;
  1.2209840E+00;  9.9999998E-03; -1.6013180E-01;2897;  3.2366711E-01;  0.0000000E+00; -1.7642749E-02;  1.0030428E+03;  4.0151262E-01;  2.1723682E+03;3;  1.0831190E+02;  0.0000000E+00; -3.4749332E-01;0; -6.3059226E-02;  1.0005513E+04;  0.0000000E+00; -3.9382870E+00;  1.0000000E+04;  0.0000000E+00;  9.9798018E+03; -1.9745842E-01;  0.0000000E+00;  1.3439919E-01;  6.5065439E+03;
  1.2209088E+00;  9.9999998E-03; -1.4010951E-01;2898;  3.1109753E-01;  0.0000000E+00; -1.6051782E-02;  1.0032320E+03;  4.0151253E-01;  2.3077346E+03;3;  9.7733543E+01;  0.0000000E+00; -2.6236898E-01;0; -8.2974628E-02;  1.0008354E+04;  0.0000000E+00; -3.5730014E+00;  1.0000000E+04;  0.0000000E+00;  9.9807207E+03; -2.2412252E-01;  0.0000000E+00;  1.4114790E-01;  6.0020342E+03;
  1.2208364E+00;  9.9999998E-03; -1.2008476E-01;2899;  2.9760900E-01;  0.0000000E+00; -1.3409860E-02;  1.0033340E+03;  4.0151262E-01;  2.3808950E+03;3;  8.9973236E+01;  0.0000000E+00; -3.2990250E-01;0; -9.7031817E-02;  1.0009285E+04;  0.0000000E+00; -2.6767190E+00;  1.0000000E+04;  0.0000000E+00;  9.9818135E+03; -2.3686211E-01;  0.0000000E+00;  1.3983029E-01;  4.8302983E+03;
  1.2207788E+00;  9.9999998E-03; -1.0006307E-01;2900;  2.8622362E-01;  0.0000000E+00; -1.0939031E-02;  1.0033397E+03;  4.0151274E-01;  2.3851338E+03;3;  8.4612083E+01;  0.0000000E+00; -4.6000558E-01;0; -9.5910788E-02;  1.0008582E+04;  0.0000000E+00; -1.7514399E+00;  1.0000000E+04;  0.0000000E+00;  9.9826182E+03; -2.3383941E-01;  0.0000000E+00;  1.3792862E-01;  3.7281582E+03;
  1.2207381E+00;  9.9999998E-03; -8.0046967E-02;2901;  2.7707416E-01;  0.0000000E+00; -8.7424461E-03;  1.0033137E+03;  4.0151268E-01;  2.3668259E+03;3;  8.0701019E+01;  0.0000000E+00; -4.8992199E-01;0; -9.0769067E-02;  1.0007503E+04;  0.0000000E+00; -9.9436492E-01;  1.0000000E+04;  0.0000000E+00;  9.9831709E+03; -2.2675380E-01;  0.0000000E+00;  1.3598473E-01;  2.9879036E+03;
  1.2207099E+00;  9.9999998E-03; -6.0034767E-02;2902;  2.7041179E-01;  0.0000000E+00; -6.7595285E-03;  1.0033021E+03;  4.0151268E-01;  2.3585969E+03;3;  7.8426476E+01;  0.0000000E+00; -4.7213736E-01;0; -8.7469429E-02;  1.0006847E+04;  0.0000000E+00; -4.7145692E-01;  1.0000000E+04;  0.0000000E+00;  9.9835898E+03; -2.2161995E-01;  0.0000000E+00;  1.3415052E-01;  2.6281516E+03;
  1.2206914E+00;  9.9999998E-03; -4.0024035E-02;2903;  2.6598915E-01;  0.0000000E+00; -4.9577230E-03;  1.0033084E+03;  4.0151277E-01;  2.3631853E+03;3;  7.7338120E+01;  0.0000000E+00; -4.1078401E-01;0; -8.7177426E-02;  1.0006658E+04;  0.0000000E+00; -1.7260776E-01;  1.0000000E+04;  0.0000000E+00;  9.9839063E+03; -2.1992756E-01;  0.0000000E+00;  1.3275014E-01;  2.4990383E+03;
  1.2206810E+00;  9.9999998E-03; -2.0012408E-02;2904;  2.6347733E-01;  0.0000000E+00; -2.6830069E-03;  1.0033204E+03;  4.0151277E-01;  2.3718289E+03;3;  7.6716255E+01;  0.0000000E+00; -2.7390406E-01;0; -8.8339671E-02;  1.0006695E+04;  0.0000000E+00; -3.6554251E-02;  1.0000000E+04;  0.0000000E+00;  9.9841045E+03; -2.2017498E-01;  0.0000000E+00;  1.3183531E-01;  2.4586440E+03;
  1.2410339E+00;  9.9999998E-03; -1.8014988E-01;2917;  3.2723737E-01;  0.0000000E+00; -1.9375738E-02;  1.0024235E+03;  4.0144765E-01;  1.6662566E+03;3;  1.3985873E+02;  0.0000000E+00; -3.3432412E+00;0;  1.5719920E-02;  9.9963750E+03;  0.0000000E+00; -2.2081587E-02;  1.0000000E+04;  0.0000000E+00;  9.9798281E+03; -1.1446877E-01;  0.0000000E+00;  1.3018869E-01;  2.3563381E+03;
  1.2409823E+00;  9.9999998E-03; -1.6013135E-01;2918;  3.1812823E-01;  0.0000000E+00; -1.5661437E-02;  1.0025855E+03;  4.0144747E-01;  1.7778263E+03;3;  1.2416363E+02;  0.0000000E+00; -1.2057977E+00;0; -2.6910901E-02;  9.9992959E+03;  0.0000000E+00; -2.4524927E+00;  1.0000000E+04;  0.0000000E+00;  9.9801338E+03; -1.5391168E-01;  0.0000000E+00;  1.2700078E-01;  3.7287725E+03;
  1.2409240E+00;  9.9999998E-03; -1.4011435E-01;2919;  3.0753815E-01;  0.0000000E+00; -1.3480143E-02;  1.0027487E+03;  4.0144762E-01;  1.8902640E+03;3;  1.1072466E+02;  0.0000000E+00; -1.8167937E-02;0; -5.5986851E-02;  1.0002196E+04;  0.0000000E+00; -3.4009638E+00;  1.0000000E+04;  0.0000000E+00;  9.9804883E+03; -1.8948503E-01;  0.0000000E+00;  1.3349818E-01;  4.6439067E+03;
  1.2408608E+00;  9.9999998E-03; -1.2009488E-01;2920;  2.9548219E-01;  0.0000000E+00; -1.1102205E-02;  1.0029260E+03;  4.0144756E-01;  2.0124229E+03;3;  1.0014339E+02;  0.0000000E+00;  5.5988181E-01;0; -8.9410439E-02;  1.0004794E+04;  0.0000000E+00; -3.1594715E+00;  1.0000000E+04;  0.0000000E+00;  9.9814199E+03; -2.2221303E-01;  0.0000000E+00;  1.3280259E-01;  4.3786025E+03;
  1.2407991E+00;  9.9999998E-03; -1.0007358E-01;2921;  2.8418624E-01;  0.0000000E+00; -8.9305053E-03;  1.0030505E+03;  4.0144753E-01;  2.0982808E+03;3;  9.2743446E+01;  0.0000000E+00;  3.7949580E-01;0; -1.0493912E-01;  1.0006163E+04;  0.0000000E+00; -2.3209014E+00;  1.0000000E+04;  0.0000000E+00;  9.9825293E+03; -2.3318398E-01;  0.0000000E+00;  1.2824486E-01;  3.5306660E+03;
  1.2407471E+00;  9.9999998E-03; -8.0052115E-02;2922;  2.7419540E-01;  0.0000000E+00; -6.3303737E-03;  1.0031022E+03;  4.0144745E-01;  2.1340923E+03;3;  8.7267044E+01;  0.0000000E+00;  2.3649454E-01;0; -1.1054717E-01;  1.0006214E+04;  0.0000000E+00; -1.4148082E+00;  1.0000000E+04;  0.0000000E+00;  9.9834990E+03; -2.3125111E-01;  0.0000000E+00;  1.2070394E-01;  2.7138726E+03;
  1.2407103E+00;  9.9999998E-03; -6.0034480E-02;2923;  2.6708791E-01;  0.0000000E+00; -4.3628179E-03;  1.0030977E+03;  4.0144745E-01;  2.1312166E+03;3;  8.3837868E+01;  0.0000000E+00; -4.0479463E-02;0; -1.0786337E-01;  1.0005454E+04;  0.0000000E+00; -7.1761221E-01;  1.0000000E+04;  0.0000000E+00;  9.9841611E+03; -2.2174871E-01;  0.0000000E+00;  1.1388534E-01;  2.2213020E+03;
  1.2406869E+00;  9.9999998E-03; -4.0021546E-02;2924;  2.6221702E-01;  0.0000000E+00; -2.8043617E-03;  1.0030811E+03;  4.0144742E-01;  2.1198337E+03;3;  8.1844666E+01;  0.0000000E+00; -1.7237318E-01;0; -1.0519075E-01;  1.0004692E+04;  0.0000000E+00; -2.8241456E-01;  1.0000000E+04;  0.0000000E+00;  9.9845898E+03; -2.1349488E-01;  0.0000000E+00;  1.0830413E-01;  2.0144724E+03;
  1.2406741E+00;  9.9999998E-03; -2.0010883E-02;2925;  2.5934184E-01;  0.0000000E+00; -1.4538377E-03;  1.0030731E+03;  4.0144756E-01;  2.1143933E+03;3;  8.0648224E+01;  0.0000000E+00; -9.1952473E-02;0; -1.0424069E-01;  1.0004257E+04;  0.0000000E+00; -6.3729294E-02;  1.0000000E+04;  0.0000000E+00;  9.9848584E+03; -2.0882797E-01;  0.0000000E+00;  1.0458728E-01;  1.9456266E+03;
  1.2609527E+00;  9.9999998E-03; -1.6012479E-01;2936;  3.0727386E-01;  0.0000000E+00; -1.4087552E-02;  1.0025072E+03;  4.0140152E-01;  1.6515956E+03;3;  1.4015955E+02;  0.0000000E+00; -2.4363613E+00;0; -3.5120688E-02;  9.9986133E+03;  0.0000000E+00;  9.1472590E-01;  1.0000000E+04;  0.0000000E+00;  9.9815518E+03; -1.5539649E-01;  0.0000000E+00;  1.2027580E-01;  2.0209401E+03;
  1.2609121E+00;  9.9999998E-03; -1.4011110E-01;2937;  3.0004704E-01;  0.0000000E+00; -1.1321787E-02;  1.0024791E+03;  4.0140149E-01;  1.6332135E+03;3;  1.2705019E+02;  0.0000000E+00; -8.8522851E-01;0; -3.8660072E-02;  9.9982988E+03;  0.0000000E+00; -1.1820078E+00;  1.0000000E+04;  0.0000000E+00;  9.9813008E+03; -1.5985240E-01;  0.0000000E+00;  1.2119233E-01;  2.1493269E+03;
  1.2608644E+00;  9.9999998E-03; -1.2009550E-01;2938;  2.9001859E-01;  0.0000000E+00; -8.3985943E-03;  1.0025645E+03;  4.0140149E-01;  1.6897054E+03;3;  1.1493866E+02;  0.0000000E+00;  3.5498941E-01;0; -7.5153582E-02;  9.9996270E+03;  0.0000000E+00; -2.1404040E+00;  1.0000000E+04;  0.0000000E+00;  9.9816689E+03; -1.9286889E-01;  0.0000000E+00;  1.1771531E-01;  2.7031111E+03;
  1.2608176E+00;  9.9999998E-03; -1.0008126E-01;2939;  2.8027266E-01;  0.0000000E+00; -6.8111517E-03;  1.0026326E+03;  4.0140149E-01;  1.7347379E+03;3;  1.0517490E+02;  0.0000000E+00;  8.2819664E-01;0; -9.4712183E-02;  1.0000450E+04;  0.0000000E+00; -2.1141362E+00;  1.0000000E+04;  0.0000000E+00;  9.9822061E+03; -2.1066968E-01;  0.0000000E+00;  1.1595750E-01;  2.6627441E+03;
  1.2607733E+00;  9.9999998E-03; -8.0063634E-02;2940;  2.7084014E-01;  0.0000000E+00; -4.6019596E-03;  1.0027166E+03;  4.0140134E-01;  1.7902181E+03;3;  9.7762962E+01;  0.0000000E+00;  1.1491940E+00;0; -1.1643545E-01;  1.0001141E+04;  0.0000000E+00; -1.5129734E+00;  1.0000000E+04;  0.0000000E+00;  9.9831895E+03; -2.2277108E-01;  0.0000000E+00;  1.0633563E-01;  2.2257297E+03;
  1.2607368E+00;  9.9999998E-03; -6.0045768E-02;2941;  2.6368171E-01;  0.0000000E+00; -3.0009903E-03;  1.0027665E+03;  4.0140149E-01;  1.8232853E+03;3;  9.2773506E+01;  0.0000000E+00;  1.0658710E+00;0; -1.2189826E-01;  1.0001215E+04;  0.0000000E+00; -8.3876103E-01;  1.0000000E+04;  0.0000000E+00;  9.9841025E+03; -2.1812685E-01;  0.0000000E+00;  9.6228585E-02;  1.8185262E+03;
  1.2607095E+00;  9.9999998E-03; -4.0028393E-02;2942;  2.5853243E-01;  0.0000000E+00; -1.6665716E-03;  1.0027970E+03;  4.0140155E-01;  1.8435121E+03;3;  9.0105667E+01;  0.0000000E+00;  5.3430831E-01;0; -1.2379139E-01;  1.0001133E+04;  0.0000000E+00; -3.4431791E-01;  1.0000000E+04;  0.0000000E+00;  9.9847793E+03; -2.1087521E-01;  0.0000000E+00;  8.7083824E-02;  1.6082030E+03;
  1.2606934E+00;  9.9999998E-03; -2.0013466E-02;2943;  2.5544319E-01;  0.0000000E+00; -6.0585997E-04;  1.0028094E+03;  4.0140143E-01;  1.8517512E+03;3;  8.8560753E+01;  0.0000000E+00;  2.1402763E-01;0; -1.2411226E-01;  1.0000994E+04;  0.0000000E+00; -7.9472348E-02;  1.0000000E+04;  0.0000000E+00;  9.9851738E+03; -2.0513995E-01;  0.0000000E+00;  8.1027687E-02;  1.5359316E+03;
  1.2808386E+00;  9.9999998E-03; -1.2008952E-01;2953;  2.7963752E-01;  0.0000000E+00; -6.0223890E-03;  1.0026000E+03;  4.0136939E-01;  1.6340015E+03;3;  1.3015332E+02;  0.0000000E+00; -6.2882259E-02;0; -1.0532155E-01;  1.0000795E+04;  0.0000000E+00;  3.9781773E-01;  1.0000000E+04;  0.0000000E+00;  9.9828076E+03; -2.0371069E-01;  0.0000000E+00;  9.8389141E-02;  1.5224198E+03;
  1.2808044E+00;  9.9999998E-03; -1.0007802E-01;2954;  2.7227268E-01;  0.0000000E+00; -4.1306838E-03;  1.0025272E+03;  4.0136942E-01;  1.5883584E+03;3;  1.2027675E+02;  0.0000000E+00;  6.3909578E-01;0; -1.0910653E-01;  9.9994287E+03;  0.0000000E+00; -4.6519282E-01;  1.0000000E+04;  0.0000000E+00;  9.9827178E+03; -2.0469765E-01;  0.0000000E+00;  9.5591128E-02;  1.5018925E+03;
  1.2807697E+00;  9.9999998E-03; -8.0062345E-02;2955;  2.6420254E-01;  0.0000000E+00; -1.9066464E-03;  1.0025501E+03;  4.0136939E-01;  1.6029554E+03;3;  1.1189349E+02;  0.0000000E+00;  1.3178668E+00;0; -1.3287544E-01;  9.9991943E+03;  0.0000000E+00; -6.5594608E-01;  1.0000000E+04;  0.0000000E+00;  9.9834023E+03; -2.1863919E-01;  0.0000000E+00;  8.5763760E-02;  1.4761901E+03;
  1.2807426E+00;  9.9999998E-03; -6.0046535E-02;2956;  2.5789681E-01;  0.0000000E+00; -8.1810832E-04;  1.0025309E+03;  4.0136948E-01;  1.5909963E+03;3;  1.0615955E+02;  0.0000000E+00;  1.4685733E+00;0; -1.3975695E-01;  9.9980576E+03;  0.0000000E+00; -4.7341970E-01;  1.0000000E+04;  0.0000000E+00;  9.9841602E+03; -2.1649043E-01;  0.0000000E+00;  7.6733485E-02;  1.3456268E+03;
  1.2807224E+00;  9.9999998E-03; -4.0029645E-02;2957;  2.5294349E-01;  0.0000000E+00;  7.1654744E-05;  1.0025175E+03;  4.0136951E-01;  1.5826071E+03;3;  1.0260390E+02;  0.0000000E+00;  1.2866865E+00;0; -1.4532168E-01;  9.9971064E+03;  0.0000000E+00; -2.2081284E-01;  1.0000000E+04;  0.0000000E+00;  9.9848438E+03; -2.1275325E-01;  0.0000000E+00;  6.7431569E-02;  1.2269484E+03;
  1.2807101E+00;  9.9999998E-03; -2.0013791E-02;2958;  2.5009519E-01;  0.0000000E+00;  2.7122063E-04;  1.0025045E+03;  4.0136951E-01;  1.5744860E+03;3;  1.0102395E+02;  0.0000000E+00;  3.4565470E-01;0; -1.4692806E-01;  9.9964141E+03;  0.0000000E+00; -5.3768769E-02;  1.0000000E+04;  0.0000000E+00;  9.9852637E+03; -2.0794412E-01;  0.0000000E+00;  6.1016072E-02;  1.1625762E+03;
  1.3007411E+00;  9.9999998E-03; -8.0057628E-02;2966;  2.5376758E-01;  0.0000000E+00;  4.8022703E-04;  1.0028018E+03;  4.0134740E-01;  1.6753167E+03;3;  1.2689856E+02;  0.0000000E+00;  1.5102364E+00;0; -1.9723773E-01;  1.0004847E+04;  0.0000000E+00;  6.7926073E-01;  1.0000000E+04;  0.0000000E+00;  9.9838574E+03; -2.6063415E-01;  0.0000000E+00;  6.3396432E-02;  1.3740652E+03;
  1.3007185E+00;  9.9999998E-03; -6.0040932E-02;2967;  2.4888681E-01;  0.0000000E+00;  1.9028302E-03;  1.0027706E+03;  4.0134749E-01;  1.6568070E+03;3;  1.2163573E+02;  0.0000000E+00;  1.3312576E+00;0; -1.9515502E-01;  1.0003553E+04;  0.0000000E+00;  2.3904571E-01;  1.0000000E+04;  0.0000000E+00;  9.9845332E+03; -2.5014156E-01;  0.0000000E+00;  5.4986529E-02;  1.2411504E+03;
  1.3007016E+00;  9.9999998E-03; -4.0025264E-02;2968;  2.4542046E-01;  0.0000000E+00;  1.5550626E-03;  1.0027412E+03;  4.0134767E-01;  1.6392703E+03;3;  1.1831501E+02;  0.0000000E+00;  6.5788257E-01;0; -1.8920256E-01;  1.0002476E+04;  0.0000000E+00;  6.2225688E-02;  1.0000000E+04;  0.0000000E+00;  9.9850215E+03; -2.3874667E-01;  0.0000000E+00;  4.9544111E-02;  1.1680570E+03;
  1.3006915E+00;  9.9999998E-03; -2.0011727E-02;2969;  2.4325453E-01;  0.0000000E+00;  8.2605297E-04;  1.0027139E+03;  4.0134761E-01;  1.6229867E+03;3;  1.1632777E+02;  0.0000000E+00;  3.3661512E-01;0; -1.8622074E-01;  1.0001642E+04;  0.0000000E+00;  9.5480103E-03;  1.0000000E+04;  0.0000000E+00;  9.9853047E+03; -2.3073912E-01;  0.0000000E+00;  4.4518389E-02;  1.1236222E+03;
 -1.1122535E-05;  9.9999998E-03; -2.2502237E-14;1045; -6.0650664E-03;  0.0000000E+00; -7.2751660E-10;  1.0002357E+03;  4.0000001E-01;  1.9525371E+02;3; -3.5915451E+00;  0.0000000E+00; -9.3644758E-07;0; -1.1841171E-01;  1.0004779E+04;  0.0000000E+00;  9.8370044E-16;  1.0000000E+04;  0.0000000E+00;  9.9999395E+03; -1.2046427E-01;  0.0000000E+00;  2.0525539E-03;  4.6978851E+01;
 -1.1128355E-05;  9.9999998E-03;  2.0000057E-02;1046; -6.0668779E-03;  0.0000000E+00;  4.3977543E-05;  1.0002357E+03;  4.0000001E-01;  1.9525371E+02;3; -3.5912075E+00;  0.0000000E+00;  3.6487453E-02;0; -1.1838529E-01;  1.0004780E+04;  0.0000000E+00; -1.1564771E-10;  1.0000000E+04;  0.0000000E+00;  9.9999346E+03; -1.2048608E-01;  0.0000000E+00;  2.1007976E-03;  4.8121082E+01;
 -1.1144215E-05;  9.9999998E-03;  4.0000122E-02;1047; -6.0716104E-03;  0.0000000E+00;  9.0668029E-05;  1.0002357E+03;  4.0000001E-01;  1.9525371E+02;3; -3.5898438E+00;  0.0000000E+00;  7.3264927E-02;0; -1.1829077E-01;  1.0004786E+04;  0.0000000E+00; -3.3311476E-10;  1.0000000E+04;  0.0000000E+00;  9.9999297E+03; -1.2053379E-01;  0.0000000E+00;  2.2430180E-03;  5.1495251E+01;
 -1.1165048E-05;  9.9999998E-03;  6.0000200E-02;1048; -6.0764397E-03;  0.0000000E+00;  1.4432661E-04;  1.0002355E+03;  4.0000001E-01;  1.9515494E+02;3; -3.5859222E+00;  0.0000000E+00;  1.1379972E-01;0; -1.1808223E-01;  1.0004793E+04;  0.0000000E+00; -1.4003233E-09;  1.0000000E+04;  0.0000000E+00;  9.9999170E+03; -1.2055370E-01;  0.0000000E+00;  2.4714672E-03;  5.6938343E+01;
 -1.1181998E-05;  9.9999998E-03;  8.0000296E-02;1049; -6.0770963E-03;  0.0000000E+00;  2.0655358E-04;  1.0002349E+03;  4.0000001E-01;  1.9456236E+02;3; -3.5774574E+00;  0.0000000E+00;  1.5700272E-01;0; -1.1767995E-01;  1.0004795E+04;  0.0000000E+00; -3.4587113E-09;  1.0000000E+04;  0.0000000E+00;  9.9999023E+03; -1.2045240E-01;  0.0000000E+00;  2.7724528E-03;  6.4155052E+01;
 -1.1182270E-05;  9.9999998E-03;  1.0000042E-01;1050; -6.0664541E-03;  0.0000000E+00;  2.8058022E-04;  1.0002336E+03;  4.0000001E-01;  1.9347598E+02;3; -3.5604324E+00;  0.0000000E+00;  2.0585486E-01;0; -1.1696771E-01;  1.0004791E+04;  0.0000000E+00; -8.1884854E-09;  1.0000000E+04;  0.0000000E+00;  9.9998809E+03; -1.2009195E-01;  0.0000000E+00;  3.1242433E-03;  7.2666557E+01;
 -1.1146944E-05;  9.9999998E-03;  1.2000058E-01;1051; -6.0349456E-03;  0.0000000E+00;  3.6899868E-04;  1.0002318E+03;  4.0000001E-01;  1.9199454E+02;3; -3.5298328E+00;  0.0000000E+00;  2.6067919E-01;0; -1.1579075E-01;  1.0004770E+04;  0.0000000E+00; -1.5094454E-08;  1.0000000E+04;  0.0000000E+00;  9.9998643E+03; -1.1928336E-01;  0.0000000E+00;  3.4926119E-03;  8.1716362E+01;
 -1.1053748E-05;  9.9999998E-03;  1.4000076E-01;1052; -5.9714708E-03;  0.0000000E+00;  4.6896414E-04;  1.0002282E+03;  4.0000001E-01;  1.8903166E+02;3; -3.4803219E+00;  0.0000000E+00;  3.1838727E-01;0; -1.1395641E-01;  1.0004722E+04;  0.0000000E+00; -2.6103585E-08;  1.0000000E+04;  0.0000000E+00;  9.9998447E+03; -1.1778201E-01;  0.0000000E+00;  3.8256054E-03;  9.0156921E+01;
  1.9984398E-02;  9.9999998E-03; -4.4249793E-13;1075; -8.4499372E-03;  0.0000000E+00;  1.8276266E-12;  1.0002746E+03;  4.0000001E-01;  2.2745032E+02;3; -4.3782139E+00;  0.0000000E+00;  1.8877763E-06;0; -1.3616350E-01;  1.0005577E+04;  0.0000000E+00; -1.0322239E-15;  1.0000000E+04;  0.0000000E+00;  9.9999150E+03; -1.3894033E-01;  0.0000000E+00;  2.7768319E-03;  5.9999699E+01;
  1.9984389E-02;  9.9999998E-03;  2.0000083E-02;1076; -8.4531363E-03;  0.0000000E+00;  6.3328640E-05;  1.0002745E+03;  4.0000001E-01;  2.2745032E+02;3; -4.3776283E+00;  0.0000000E+00;  4.7815830E-02;0; -1.3613698E-01;  1.0005580E+04;  0.0000000E+00; -1.5396463E-10;  1.0000000E+04;  0.0000000E+00;  9.9999141E+03; -1.3897419E-01;  0.0000000E+00;  2.8372048E-03;  6.1487732E+01;
  1.9984361E-02;  9.9999998E-03;  4.0000174E-02;1077; -8.4617035E-03;  0.0000000E+00;  1.3013500E-04;  1.0002746E+03;  4.0000001E-01;  2.2745032E+02;3; -4.3756084E+00;  0.0000000E+00;  9.5619768E-02;0; -1.3604167E-01;  1.0005589E+04;  0.0000000E+00; -7.3682499E-10;  1.0000000E+04;  0.0000000E+00;  9.9999033E+03; -1.3905668E-01;  0.0000000E+00;  3.0150064E-03;  6.5882278E+01;
  1.9984322E-02;  9.9999998E-03;  6.0000282E-02;1078; -8.4720124E-03;  0.0000000E+00;  2.0474796E-04;  1.0002743E+03;  4.0000001E-01;  2.2725279E+02;3; -4.3702240E+00;  0.0000000E+00;  1.4710777E-01;0; -1.3582909E-01;  1.0005599E+04;  0.0000000E+00; -1.2152025E-09;  1.0000000E+04;  0.0000000E+00;  9.9998887E+03; -1.3912915E-01;  0.0000000E+00;  3.3000486E-03;  7.2965698E+01;
  1.9984284E-02;  9.9999998E-03;  8.0000415E-02;1079; -8.4778070E-03;  0.0000000E+00;  2.9099325E-04;  1.0002739E+03;  4.0000001E-01;  2.2695651E+02;3; -4.3590622E+00;  0.0000000E+00;  2.0194520E-01;0; -1.3541572E-01;  1.0005607E+04;  0.0000000E+00;  1.0284320E-10;  1.0000000E+04;  0.0000000E+00;  9.9998701E+03; -1.3908978E-01;  0.0000000E+00;  3.6740629E-03;  8.2341354E+01;
  1.9984268E-02;  9.9999998E-03;  1.0000058E-01;1080; -8.4705278E-03;  0.0000000E+00;  3.8952520E-04;  1.0002726E+03;  4.0000001E-01;  2.2587012E+02;3; -4.3384228E+00;  0.0000000E+00;  2.5961986E-01;0; -1.3467881E-01;  1.0005606E+04;  0.0000000E+00;  8.2482341E-09;  1.0000000E+04;  0.0000000E+00;  9.9998457E+03; -1.3878649E-01;  0.0000000E+00;  4.1076913E-03;  9.3361290E+01;
  1.9984294E-02;  9.9999998E-03;  1.2000079E-01;1081; -8.4367022E-03;  0.0000000E+00;  5.0527009E-04;  1.0002707E+03;  4.0000001E-01;  2.2428992E+02;3; -4.3021832E+00;  0.0000000E+00;  3.2298064E-01;0; -1.3345370E-01;  1.0005591E+04;  0.0000000E+00;  3.4420477E-08;  1.0000000E+04;  0.0000000E+00;  9.9998203E+03; -1.3800886E-01;  0.0000000E+00;  4.5551714E-03;  1.0501112E+02;
  1.9984398E-02;  9.9999998E-03;  1.4000104E-01;1082; -8.3591528E-03;  0.0000000E+00;  6.4083212E-04;  1.0002671E+03;  4.0000001E-01;  2.2132704E+02;3; -4.2427883E+00;  0.0000000E+00;  3.9161718E-01;0; -1.3153133E-01;  1.0005547E+04;  0.0000000E+00;  1.0271715E-07;  1.0000000E+04;  0.0000000E+00;  9.9997979E+03; -1.3648064E-01;  0.0000000E+00;  4.9493196E-03;  1.1579116E+02;
  3.9978724E-02;  9.9999998E-03; -1.6697522E-14;1106; -1.1452653E-02;  0.0000000E+00;  2.5463010E-11;  1.0003052E+03;  4.0000001E-01;  2.5283232E+02;3; -5.2905655E+00;  0.0000000E+00; -4.8191805E-07;0; -1.4887418E-01;  1.0006213E+04;  0.0000000E+00;  6.3611804E-16;  1.0000000E+04;  0.0000000E+00;  9.9998945E+03; -1.5231293E-01;  0.0000000E+00;  3.4387594E-03;  7.1427307E+01;
  3.9978705E-02;  9.9999998E-03;  2.0000102E-02;1107; -1.1457604E-02;  0.0000000E+00;  7.8170240E-05;  1.0003052E+03;  4.0000001E-01;  2.5283232E+02;3; -5.2895908E+00;  0.0000000E+00;  5.5075843E-02;0; -1.4885500E-01;  1.0006213E+04;  0.0000000E+00;  2.4369713E-11;  1.0000000E+04;  0.0000000E+00;  9.9998936E+03; -1.5236118E-01;  0.0000000E+00;  3.5061811E-03;  7.3187271E+01;
  3.9978664E-02;  9.9999998E-03;  4.0000215E-02;1108; -1.1470979E-02;  0.0000000E+00;  1.6061407E-04;  1.0003053E+03;  4.0000001E-01;  2.5293108E+02;3; -5.2859993E+00;  0.0000000E+00;  1.1056614E-01;0; -1.4878237E-01;  1.0006225E+04;  0.0000000E+00; -9.7520450E-11;  1.0000000E+04;  0.0000000E+00;  9.9998828E+03; -1.5248685E-01;  0.0000000E+00;  3.7044764E-03;  7.8382401E+01;
  3.9978601E-02;  9.9999998E-03;  6.0000345E-02;1109; -1.1488270E-02;  0.0000000E+00;  2.5040255E-04;  1.0003052E+03;  4.0000001E-01;  2.5293108E+02;3; -5.2781849E+00;  0.0000000E+00;  1.6763818E-01;0; -1.4860937E-01;  1.0006242E+04;  0.0000000E+00; -3.6335761E-11;  1.0000000E+04;  0.0000000E+00;  9.9998633E+03; -1.5263079E-01;  0.0000000E+00;  4.0214211E-03;  8.6746193E+01;
  3.9978538E-02;  9.9999998E-03;  8.0000505E-02;1110; -1.1501169E-02;  0.0000000E+00;  3.5217340E-04;  1.0003049E+03;  4.0000001E-01;  2.5253603E+02;3; -5.2630129E+00;  0.0000000E+00;  2.2738275E-01;0; -1.4825447E-01;  1.0006259E+04;  0.0000000E+00;  3.3269330E-09;  1.0000000E+04;  0.0000000E+00;  9.9998408E+03; -1.5268934E-01;  0.0000000E+00;  4.4348631E-03;  9.7790192E+01;
  3.9978497E-02;  9.9999998E-03;  1.0000070E-01;1111; -1.1498037E-02;  0.0000000E+00;  4.6797210E-04;  1.0003041E+03;  4.0000001E-01;  2.5194345E+02;3; -5.2364550E+00;  0.0000000E+00;  2.8908414E-01;0; -1.4759789E-01;  1.0006266E+04;  0.0000000E+00;  2.0413944E-08;  1.0000000E+04;  0.0000000E+00;  9.9998115E+03; -1.5250665E-01;  0.0000000E+00;  4.9087512E-03;  1.1071433E+02;
  3.9978504E-02;  9.9999998E-03;  1.2000094E-01;1112; -1.1462118E-02;  0.0000000E+00;  5.9995230E-04;  1.0003022E+03;  4.0000001E-01;  2.5036325E+02;3; -5.1916513E+00;  0.0000000E+00;  3.5409710E-01;0; -1.4647627E-01;  1.0006259E+04;  0.0000000E+00;  7.5897397E-08;  1.0000000E+04;  0.0000000E+00;  9.9997852E+03; -1.5186408E-01;  0.0000000E+00;  5.3878077E-03;  1.2428192E+02;
  3.9978616E-02;  9.9999998E-03;  1.4000122E-01;1113; -1.1370945E-02;  0.0000000E+00;  7.5075123E-04;  1.0002991E+03;  4.0000001E-01;  2.4779543E+02;3; -5.1204348E+00;  0.0000000E+00;  4.2229533E-01;0; -1.4467475E-01;  1.0006224E+04;  0.0000000E+00;  2.0972477E-07;  1.0000000E+04;  0.0000000E+00;  9.9997598E+03; -1.5046927E-01;  0.0000000E+00;  5.7945270E-03;  1.3672382E+02;
  5.9972338E-02;  9.9999998E-03; -1.1177921E-12;1137; -1.4772313E-02;  0.0000000E+00; -1.6889874E-09;  1.0003330E+03;  4.0000001E-01;  2.7584399E+02;3; -6.2747993E+00;  0.0000000E+00; -3.0048122E-06;0; -1.5921274E-01;  1.0006779E+04;  0.0000000E+00;  1.1106182E-15;  1.0000000E+04;  0.0000000E+00;  9.9998799E+03; -1.6320933E-01;  0.0000000E+00;  3.9965902E-03;  8.1162193E+01;
  5.9972316E-02;  9.9999998E-03;  2.0000113E-02;1138; -1.4779240E-02;  0.0000000E+00;  8.7693181E-05;  1.0003330E+03;  4.0000001E-01;  2.7584399E+02;3; -6.2731171E+00;  0.0000000E+00;  5.9453454E-02;0; -1.5920922E-01;  1.0006786E+04;  0.0000000E+00; -2.8460009E-11;  1.0000000E+04;  0.0000000E+00;  9.9998730E+03; -1.6327375E-01;  0.0000000E+00;  4.0645259E-03;  8.3089363E+01;
  5.9972253E-02;  9.9999998E-03;  4.0000234E-02;1139; -1.4798103E-02;  0.0000000E+00;  1.7943470E-04;  1.0003331E+03;  4.0000001E-01;  2.7594278E+02;3; -6.2675552E+00;  0.0000000E+00;  1.1931556E-01;0; -1.5918455E-01;  1.0006806E+04;  0.0000000E+00; -1.7952639E-10;  1.0000000E+04;  0.0000000E+00;  9.9998623E+03; -1.6344847E-01;  0.0000000E+00;  4.2639174E-03;  8.8773239E+01;
  5.9972163E-02;  9.9999998E-03;  6.0000379E-02;1140; -1.4823199E-02;  0.0000000E+00;  2.7847139E-04;  1.0003334E+03;  4.0000001E-01;  2.7623904E+02;3; -6.2563028E+00;  0.0000000E+00;  1.7920519E-01;0; -1.5909575E-01;  1.0006825E+04;  0.0000000E+00;  3.3075284E-10;  1.0000000E+04;  0.0000000E+00;  9.9998447E+03; -1.6367677E-01;  0.0000000E+00;  4.5810151E-03;  9.7905991E+01;
  5.9972066E-02;  9.9999998E-03;  8.0000550E-02;1141; -1.4844558E-02;  0.0000000E+00;  3.8808986E-04;  1.0003334E+03;  4.0000001E-01;  2.7623904E+02;3; -6.2358704E+00;  0.0000000E+00;  2.4056271E-01;0; -1.5886752E-01;  1.0006848E+04;  0.0000000E+00;  3.7234984E-09;  1.0000000E+04;  0.0000000E+00;  9.9998193E+03; -1.6385815E-01;  0.0000000E+00;  4.9906243E-03;  1.0992081E+02;
  5.9971988E-02;  9.9999998E-03;  1.0000076E-01;1142; -1.4847302E-02;  0.0000000E+00;  5.1196560E-04;  1.0003331E+03;  4.0000001E-01;  2.7594278E+02;3; -6.2015934E+00;  0.0000000E+00;  3.0358291E-01;0; -1.5838824E-01;  1.0006866E+04;  0.0000000E+00;  2.3559949E-08;  1.0000000E+04;  0.0000000E+00;  9.9997910E+03; -1.6383997E-01;  0.0000000E+00;  5.4517188E-03;  1.2389656E+02;
  5.9971977E-02;  9.9999998E-03;  1.2000101E-01;1143; -1.4811401E-02;  0.0000000E+00;  6.5017637E-04;  1.0003315E+03;  4.0000001E-01;  2.7465884E+02;3; -6.1471252E+00;  0.0000000E+00;  3.6586872E-01;0; -1.5750141E-01;  1.0006875E+04;  0.0000000E+00;  8.9267523E-08;  1.0000000E+04;  0.0000000E+00;  9.9997598E+03; -1.6340442E-01;  0.0000000E+00;  5.9030061E-03;  1.3843643E+02;
  5.9972081E-02;  9.9999998E-03;  1.4000131E-01;1144; -1.4708790E-02;  0.0000000E+00;  8.0418313E-04;  1.0003290E+03;  4.0000001E-01;  2.7258484E+02;3; -6.0627899E+00;  0.0000000E+00;  4.2851120E-01;0; -1.5599081E-01;  1.0006853E+04;  0.0000000E+00;  2.4497839E-07;  1.0000000E+04;  0.0000000E+00;  9.9997314E+03; -1.6225439E-01;  0.0000000E+00;  6.2635778E-03;  1.5162384E+02;
  7.9965457E-02;  9.9999998E-03; -1.0706336E-12;1168; -1.8264832E-02;  0.0000000E+00;  3.6577030E-10;  1.0003627E+03;  4.0000001E-01;  3.0043591E+02;3; -7.3612337E+00;  0.0000000E+00; -1.7910024E-06;0; -1.6960764E-01;  1.0007394E+04;  0.0000000E+00; -4.3031780E-16;  1.0000000E+04;  0.0000000E+00;  9.9998652E+03; -1.7408726E-01;  0.0000000E+00;  4.4796155E-03;  9.0192162E+01;
  7.9965428E-02;  9.9999998E-03;  2.0000117E-02;1169; -1.8273881E-02;  0.0000000E+00;  9.2721035E-05;  1.0003629E+03;  4.0000001E-01;  3.0063342E+02;3; -7.3588676E+00;  0.0000000E+00;  6.2214978E-02;0; -1.6962737E-01;  1.0007400E+04;  0.0000000E+00; -1.7374616E-10;  1.0000000E+04;  0.0000000E+00;  9.9998613E+03; -1.7416888E-01;  0.0000000E+00;  4.5415233E-03;  9.2180084E+01;
  7.9965346E-02;  9.9999998E-03;  4.0000241E-02;1170; -1.8298753E-02;  0.0000000E+00;  1.8869918E-04;  1.0003633E+03;  4.0000001E-01;  3.0092972E+02;3; -7.3509984E+00;  0.0000000E+00;  1.2411108E-01;0; -1.6967398E-01;  1.0007420E+04;  0.0000000E+00; -4.7323229E-10;  1.0000000E+04;  0.0000000E+00;  9.9998486E+03; -1.7439650E-01;  0.0000000E+00;  4.7225216E-03;  9.8034454E+01;
  7.9965219E-02;  9.9999998E-03;  6.0000390E-02;1171; -1.8332638E-02;  0.0000000E+00;  2.9128752E-04;  1.0003636E+03;  4.0000001E-01;  3.0122601E+02;3; -7.3355761E+00;  0.0000000E+00;  1.8594271E-01;0; -1.6970932E-01;  1.0007450E+04;  0.0000000E+00; -5.6812038E-10;  1.0000000E+04;  0.0000000E+00;  9.9998301E+03; -1.7471693E-01;  0.0000000E+00;  5.0076135E-03;  1.0740897E+02;
  7.9965077E-02;  9.9999998E-03;  8.0000564E-02;1172; -1.8363979E-02;  0.0000000E+00;  4.0287120E-04;  1.0003640E+03;  4.0000001E-01;  3.0162106E+02;3; -7.3093219E+00;  0.0000000E+00;  2.4644393E-01;0; -1.6966639E-01;  1.0007480E+04;  0.0000000E+00;  2.4778797E-09;  1.0000000E+04;  0.0000000E+00;  9.9998047E+03; -1.7503546E-01;  0.0000000E+00;  5.3690630E-03;  1.1966698E+02;
  7.9964958E-02;  9.9999998E-03;  1.0000078E-01;1173; -1.8375481E-02;  0.0000000E+00;  5.2634743E-04;  1.0003643E+03;  4.0000001E-01;  3.0181857E+02;3; -7.2669959E+00;  0.0000000E+00;  3.0698788E-01;0; -1.6944367E-01;  1.0007515E+04;  0.0000000E+00;  2.1864391E-08;  1.0000000E+04;  0.0000000E+00;  9.9997744E+03; -1.7520618E-01;  0.0000000E+00;  5.7625207E-03;  1.3379326E+02;
  7.9964906E-02;  9.9999998E-03;  1.2000103E-01;1174; -1.8342979E-02;  0.0000000E+00;  6.6398853E-04;  1.0003637E+03;  4.0000001E-01;  3.0132477E+02;3; -7.2016811E+00;  0.0000000E+00;  3.6609313E-01;0; -1.6889332E-01;  1.0007534E+04;  0.0000000E+00;  8.4950379E-08;  1.0000000E+04;  0.0000000E+00;  9.9997432E+03; -1.7501783E-01;  0.0000000E+00;  6.1245156E-03;  1.4829797E+02;
  7.9964995E-02;  9.9999998E-03;  1.4000133E-01;1175; -1.8234298E-02;  0.0000000E+00;  8.1293943E-04;  1.0003624E+03;  4.0000001E-01;  3.0023837E+02;3; -7.1037679E+00;  0.0000000E+00;  4.2294225E-01;0; -1.6779627E-01;  1.0007530E+04;  0.0000000E+00;  2.2205499E-07;  1.0000000E+04;  0.0000000E+00;  9.9997158E+03; -1.7417528E-01;  0.0000000E+00;  6.3790078E-03;  1.6126099E+02;
  9.9958062E-02;  9.9999998E-03; -3.0777301E-13;1199; -2.1918288E-02;  0.0000000E+00;  7.1366590E-10;  1.0003979E+03;  4.0000001E-01;  3.2966965E+02;3; -8.5742950E+00;  0.0000000E+00;  4.1204858E-06;0; -1.8167022E-01;  1.0008112E+04;  0.0000000E+00;  3.2172741E-16;  1.0000000E+04;  0.0000000E+00;  9.9998486E+03; -1.8666008E-01;  0.0000000E+00;  4.9898662E-03;  1.0056187E+02;
  9.9958017E-02;  9.9999998E-03;  2.0000119E-02;1200; -2.1929633E-02;  0.0000000E+00;  9.5759417E-05;  1.0003982E+03;  4.0000001E-01;  3.2986716E+02;3; -8.5710697E+00;  0.0000000E+00;  6.4359210E-02;0; -1.8171935E-01;  1.0008121E+04;  0.0000000E+00; -2.9081521E-10;  1.0000000E+04;  0.0000000E+00;  9.9998447E+03; -1.8675967E-01;  0.0000000E+00;  5.0403150E-03;  1.0252635E+02;
  9.9957913E-02;  9.9999998E-03;  4.0000245E-02;1201; -2.1961153E-02;  0.0000000E+00;  1.9389857E-04;  1.0003988E+03;  4.0000001E-01;  3.3036096E+02;3; -8.5606823E+00;  0.0000000E+00;  1.2758927E-01;0; -1.8185596E-01;  1.0008146E+04;  0.0000000E+00; -9.0148217E-10;  1.0000000E+04;  0.0000000E+00;  9.9998320E+03; -1.8704247E-01;  0.0000000E+00;  5.1865182E-03;  1.0829640E+02;
  9.9957749E-02;  9.9999998E-03;  6.0000390E-02;1202; -2.2005163E-02;  0.0000000E+00;  2.9697228E-04;  1.0003996E+03;  4.0000001E-01;  3.3105231E+02;3; -8.5409489E+00;  0.0000000E+00;  1.8977091E-01;0; -1.8204696E-01;  1.0008179E+04;  0.0000000E+00; -1.9551469E-09;  1.0000000E+04;  0.0000000E+00;  9.9998135E+03; -1.8745886E-01;  0.0000000E+00;  5.4118996E-03;  1.1747909E+02;
  9.9957556E-02;  9.9999998E-03;  8.0000564E-02;1203; -2.2048535E-02;  0.0000000E+00;  4.0756923E-04;  1.0004008E+03;  4.0000001E-01;  3.3203995E+02;3; -8.5082970E+00;  0.0000000E+00;  2.5004268E-01;0; -1.8223472E-01;  1.0008226E+04;  0.0000000E+00;  1.2761615E-09;  1.0000000E+04;  0.0000000E+00;  9.9997891E+03; -1.8792057E-01;  0.0000000E+00;  5.6858580E-03;  1.2936072E+02;
  9.9957384E-02;  9.9999998E-03;  1.0000077E-01;1204; -2.2072032E-02;  0.0000000E+00;  5.2695884E-04;  1.0004017E+03;  4.0000001E-01;  3.3283005E+02;3; -8.4576979E+00;  0.0000000E+00;  3.0701846E-01;0; -1.8232909E-01;  1.0008272E+04;  0.0000000E+00;  2.1482515E-08;  1.0000000E+04;  0.0000000E+00;  9.9997637E+03; -1.8829024E-01;  0.0000000E+00;  5.9611541E-03;  1.4283598E+02;
  9.9957272E-02;  9.9999998E-03;  1.2000102E-01;1205; -2.2048397E-02;  0.0000000E+00;  6.5704447E-04;  1.0004021E+03;  4.0000001E-01;  3.3312634E+02;3; -8.3817310E+00;  0.0000000E+00;  3.6163688E-01;0; -1.8218963E-01;  1.0008313E+04;  0.0000000E+00;  7.9708890E-08;  1.0000000E+04;  0.0000000E+00;  9.9997344E+03; -1.8836483E-01;  0.0000000E+00;  6.1752046E-03;  1.5636716E+02;
  9.9957317E-02;  9.9999998E-03;  1.4000131E-01;1206; -2.1940641E-02;  0.0000000E+00;  7.9772586E-04;  1.0004017E+03;  4.0000001E-01;  3.3283005E+02;3; -8.2701874E+00;  0.0000000E+00;  4.1278791E-01;0; -1.8159091E-01;  1.0008325E+04;  0.0000000E+00;  1.6635383E-07;  1.0000000E+04;  0.0000000E+00;  9.9997119E+03; -1.8785530E-01;  0.0000000E+00;  6.2643904E-03;  1.6814815E+02;
  1.1994997E-01;  9.9999998E-03; -4.6505592E-14;1230; -2.5808671E-02;  0.0000000E+00; -4.9238841E-10;  1.0004399E+03;  4.0000001E-01;  3.6443408E+02;3; -9.9131470E+00;  0.0000000E+00; -6.2220297E-06;0; -1.9601490E-01;  1.0008980E+04;  0.0000000E+00; -2.6592537E-17;  1.0000000E+04;  0.0000000E+00;  9.9998242E+03; -2.0170365E-01;  0.0000000E+00;  5.6887581E-03;  1.1516626E+02;
  1.1994993E-01;  9.9999998E-03;  2.0000124E-02;1231; -2.5822617E-02;  0.0000000E+00;  1.0086159E-04;  1.0004403E+03;  4.0000001E-01;  3.6482913E+02;3; -9.9090157E+00;  0.0000000E+00;  6.7010708E-02;0; -1.9609728E-01;  1.0008991E+04;  0.0000000E+00; -3.2173941E-10;  1.0000000E+04;  0.0000000E+00;  9.9998203E+03; -2.0182137E-01;  0.0000000E+00;  5.7240897E-03;  1.1706225E+02;
  1.1994979E-01;  9.9999998E-03;  4.0000256E-02;1232; -2.5861658E-02;  0.0000000E+00;  2.0319528E-04;  1.0004412E+03;  4.0000001E-01;  3.6552048E+02;3; -9.8958626E+00;  0.0000000E+00;  1.3268374E-01;0; -1.9633560E-01;  1.0009019E+04;  0.0000000E+00; -1.6345750E-09;  1.0000000E+04;  0.0000000E+00;  9.9998096E+03; -2.0215967E-01;  0.0000000E+00;  5.8240728E-03;  1.2260421E+02;
  1.1994958E-01;  9.9999998E-03;  6.0000405E-02;1233; -2.5917396E-02;  0.0000000E+00;  3.0852784E-04;  1.0004426E+03;  4.0000001E-01;  3.6670563E+02;3; -9.8714828E+00;  0.0000000E+00;  1.9575295E-01;0; -1.9670308E-01;  1.0009063E+04;  0.0000000E+00; -2.6643523E-09;  1.0000000E+04;  0.0000000E+00;  9.9997949E+03; -2.0267238E-01;  0.0000000E+00;  5.9693069E-03;  1.3132973E+02;
  1.1994933E-01;  9.9999998E-03;  8.0000579E-02;1234; -2.5975464E-02;  0.0000000E+00;  4.1851209E-04;  1.0004443E+03;  4.0000001E-01;  3.6808829E+02;3; -9.8322535E+00;  0.0000000E+00;  2.5528559E-01;0; -1.9715200E-01;  1.0009120E+04;  0.0000000E+00;  2.0439119E-09;  1.0000000E+04;  0.0000000E+00;  9.9997695E+03; -2.0327666E-01;  0.0000000E+00;  6.1246641E-03;  1.4241536E+02;
  1.1994908E-01;  9.9999998E-03;  1.0000078E-01;1235; -2.6014782E-02;  0.0000000E+00;  5.3471420E-04;  1.0004462E+03;  4.0000001E-01;  3.6966849E+02;3; -9.7731237E+00;  0.0000000E+00;  3.1029755E-01;0; -1.9760443E-01;  1.0009182E+04;  0.0000000E+00;  2.7735009E-08;  1.0000000E+04;  0.0000000E+00;  9.9997432E+03; -2.0384321E-01;  0.0000000E+00;  6.2387735E-03;  1.5463286E+02;
  1.1994890E-01;  9.9999998E-03;  1.2000102E-01;1236; -2.6005814E-02;  0.0000000E+00;  6.5725285E-04;  1.0004481E+03;  4.0000001E-01;  3.7124872E+02;3; -9.6866360E+00;  0.0000000E+00;  3.6066645E-01;0; -1.9792865E-01;  1.0009241E+04;  0.0000000E+00;  8.6443691E-08;  1.0000000E+04;  0.0000000E+00;  9.9997227E+03; -2.0417961E-01;  0.0000000E+00;  6.2509677E-03;  1.6639389E+02;
  1.1994888E-01;  9.9999998E-03;  1.4000130E-01;1237; -2.5907097E-02;  0.0000000E+00;  7.8769238E-04;  1.0004489E+03;  4.0000001E-01;  3.7194003E+02;3; -9.5619173E+00;  0.0000000E+00;  4.0554035E-01;0; -1.9789170E-01;  1.0009278E+04;  0.0000000E+00;  1.2280356E-07;  1.0000000E+04;  0.0000000E+00;  9.9997031E+03; -2.0400684E-01;  0.0000000E+00;  6.1151376E-03;  1.7607033E+02;
  1.3994099E-01;  9.9999998E-03;  1.2588418E-12;1261; -3.0034393E-02;  0.0000000E+00; -6.9241907E-10;  1.0004890E+03;  4.0000001E-01;  4.0512430E+02;3; -1.1364183E+01;  0.0000000E+00;  1.5375372E-07;0; -2.1246307E-01;  1.0010004E+04;  0.0000000E+00; -1.6809835E-15;  1.0000000E+04;  0.0000000E+00;  9.9997832E+03; -2.1923934E-01;  0.0000000E+00;  6.7762681E-03;  1.3747823E+02;
  1.3994092E-01;  9.9999998E-03;  2.0000143E-02;1262; -3.0051280E-02;  0.0000000E+00;  1.1305875E-04;  1.0004896E+03;  4.0000001E-01;  4.0561810E+02;3; -1.1359006E+01;  0.0000000E+00;  7.2296120E-02;0; -2.1257970E-01;  1.0010013E+04;  0.0000000E+00; -5.0194005E-11;  1.0000000E+04;  0.0000000E+00;  9.9997783E+03; -2.1937454E-01;  0.0000000E+00;  6.7948396E-03;  1.3930893E+02;
  1.3994075E-01;  9.9999998E-03;  4.0000293E-02;1263; -3.0098917E-02;  0.0000000E+00;  2.2654919E-04;  1.0004907E+03;  4.0000001E-01;  4.0650696E+02;3; -1.1342721E+01;  0.0000000E+00;  1.4254990E-01;0; -2.1292311E-01;  1.0010045E+04;  0.0000000E+00; -2.0143684E-09;  1.0000000E+04;  0.0000000E+00;  9.9997715E+03; -2.1976598E-01;  0.0000000E+00;  6.8428591E-03;  1.4461832E+02;
  1.3994049E-01;  9.9999998E-03;  6.0000457E-02;1264; -3.0168267E-02;  0.0000000E+00;  3.4103447E-04;  1.0004927E+03;  4.0000001E-01;  4.0818591E+02;3; -1.1313241E+01;  0.0000000E+00;  2.0897962E-01;0; -2.1347371E-01;  1.0010101E+04;  0.0000000E+00; -1.6152130E-09;  1.0000000E+04;  0.0000000E+00;  9.9997549E+03; -2.2036970E-01;  0.0000000E+00;  6.8959929E-03;  1.5283591E+02;
  1.3994016E-01;  9.9999998E-03;  8.0000639E-02;1265; -3.0243948E-02;  0.0000000E+00;  4.5727612E-04;  1.0004952E+03;  4.0000001E-01;  4.1025995E+02;3; -1.1266934E+01;  0.0000000E+00;  2.7053216E-01;0; -2.1419568E-01;  1.0010171E+04;  0.0000000E+00;  6.2475034E-09;  1.0000000E+04;  0.0000000E+00;  9.9997324E+03; -2.2110739E-01;  0.0000000E+00;  6.9117039E-03;  1.6296866E+02;
  1.3993981E-01;  9.9999998E-03;  1.0000086E-01;1266; -3.0303396E-02;  0.0000000E+00;  5.7611213E-04;  1.0004981E+03;  4.0000001E-01;  4.1263025E+02;3; -1.1198854E+01;  0.0000000E+00;  3.2595351E-01;0; -2.1502632E-01;  1.0010250E+04;  0.0000000E+00;  4.1711026E-08;  1.0000000E+04;  0.0000000E+00;  9.9997129E+03; -2.2185796E-01;  0.0000000E+00;  6.8316455E-03;  1.7359714E+02;
  1.3993955E-01;  9.9999998E-03;  1.2000110E-01;1267; -3.0314777E-02;  0.0000000E+00;  6.9666648E-04;  1.0005011E+03;  4.0000001E-01;  4.1519806E+02;3; -1.1101590E+01;  0.0000000E+00;  3.7362802E-01;0; -2.1584554E-01;  1.0010327E+04;  0.0000000E+00;  1.1810693E-07;  1.0000000E+04;  0.0000000E+00;  9.9996943E+03; -2.2244152E-01;  0.0000000E+00;  6.5959827E-03;  1.8303404E+02;
  1.3993943E-01;  9.9999998E-03;  1.4000137E-01;1268; -3.0233052E-02;  0.0000000E+00;  8.1762474E-04;  1.0005035E+03;  4.0000001E-01;  4.1707455E+02;3; -1.0963860E+01;  0.0000000E+00;  4.1272703E-01;0; -2.1641687E-01;  1.0010388E+04;  0.0000000E+00;  1.1786747E-07;  1.0000000E+04;  0.0000000E+00;  9.9996846E+03; -2.2259647E-01;  0.0000000E+00;  6.1795986E-03;  1.8986496E+02;
  1.5993090E-01;  9.9999998E-03; -1.5253181E-12;1292; -3.4665618E-02;  0.0000000E+00; -5.8055741E-11;  1.0005450E+03;  4.0000001E-01;  4.5154272E+02;3; -1.2916141E+01;  0.0000000E+00; -3.7327954E-06;0; -2.3056933E-01;  1.0011181E+04;  0.0000000E+00;  2.3240990E-15;  1.0000000E+04;  0.0000000E+00;  9.9997227E+03; -2.3903719E-01;  0.0000000E+00;  8.4678531E-03;  1.7127577E+02;
  1.5993083E-01;  9.9999998E-03;  2.0000184E-02;1293; -3.4685835E-02;  0.0000000E+00;  1.3775223E-04;  1.0005455E+03;  4.0000001E-01;  4.5193777E+02;3; -1.2909772E+01;  0.0000000E+00;  8.1997983E-02;0; -2.3071802E-01;  1.0011193E+04;  0.0000000E+00; -5.5202960E-12;  1.0000000E+04;  0.0000000E+00;  9.9997168E+03; -2.3918791E-01;  0.0000000E+00;  8.4698964E-03;  1.7309604E+02;
  1.5993060E-01;  9.9999998E-03;  4.0000375E-02;1294; -3.4743264E-02;  0.0000000E+00;  2.7509002E-04;  1.0005469E+03;  4.0000001E-01;  4.5312292E+02;3; -1.2889952E+01;  0.0000000E+00;  1.6152152E-01;0; -2.3115996E-01;  1.0011232E+04;  0.0000000E+00; -8.6129037E-10;  1.0000000E+04;  0.0000000E+00;  9.9997080E+03; -2.3962575E-01;  0.0000000E+00;  8.4658042E-03;  1.7832133E+02;
  1.5993027E-01;  9.9999998E-03;  6.0000576E-02;1295; -3.4828249E-02;  0.0000000E+00;  4.1164825E-04;  1.0005493E+03;  4.0000001E-01;  4.5509818E+02;3; -1.2854599E+01;  0.0000000E+00;  2.3642033E-01;0; -2.3188369E-01;  1.0011298E+04;  0.0000000E+00;  1.5231036E-09;  1.0000000E+04;  0.0000000E+00;  9.9996914E+03; -2.4030767E-01;  0.0000000E+00;  8.4239850E-03;  1.8622638E+02;
  1.5992986E-01;  9.9999998E-03;  8.0000803E-02;1296; -3.4924440E-02;  0.0000000E+00;  5.4736569E-04;  1.0005528E+03;  4.0000001E-01;  4.5796228E+02;3; -1.2800333E+01;  0.0000000E+00;  3.0475599E-01;0; -2.3286751E-01;  1.0011381E+04;  0.0000000E+00;  1.7065666E-08;  1.0000000E+04;  0.0000000E+00;  9.9996748E+03; -2.4115889E-01;  0.0000000E+00;  8.2913712E-03;  1.9557890E+02;
  1.5992941E-01;  9.9999998E-03;  1.0000104E-01;1297; -3.5007849E-02;  0.0000000E+00;  6.8167213E-04;  1.0005568E+03;  4.0000001E-01;  4.6132022E+02;3; -1.2722238E+01;  0.0000000E+00;  3.6470205E-01;0; -2.3406783E-01;  1.0011477E+04;  0.0000000E+00;  7.0253009E-08;  1.0000000E+04;  0.0000000E+00;  9.9996611E+03; -2.4206719E-01;  0.0000000E+00;  7.9993540E-03;  2.0468904E+02;
  1.5992902E-01;  9.9999998E-03;  1.2000132E-01;1298; -3.5044491E-02;  0.0000000E+00;  8.1161730E-04;  1.0005610E+03;  4.0000001E-01;  4.6477692E+02;3; -1.2613149E+01;  0.0000000E+00;  4.1372344E-01;0; -2.3538050E-01;  1.0011575E+04;  0.0000000E+00;  1.7875772E-07;  1.0000000E+04;  0.0000000E+00;  9.9996455E+03; -2.4286859E-01;  0.0000000E+00;  7.4880808E-03;  2.1172905E+02;
  1.5992878E-01;  9.9999998E-03;  1.4000161E-01;1299; -3.4985974E-02;  0.0000000E+00;  9.3284075E-04;  1.0005653E+03;  4.0000001E-01;  4.6833237E+02;3; -1.2461555E+01;  0.0000000E+00;  4.5016193E-01;0; -2.3657282E-01;  1.0011664E+04;  0.0000000E+00;  1.6793140E-07;  1.0000000E+04;  0.0000000E+00;  9.9996416E+03; -2.4333166E-01;  0.0000000E+00;  6.7588449E-03;  2.1559665E+02;
  1.7991956E-01;  9.9999998E-03;  1.5812106E-12;1323; -3.9736222E-02;  0.0000000E+00; -1.0243895E-10;  1.0006074E+03;  4.0000001E-01;  5.0319556E+02;3; -1.4562140E+01;  0.0000000E+00; -5.1237685E-06;0; -2.5016236E-01;  1.0012522E+04;  0.0000000E+00;  1.3666868E-15;  1.0000000E+04;  0.0000000E+00;  9.9996230E+03; -2.6113501E-01;  0.0000000E+00;  1.0972657E-02;  2.2036995E+02;
  1.7991947E-01;  9.9999998E-03;  2.0000257E-02;1324; -3.9760161E-02;  0.0000000E+00;  1.8063757E-04;  1.0006080E+03;  4.0000001E-01;  5.0378815E+02;3; -1.4554473E+01;  0.0000000E+00;  9.8408237E-02;0; -2.5033736E-01;  1.0012540E+04;  0.0000000E+00;  4.9390236E-10;  1.0000000E+04;  0.0000000E+00;  9.9996221E+03; -2.6129740E-01;  0.0000000E+00;  1.0960055E-02;  2.2228697E+02;
  1.7991921E-01;  9.9999998E-03;  4.0000521E-02;1325; -3.9828576E-02;  0.0000000E+00;  3.6007274E-04;  1.0006097E+03;  4.0000001E-01;  5.0517081E+02;3; -1.4530670E+01;  0.0000000E+00;  1.9354622E-01;0; -2.5086066E-01;  1.0012587E+04;  0.0000000E+00;  1.9875763E-09;  1.0000000E+04;  0.0000000E+00;  9.9996123E+03; -2.6176971E-01;  0.0000000E+00;  1.0909047E-02;  2.2773701E+02;
  1.7991880E-01;  9.9999998E-03;  6.0000800E-02;1326; -3.9931100E-02;  0.0000000E+00;  5.3737103E-04;  1.0006129E+03;  4.0000001E-01;  5.0773865E+02;3; -1.4488687E+01;  0.0000000E+00;  2.8287971E-01;0; -2.5172970E-01;  1.0012662E+04;  0.0000000E+00;  7.0212898E-09;  1.0000000E+04;  0.0000000E+00;  9.9995977E+03; -2.6250920E-01;  0.0000000E+00;  1.0779488E-02;  2.3580457E+02;
  1.7991827E-01;  9.9999998E-03;  8.0001093E-02;1327; -4.0050283E-02;  0.0000000E+00;  7.1191014E-04;  1.0006168E+03;  4.0000001E-01;  5.1099780E+02;3; -1.4425073E+01;  0.0000000E+00;  3.6495131E-01;0; -2.5293723E-01;  1.0012759E+04;  0.0000000E+00;  3.3478187E-08;  1.0000000E+04;  0.0000000E+00;  9.9995771E+03; -2.6344311E-01;  0.0000000E+00;  1.0505875E-02;  2.4496964E+02;
  1.7991771E-01;  9.9999998E-03;  1.0000141E-01;1328; -4.0160552E-02;  0.0000000E+00;  8.8143832E-04;  1.0006219E+03;  4.0000001E-01;  5.1524463E+02;3; -1.4335184E+01;  0.0000000E+00;  4.3685442E-01;0; -2.5445995E-01;  1.0012872E+04;  0.0000000E+00;  1.1550917E-07;  1.0000000E+04;  0.0000000E+00;  9.9995664E+03; -2.6446837E-01;  0.0000000E+00;  1.0008416E-02;  2.5323801E+02;
  1.7991717E-01;  9.9999998E-03;  1.2000175E-01;1329; -4.0225659E-02;  0.0000000E+00;  1.0407477E-03;  1.0006275E+03;  4.0000001E-01;  5.1988647E+02;3; -1.4212008E+01;  0.0000000E+00;  4.9503452E-01;0; -2.5621322E-01;  1.0012995E+04;  0.0000000E+00;  2.7295437E-07;  1.0000000E+04;  0.0000000E+00;  9.9995557E+03; -2.6544330E-01;  0.0000000E+00;  9.2300884E-03;  2.5868921E+02;
  1.7991680E-01;  9.9999998E-03;  1.4000210E-01;1330; -4.0194150E-02;  0.0000000E+00;  1.1813438E-03;  1.0006334E+03;  4.0000001E-01;  5.2472583E+02;3; -1.4044340E+01;  0.0000000E+00;  5.3525078E-01;0; -2.5796843E-01;  1.0013110E+04;  0.0000000E+00;  2.9108659E-07;  1.0000000E+04;  0.0000000E+00;  9.9995586E+03; -2.6617885E-01;  0.0000000E+00;  8.2104281E-03;  2.6079709E+02;
  1.9990684E-01;  9.9999998E-03;  1.0615712E-12;1354; -4.5276970E-02;  0.0000000E+00;  1.8594060E-09;  1.0006772E+03;  4.0000001E-01;  5.6107050E+02;3; -1.6298853E+01;  0.0000000E+00; -4.5077636E-06;0; -2.7121791E-01;  1.0014058E+04;  0.0000000E+00; -1.2475902E-16;  1.0000000E+04;  0.0000000E+00;  9.9994902E+03; -2.8569117E-01;  0.0000000E+00;  1.4473265E-02;  2.8822476E+02;
  1.9990674E-01;  9.9999998E-03;  2.0000372E-02;1355; -4.5305014E-02;  0.0000000E+00;  2.4594605E-04;  1.0006780E+03;  4.0000001E-01;  5.6166302E+02;3; -1.6289589E+01;  0.0000000E+00;  1.2197931E-01;0; -2.7141041E-01;  1.0014073E+04;  0.0000000E+00; -1.2699285E-10;  1.0000000E+04;  0.0000000E+00;  9.9994893E+03; -2.8585973E-01;  0.0000000E+00;  1.4449332E-02;  2.9039667E+02;
  1.9990641E-01;  9.9999998E-03;  4.0000752E-02;1356; -4.5385372E-02;  0.0000000E+00;  4.9061992E-04;  1.0006801E+03;  4.0000001E-01;  5.6344080E+02;3; -1.6261024E+01;  0.0000000E+00;  2.4105209E-01;0; -2.7198878E-01;  1.0014127E+04;  0.0000000E+00;  3.0742444E-09;  1.0000000E+04;  0.0000000E+00;  9.9994756E+03; -2.8635025E-01;  0.0000000E+00;  1.4361479E-02;  2.9654236E+02;
  1.9990592E-01;  9.9999998E-03;  6.0001146E-02;1357; -4.5506887E-02;  0.0000000E+00;  7.3268538E-04;  1.0006835E+03;  4.0000001E-01;  5.6620612E+02;3; -1.6210905E+01;  0.0000000E+00;  3.5440969E-01;0; -2.7295694E-01;  1.0014215E+04;  0.0000000E+00;  1.3119243E-08;  1.0000000E+04;  0.0000000E+00;  9.9994580E+03; -2.8711864E-01;  0.0000000E+00;  1.4161709E-02;  3.0555380E+02;
  1.9990528E-01;  9.9999998E-03;  8.0001563E-02;1358; -4.5650706E-02;  0.0000000E+00;  9.7125885E-04;  1.0006881E+03;  4.0000001E-01;  5.7005786E+02;3; -1.6135996E+01;  0.0000000E+00;  4.5963910E-01;0; -2.7432162E-01;  1.0014329E+04;  0.0000000E+00;  5.1669080E-08;  1.0000000E+04;  0.0000000E+00;  9.9994404E+03; -2.8809512E-01;  0.0000000E+00;  1.3773515E-02;  3.1563379E+02;
  1.9990456E-01;  9.9999998E-03;  1.0000201E-01;1359; -4.5789257E-02;  0.0000000E+00;  1.2029686E-03;  1.0006939E+03;  4.0000001E-01;  5.7489722E+02;3; -1.6031622E+01;  0.0000000E+00;  5.5285197E-01;0; -2.7607638E-01;  1.0014458E+04;  0.0000000E+00;  1.6081384E-07;  1.0000000E+04;  0.0000000E+00;  9.9994268E+03; -2.8918633E-01;  0.0000000E+00;  1.3109966E-02;  3.2454941E+02;
  1.9990388E-01;  9.9999998E-03;  1.2000246E-01;1360; -4.5883510E-02;  0.0000000E+00;  1.4206371E-03;  1.0007010E+03;  4.0000001E-01;  5.8072424E+02;3; -1.5890712E+01;  0.0000000E+00;  6.2974489E-01;0; -2.7815166E-01;  1.0014605E+04;  0.0000000E+00;  3.5792831E-07;  1.0000000E+04;  0.0000000E+00;  9.9994189E+03; -2.9027751E-01;  0.0000000E+00;  1.2125841E-02;  3.3048077E+02;
  1.9990332E-01;  9.9999998E-03;  1.4000292E-01;1361; -4.5879532E-02;  0.0000000E+00;  1.6102397E-03;  1.0007081E+03;  4.0000001E-01;  5.8664996E+02;3; -1.5702717E+01;  0.0000000E+00;  6.8407720E-01;0; -2.8031728E-01;  1.0014751E+04;  0.0000000E+00;  4.0200774E-07;  1.0000000E+04;  0.0000000E+00;  9.9994180E+03; -2.9123306E-01;  0.0000000E+00;  1.0915782E-02;  3.3390134E+02;
  2.1989256E-01;  9.9999998E-03; -2.1566958E-12;1385; -5.1330630E-02;  0.0000000E+00;  1.5657121E-10;  1.0007549E+03;  4.0000001E-01;  6.2546368E+02;3; -1.8124540E+01;  0.0000000E+00;  6.4145970E-06;0; -2.9369774E-01;  1.0015793E+04;  0.0000000E+00;  1.0833637E-15;  1.0000000E+04;  0.0000000E+00;  9.9993135E+03; -3.1280425E-01;  0.0000000E+00;  1.9106494E-02;  3.7756662E+02;
  2.1989243E-01;  9.9999998E-03;  2.0000536E-02;1386; -5.1363174E-02;  0.0000000E+00;  3.3815633E-04;  1.0007557E+03;  4.0000001E-01;  6.2605627E+02;3; -1.8114290E+01;  0.0000000E+00;  1.5277421E-01;0; -2.9389656E-01;  1.0015812E+04;  0.0000000E+00;  4.5190553E-12;  1.0000000E+04;  0.0000000E+00;  9.9993096E+03; -3.1297186E-01;  0.0000000E+00;  1.9075306E-02;  3.8019482E+02;
  2.1989205E-01;  9.9999998E-03;  4.0001083E-02;1387; -5.1456243E-02;  0.0000000E+00;  6.7456247E-04;  1.0007579E+03;  4.0000001E-01;  6.2793274E+02;3; -1.8080242E+01;  0.0000000E+00;  3.0352518E-01;0; -2.9449540E-01;  1.0015868E+04;  0.0000000E+00;  3.6957082E-09;  1.0000000E+04;  0.0000000E+00;  9.9992930E+03; -3.1345922E-01;  0.0000000E+00;  1.8963825E-02;  3.8765234E+02;
  2.1989144E-01;  9.9999998E-03;  6.0001649E-02;1388; -5.1597815E-02;  0.0000000E+00;  1.0086675E-03;  1.0007617E+03;  4.0000001E-01;  6.3109314E+02;3; -1.8020792E+01;  0.0000000E+00;  4.4879150E-01;0; -2.9550302E-01;  1.0015968E+04;  0.0000000E+00;  1.6456656E-08;  1.0000000E+04;  0.0000000E+00;  9.9992744E+03; -3.1422225E-01;  0.0000000E+00;  1.8719230E-02;  3.9868060E+02;
  2.1989067E-01;  9.9999998E-03;  8.0002241E-02;1389; -5.1767267E-02;  0.0000000E+00;  1.3394268E-03;  1.0007667E+03;  4.0000001E-01;  6.3524121E+02;3; -1.7932487E+01;  0.0000000E+00;  5.8650464E-01;0; -2.9693377E-01;  1.0016093E+04;  0.0000000E+00;  6.2223371E-08;  1.0000000E+04;  0.0000000E+00;  9.9992529E+03; -3.1519371E-01;  0.0000000E+00;  1.8259935E-02;  4.1129755E+02;
  2.1988979E-01;  9.9999998E-03;  1.0000287E-01;1390; -5.1934250E-02;  0.0000000E+00;  1.6641639E-03;  1.0007734E+03;  4.0000001E-01;  6.4077191E+02;3; -1.7810266E+01;  0.0000000E+00;  7.1252328E-01;0; -2.9878992E-01;  1.0016245E+04;  0.0000000E+00;  1.7146992E-07;  1.0000000E+04;  0.0000000E+00;  9.9992305E+03; -3.1629148E-01;  0.0000000E+00;  1.7501578E-02;  4.2320956E+02;
  2.1988893E-01;  9.9999998E-03;  1.2000352E-01;1391; -5.2056886E-02;  0.0000000E+00;  1.9719782E-03;  1.0007812E+03;  4.0000001E-01;  6.4719147E+02;3; -1.7647049E+01;  0.0000000E+00;  8.2113260E-01;0; -3.0100587E-01;  1.0016417E+04;  0.0000000E+00;  3.6784454E-07;  1.0000000E+04;  0.0000000E+00;  9.9992129E+03; -3.1743041E-01;  0.0000000E+00;  1.6424539E-02;  4.3300775E+02;
  2.1988820E-01;  9.9999998E-03;  1.4000417E-01;1392; -5.2077781E-02;  0.0000000E+00;  2.2462469E-03;  1.0007894E+03;  4.0000001E-01;  6.5400610E+02;3; -1.7433598E+01;  0.0000000E+00;  9.0172964E-01;0; -3.0334076E-01;  1.0016597E+04;  0.0000000E+00;  4.1901623E-07;  1.0000000E+04;  0.0000000E+00;  9.9992031E+03; -3.1853333E-01;  0.0000000E+00;  1.5192565E-02;  4.4259122E+02;
  2.3987649E-01;  9.9999998E-03;  2.1391933E-12;1416; -5.7952516E-02;  0.0000000E+00;  2.5364297E-09;  1.0008411E+03;  4.0000001E-01;  6.9677032E+02;3; -2.0045706E+01;  0.0000000E+00;  1.3236822E-06;0; -3.1761044E-01;  1.0017745E+04;  0.0000000E+00; -1.8826195E-15;  1.0000000E+04;  0.0000000E+00;  9.9990869E+03; -3.4255862E-01;  0.0000000E+00;  2.4948167E-02;  4.9009314E+02;
  2.3987634E-01;  9.9999998E-03;  2.0000752E-02;1417; -5.7989188E-02;  0.0000000E+00;  4.5820753E-04;  1.0008419E+03;  4.0000001E-01;  6.9756042E+02;3; -2.0032347E+01;  0.0000000E+00;  1.9595750E-01;0; -3.1780326E-01;  1.0017763E+04;  0.0000000E+00; -4.3901400E-11;  1.0000000E+04;  0.0000000E+00;  9.9990791E+03; -3.4271663E-01;  0.0000000E+00;  2.4913358E-02;  4.9340704E+02;
  2.3987590E-01;  9.9999998E-03;  4.0001519E-02;1418; -5.8094848E-02;  0.0000000E+00;  9.1626612E-04;  1.0008442E+03;  4.0000001E-01;  6.9943689E+02;3; -1.9991302E+01;  0.0000000E+00;  3.8977832E-01;0; -3.1838366E-01;  1.0017833E+04;  0.0000000E+00;  4.2329429E-09;  1.0000000E+04;  0.0000000E+00;  9.9990615E+03; -3.4317464E-01;  0.0000000E+00;  2.4790959E-02;  5.0289145E+02;
  2.3987518E-01;  9.9999998E-03;  6.0002312E-02;1419; -5.8256291E-02;  0.0000000E+00;  1.3729923E-03;  1.0008483E+03;  4.0000001E-01;  7.0279486E+02;3; -1.9920376E+01;  0.0000000E+00;  5.7615280E-01;0; -3.1936213E-01;  1.0017937E+04;  0.0000000E+00;  1.3245282E-08;  1.0000000E+04;  0.0000000E+00;  9.9990352E+03; -3.4389076E-01;  0.0000000E+00;  2.4528630E-02;  5.1722211E+02;
  2.3987426E-01;  9.9999998E-03;  8.0003142E-02;1420; -5.8450606E-02;  0.0000000E+00;  1.8249640E-03;  1.0008539E+03;  4.0000001E-01;  7.0743665E+02;3; -1.9815636E+01;  0.0000000E+00;  7.5277972E-01;0; -3.2075310E-01;  1.0018081E+04;  0.0000000E+00;  4.5720764E-08;  1.0000000E+04;  0.0000000E+00;  9.9990039E+03; -3.4480205E-01;  0.0000000E+00;  2.4048943E-02;  5.3438971E+02;
  2.3987320E-01;  9.9999998E-03;  1.0000402E-01;1421; -5.8644313E-02;  0.0000000E+00;  2.2721395E-03;  1.0008607E+03;  4.0000001E-01;  7.1306616E+02;3; -1.9670521E+01;  0.0000000E+00;  9.2206270E-01;0; -3.2255536E-01;  1.0018254E+04;  0.0000000E+00;  1.2304461E-07;  1.0000000E+04;  0.0000000E+00;  9.9989707E+03; -3.4583846E-01;  0.0000000E+00;  2.3283085E-02;  5.5227911E+02;
  2.3987213E-01;  9.9999998E-03;  1.2000492E-01;1422; -5.8792006E-02;  0.0000000E+00;  2.7056555E-03;  1.0008689E+03;  4.0000001E-01;  7.1988074E+02;3; -1.9480421E+01;  0.0000000E+00;  1.0723577E+00;0; -3.2469255E-01;  1.0018448E+04;  0.0000000E+00;  2.3831620E-07;  1.0000000E+04;  0.0000000E+00;  9.9989395E+03; -3.4694242E-01;  0.0000000E+00;  2.2249866E-02;  5.7019244E+02;
  2.3987119E-01;  9.9999998E-03;  1.4000584E-01;1423; -5.8835600E-02;  0.0000000E+00;  3.0934210E-03;  1.0008776E+03;  4.0000001E-01;  7.2709045E+02;3; -1.9237055E+01;  0.0000000E+00;  1.1834809E+00;0; -3.2690620E-01;  1.0018661E+04;  0.0000000E+00;  2.3937724E-07;  1.0000000E+04;  0.0000000E+00;  9.9989014E+03; -3.4809050E-01;  0.0000000E+00;  2.1184288E-02;  5.9165137E+02;
  2.5985843E-01;  9.9999998E-03; -3.6608481E-12;1447; -6.5198645E-02;  0.0000000E+00; -4.4776658E-09;  1.0009369E+03;  4.0000001E-01;  7.7617542E+02;3; -2.2059958E+01;  0.0000000E+00; -1.0667587E-05;0; -3.4303981E-01;  1.0019938E+04;  0.0000000E+00;  1.6431132E-15;  1.0000000E+04;  0.0000000E+00;  9.9988105E+03; -3.7504312E-01;  0.0000000E+00;  3.2003324E-02;  6.2629108E+02;
  2.5985825E-01;  9.9999998E-03;  2.0001026E-02;1448; -6.5239623E-02;  0.0000000E+00;  6.1091402E-04;  1.0009377E+03;  4.0000001E-01;  7.7686676E+02;3; -2.2044426E+01;  0.0000000E+00;  2.4840112E-01;0; -3.4321386E-01;  1.0019962E+04;  0.0000000E+00;  9.9981690E-10;  1.0000000E+04;  0.0000000E+00;  9.9988018E+03; -3.7518030E-01;  0.0000000E+00;  3.1966455E-02;  6.3052557E+02;
  2.5985774E-01;  9.9999998E-03;  4.0002067E-02;1449; -6.5357193E-02;  0.0000000E+00;  1.2200159E-03;  1.0009401E+03;  4.0000001E-01;  7.7884198E+02;3; -2.1995060E+01;  0.0000000E+00;  4.9242911E-01;0; -3.4373784E-01;  1.0020035E+04;  0.0000000E+00; -1.7001837E-09;  1.0000000E+04;  0.0000000E+00;  9.9987764E+03; -3.7557799E-01;  0.0000000E+00;  3.1840131E-02;  6.4277838E+02;
  2.5985691E-01;  9.9999998E-03;  6.0003147E-02;1450; -6.5537110E-02;  0.0000000E+00;  1.8298751E-03;  1.0009440E+03;  4.0000001E-01;  7.8210114E+02;3; -2.1909929E+01;  0.0000000E+00;  7.3231173E-01;0; -3.4461850E-01;  1.0020152E+04;  0.0000000E+00;  2.3695110E-10;  1.0000000E+04;  0.0000000E+00;  9.9987432E+03; -3.7619770E-01;  0.0000000E+00;  3.1579193E-02;  6.6176624E+02;
  2.5985581E-01;  9.9999998E-03;  8.0004275E-02;1451; -6.5754838E-02;  0.0000000E+00;  2.4369240E-03;  1.0009496E+03;  4.0000001E-01;  7.8674298E+02;3; -2.1787590E+01;  0.0000000E+00;  9.5443499E-01;0; -3.4586227E-01;  1.0020308E+04;  0.0000000E+00;  5.2666480E-09;  1.0000000E+04;  0.0000000E+00;  9.9986963E+03; -3.7698296E-01;  0.0000000E+00;  3.1120697E-02;  6.8562476E+02;
  2.5985456E-01;  9.9999998E-03;  1.0000546E-01;1452; -6.5973379E-02;  0.0000000E+00;  3.0327735E-03;  1.0009567E+03;  4.0000001E-01;  7.9266876E+02;3; -2.1619093E+01;  0.0000000E+00;  1.1621470E+00;0; -3.4745413E-01;  1.0020502E+04;  0.0000000E+00;  5.8717875E-10;  1.0000000E+04;  0.0000000E+00;  9.9986455E+03; -3.7787640E-01;  0.0000000E+00;  3.0422276E-02;  7.1262054E+02;
  2.5985324E-01;  9.9999998E-03;  1.2000670E-01;1453; -6.6144250E-02;  0.0000000E+00;  3.6093534E-03;  1.0009651E+03;  4.0000001E-01;  7.9958215E+02;3; -2.1396578E+01;  0.0000000E+00;  1.3568269E+00;0; -3.4929574E-01;  1.0020721E+04;  0.0000000E+00; -2.3721354E-08;  1.0000000E+04;  0.0000000E+00;  9.9985918E+03; -3.7884209E-01;  0.0000000E+00;  2.9546343E-02;  7.4288733E+02;
  2.5985208E-01;  9.9999998E-03;  1.4000796E-01;1454; -6.6204555E-02;  0.0000000E+00;  4.1502095E-03;  1.0009734E+03;  4.0000001E-01;  8.0639679E+02;3; -2.1113482E+01;  0.0000000E+00;  1.5302777E+00;0; -3.5111168E-01;  1.0020964E+04;  0.0000000E+00; -7.9250015E-08;  1.0000000E+04;  0.0000000E+00;  9.9985166E+03; -3.7989557E-01;  0.0000000E+00;  2.8783875E-02;  7.8135815E+02;
  2.7983814E-01;  9.9999998E-03; -1.4821328E-13;1478; -7.3126897E-02;  0.0000000E+00;  9.5253316E-10;  1.0010429E+03;  4.0000001E-01;  8.6407416E+02;3; -2.4171009E+01;  0.0000000E+00; -8.3058876E-06;0; -3.7014619E-01;  1.0022383E+04;  0.0000000E+00; -5.7452376E-16;  1.0000000E+04;  0.0000000E+00;  9.9984873E+03; -4.1034818E-01;  0.0000000E+00;  4.0201999E-02;  7.8539282E+02;
  2.7983794E-01;  9.9999998E-03;  2.0001352E-02;1479; -7.3171392E-02;  0.0000000E+00;  7.8878197E-04;  1.0010436E+03;  4.0000001E-01;  8.6456793E+02;3; -2.4151581E+01;  0.0000000E+00;  3.0412978E-01;0; -3.7029058E-01;  1.0022409E+04;  0.0000000E+00; -1.7164022E-10;  1.0000000E+04;  0.0000000E+00;  9.9984766E+03; -4.1045159E-01;  0.0000000E+00;  4.0161014E-02;  7.9076563E+02;
  2.7983734E-01;  9.9999998E-03;  4.0002726E-02;1480; -7.3300578E-02;  0.0000000E+00;  1.5753589E-03;  1.0010459E+03;  4.0000001E-01;  8.6654321E+02;3; -2.4095922E+01;  0.0000000E+00;  5.9346038E-01;0; -3.7072349E-01;  1.0022487E+04;  0.0000000E+00; -7.1474129E-09;  1.0000000E+04;  0.0000000E+00;  9.9984453E+03; -4.1075027E-01;  0.0000000E+00;  4.0026773E-02;  8.0647461E+02;
  2.7983636E-01;  9.9999998E-03;  6.0004145E-02;1481; -7.3497817E-02;  0.0000000E+00;  2.3628832E-03;  1.0010500E+03;  4.0000001E-01;  8.6990112E+02;3; -2.3995188E+01;  0.0000000E+00;  8.8646203E-01;0; -3.7144473E-01;  1.0022616E+04;  0.0000000E+00; -2.5160668E-08;  1.0000000E+04;  0.0000000E+00;  9.9983965E+03; -4.1121241E-01;  0.0000000E+00;  3.9767679E-02;  8.3137024E+02;
  2.7983508E-01;  9.9999998E-03;  8.0005631E-02;1482; -7.3735297E-02;  0.0000000E+00;  3.1460884E-03;  1.0010552E+03;  4.0000001E-01;  8.7414795E+02;3; -2.3848600E+01;  0.0000000E+00;  1.1701868E+00;0; -3.7244806E-01;  1.0022790E+04;  0.0000000E+00; -6.6832420E-08;  1.0000000E+04;  0.0000000E+00;  9.9983350E+03; -4.1179210E-01;  0.0000000E+00;  3.9344039E-02;  8.6385840E+02;
  2.7983359E-01;  9.9999998E-03;  1.0000719E-01;1483; -7.3974386E-02;  0.0000000E+00;  3.9228024E-03;  1.0010624E+03;  4.0000001E-01;  8.8017242E+02;3; -2.3648642E+01;  0.0000000E+00;  1.4407970E+00;0; -3.7369826E-01;  1.0023000E+04;  0.0000000E+00; -1.5816236E-07;  1.0000000E+04;  0.0000000E+00;  9.9982617E+03; -4.1244361E-01;  0.0000000E+00;  3.8745336E-02;  9.0266089E+02;
  2.7983204E-01;  9.9999998E-03;  1.2000882E-01;1484; -7.4162744E-02;  0.0000000E+00;  4.6833321E-03;  1.0010703E+03;  4.0000001E-01;  8.8669080E+02;3; -2.3389526E+01;  0.0000000E+00;  1.6977156E+00;0; -3.7507358E-01;  1.0023246E+04;  0.0000000E+00; -3.1552153E-07;  1.0000000E+04;  0.0000000E+00;  9.9981709E+03; -4.1314399E-01;  0.0000000E+00;  3.8070407E-02;  9.4858716E+02;
  2.7983060E-01;  9.9999998E-03;  1.4001052E-01;1485; -7.4236326E-02;  0.0000000E+00;  5.4223724E-03;  1.0010781E+03;  4.0000001E-01;  8.9320911E+02;3; -2.3061190E+01;  0.0000000E+00;  1.9440316E+00;0; -3.7629068E-01;  1.0023518E+04;  0.0000000E+00; -3.5009560E-07;  1.0000000E+04;  0.0000000E+00;  9.9980605E+03; -4.1392663E-01;  0.0000000E+00;  3.7635952E-02;  1.0073384E+03;
  2.9981533E-01;  9.9999998E-03; -3.0683190E-12;1509; -8.1798919E-02;  0.0000000E+00; -2.9081553E-09;  1.0011605E+03;  4.0000001E-01;  9.6145392E+02;3; -2.6380402E+01;  0.0000000E+00; -6.0726725E-06;0; -3.9914769E-01;  1.0025104E+04;  0.0000000E+00; -6.2063760E-15;  1.0000000E+04;  0.0000000E+00;  9.9981230E+03; -4.4854957E-01;  0.0000000E+00;  4.9401868E-02;  9.6552173E+02;
  2.9981509E-01;  9.9999998E-03;  2.0001722E-02;1510; -8.1846207E-02;  0.0000000E+00;  9.8580576E-04;  1.0011614E+03;  4.0000001E-01;  9.6214526E+02;3; -2.6357529E+01;  0.0000000E+00;  3.5715011E-01;0; -3.9925379E-01;  1.0025134E+04;  0.0000000E+00; -4.7307580E-09;  1.0000000E+04;  0.0000000E+00;  9.9981074E+03; -4.4860363E-01;  0.0000000E+00;  4.9349852E-02;  9.7221399E+02;
  2.9981440E-01;  9.9999998E-03;  4.0003475E-02;1511; -8.1982657E-02;  0.0000000E+00;  1.9714050E-03;  1.0011635E+03;  4.0000001E-01;  9.6392297E+02;3; -2.6286791E+01;  0.0000000E+00;  7.0896250E-01;0; -3.9956951E-01;  1.0025217E+04;  0.0000000E+00; -1.7951674E-08;  1.0000000E+04;  0.0000000E+00;  9.9980684E+03; -4.4875842E-01;  0.0000000E+00;  4.9188923E-02;  9.9194501E+02;
  2.9981327E-01;  9.9999998E-03;  6.0005277E-02;1512; -8.2191609E-02;  0.0000000E+00;  2.9584048E-03;  1.0011674E+03;  4.0000001E-01;  9.6718213E+02;3; -2.6167679E+01;  0.0000000E+00;  1.0622996E+00;0; -4.0008548E-01;  1.0025356E+04;  0.0000000E+00; -6.1633337E-08;  1.0000000E+04;  0.0000000E+00;  9.9980098E+03; -4.4899130E-01;  0.0000000E+00;  4.8905823E-02;  1.0237506E+03;
  2.9981181E-01;  9.9999998E-03;  8.0007166E-02;1513; -8.2444325E-02;  0.0000000E+00;  3.9449157E-03;  1.0011729E+03;  4.0000001E-01;  9.7172522E+02;3; -2.5995829E+01;  0.0000000E+00;  1.4082558E+00;0; -4.0078092E-01;  1.0025547E+04;  0.0000000E+00; -1.5696804E-07;  1.0000000E+04;  0.0000000E+00;  9.9979258E+03; -4.4926962E-01;  0.0000000E+00;  4.8488718E-02;  1.0663323E+03;
  2.9981008E-01;  9.9999998E-03;  1.0000915E-01;1514; -8.2696714E-02;  0.0000000E+00;  4.9282033E-03;  1.0011794E+03;  4.0000001E-01;  9.7705841E+02;3; -2.5757345E+01;  0.0000000E+00;  1.7569342E+00;0; -4.0160254E-01;  1.0025777E+04;  0.0000000E+00; -3.2424961E-07;  1.0000000E+04;  0.0000000E+00;  9.9978232E+03; -4.4956067E-01;  0.0000000E+00;  4.7958139E-02;  1.1187758E+03;
  2.9980826E-01;  9.9999998E-03;  1.2001125E-01;1515; -8.2896903E-02;  0.0000000E+00;  5.9050820E-03;  1.0011864E+03;  4.0000001E-01;  9.8288544E+02;3; -2.5455473E+01;  0.0000000E+00;  2.0882246E+00;0; -4.0241349E-01;  1.0026047E+04;  0.0000000E+00; -5.2938401E-07;  1.0000000E+04;  0.0000000E+00;  9.9977002E+03; -4.4984812E-01;  0.0000000E+00;  4.7434617E-02;  1.1821683E+03;
  2.9980651E-01;  9.9999998E-03;  1.4001347E-01;1516; -8.2979985E-02;  0.0000000E+00;  6.8694470E-03;  1.0011934E+03;  4.0000001E-01;  9.8871240E+02;3; -2.5080339E+01;  0.0000000E+00;  2.3973246E+00;0; -4.0293509E-01;  1.0026344E+04;  0.0000000E+00; -5.2140206E-07;  1.0000000E+04;  0.0000000E+00;  9.9975410E+03; -4.5016101E-01;  0.0000000E+00;  4.7225937E-02;  1.2620869E+03;
  3.1978974E-01;  9.9999998E-03; -6.3006371E-12;1540; -9.1273561E-02;  0.0000000E+00; -5.6707683E-09;  1.0012910E+03;  4.0000001E-01;  1.0695990E+03;3; -2.8675896E+01;  0.0000000E+00; -2.3257298E-05;0; -4.3029526E-01;  1.0028122E+04;  0.0000000E+00;  4.3180218E-16;  1.0000000E+04;  0.0000000E+00;  9.9977188E+03; -4.8968747E-01;  0.0000000E+00;  5.9392203E-02;  1.1640610E+03;
  3.1978947E-01;  9.9999998E-03;  2.0002136E-02;1541; -9.1322057E-02;  0.0000000E+00;  1.2105919E-03;  1.0012917E+03;  4.0000001E-01;  1.0701915E+03;3; -2.8648325E+01;  0.0000000E+00;  4.2455578E-01;0; -4.3035787E-01;  1.0028155E+04;  0.0000000E+00; -7.0853305E-09;  1.0000000E+04;  0.0000000E+00;  9.9977021E+03; -4.8967555E-01;  0.0000000E+00;  5.9317671E-02;  1.1722064E+03;
  3.1978866E-01;  9.9999998E-03;  4.0004302E-02;1542; -9.1461666E-02;  0.0000000E+00;  2.4203944E-03;  1.0012937E+03;  4.0000001E-01;  1.0717717E+03;3; -2.8564854E+01;  0.0000000E+00;  8.5266775E-01;0; -4.3053868E-01;  1.0028242E+04;  0.0000000E+00; -3.2913348E-08;  1.0000000E+04;  0.0000000E+00;  9.9976543E+03; -4.8963550E-01;  0.0000000E+00;  5.9096821E-02;  1.1963666E+03;
  3.1978741E-01;  9.9999998E-03;  6.0006533E-02;1543; -9.1675542E-02;  0.0000000E+00;  3.6249214E-03;  1.0012974E+03;  4.0000001E-01;  1.0748334E+03;3; -2.8426514E+01;  0.0000000E+00;  1.2649803E+00;0; -4.3082038E-01;  1.0028391E+04;  0.0000000E+00; -1.0907848E-07;  1.0000000E+04;  0.0000000E+00;  9.9975791E+03; -4.8955762E-01;  0.0000000E+00;  5.8737237E-02;  1.2357587E+03;
  3.1978571E-01;  9.9999998E-03;  8.0008857E-02;1544; -9.1932990E-02;  0.0000000E+00;  4.8258533E-03;  1.0013025E+03;  4.0000001E-01;  1.0790802E+03;3; -2.8221512E+01;  0.0000000E+00;  1.6773031E+00;0; -4.3117049E-01;  1.0028592E+04;  0.0000000E+00; -2.5420630E-07;  1.0000000E+04;  0.0000000E+00;  9.9974756E+03; -4.8942652E-01;  0.0000000E+00;  5.8256023E-02;  1.2893082E+03;
  3.1978375E-01;  9.9999998E-03;  1.0001132E-01;1545; -9.2191644E-02;  0.0000000E+00;  6.0283048E-03;  1.0013083E+03;  4.0000001E-01;  1.0839196E+03;3; -2.7946054E+01;  0.0000000E+00;  2.0826530E+00;0; -4.3152472E-01;  1.0028846E+04;  0.0000000E+00; -4.8519070E-07;  1.0000000E+04;  0.0000000E+00;  9.9973428E+03; -4.8922491E-01;  0.0000000E+00;  5.7700198E-02;  1.3562441E+03;
  3.1978160E-01;  9.9999998E-03;  1.2001393E-01;1546; -9.2396520E-02;  0.0000000E+00;  7.2287996E-03;  1.0013149E+03;  4.0000001E-01;  1.0893514E+03;3; -2.7594839E+01;  0.0000000E+00;  2.4747603E+00;0; -4.3174383E-01;  1.0029138E+04;  0.0000000E+00; -6.7884247E-07;  1.0000000E+04;  0.0000000E+00;  9.9971875E+03; -4.8894125E-01;  0.0000000E+00;  5.7197422E-02;  1.4374323E+03;
  3.1977952E-01;  9.9999998E-03;  1.4001670E-01;1547; -9.2481956E-02;  0.0000000E+00;  8.4203193E-03;  1.0013212E+03;  4.0000001E-01;  1.0945859E+03;3; -2.7164118E+01;  0.0000000E+00;  2.8490267E+00;0; -4.3156511E-01;  1.0029461E+04;  0.0000000E+00; -5.2726926E-07;  1.0000000E+04;  0.0000000E+00;  9.9969854E+03; -4.8858532E-01;  0.0000000E+00;  5.7020228E-02;  1.5374775E+03;
  3.3976102E-01;  9.9999998E-03; -3.1069442E-12;1571; -1.0161152E-01;  0.0000000E+00; -2.8855949E-09;  1.0014355E+03;  4.0000001E-01;  1.1892992E+03;3; -3.1055569E+01;  0.0000000E+00;  5.4827997E-06;0; -4.6384159E-01;  1.0031445E+04;  0.0000000E+00;  1.7939895E-15;  1.0000000E+04;  0.0000000E+00;  9.9972871E+03; -5.3374076E-01;  0.0000000E+00;  6.9899179E-02;  1.3782909E+03;
  3.3976072E-01;  9.9999998E-03;  2.0002581E-02;1572; -1.0165976E-01;  0.0000000E+00;  1.4573638E-03;  1.0014361E+03;  4.0000001E-01;  1.1897930E+03;3; -3.1023945E+01;  0.0000000E+00;  4.9683505E-01;0; -4.6385616E-01;  1.0031478E+04;  0.0000000E+00; -9.5893293E-09;  1.0000000E+04;  0.0000000E+00;  9.9972676E+03; -5.3364444E-01;  0.0000000E+00;  6.9788292E-02;  1.3879717E+03;
  3.3975983E-01;  9.9999998E-03;  4.0005196E-02;1573; -1.0179838E-01;  0.0000000E+00;  2.9059432E-03;  1.0014379E+03;  4.0000001E-01;  1.1912744E+03;3; -3.0930323E+01;  0.0000000E+00;  9.8525274E-01;0; -4.6389097E-01;  1.0031575E+04;  0.0000000E+00; -4.7748109E-08;  1.0000000E+04;  0.0000000E+00;  9.9972070E+03; -5.3335732E-01;  0.0000000E+00;  6.9466352E-02;  1.4167968E+03;
  3.3975840E-01;  9.9999998E-03;  6.0007885E-02;1574; -1.0200883E-01;  0.0000000E+00;  4.3428699E-03;  1.0014414E+03;  4.0000001E-01;  1.1941385E+03;3; -3.0765005E+01;  0.0000000E+00;  1.4641755E+00;0; -4.6392184E-01;  1.0031733E+04;  0.0000000E+00; -1.5518147E-07;  1.0000000E+04;  0.0000000E+00;  9.9971162E+03; -5.3288436E-01;  0.0000000E+00;  6.8962522E-02;  1.4641256E+03;
  3.3975649E-01;  9.9999998E-03;  8.0010690E-02;1575; -1.0226149E-01;  0.0000000E+00;  5.7703634E-03;  1.0014462E+03;  4.0000001E-01;  1.1980890E+03;3; -3.0526096E+01;  0.0000000E+00;  1.9367385E+00;0; -4.6390998E-01;  1.0031953E+04;  0.0000000E+00; -3.6239547E-07;  1.0000000E+04;  0.0000000E+00;  9.9969912E+03; -5.3223127E-01;  0.0000000E+00;  6.8321280E-02;  1.5289867E+03;
  3.3975425E-01;  9.9999998E-03;  1.0001364E-01;1576; -1.0251348E-01;  0.0000000E+00;  7.1891751E-03;  1.0014515E+03;  4.0000001E-01;  1.2025333E+03;3; -3.0206902E+01;  0.0000000E+00;  2.3991625E+00;0; -4.6378899E-01;  1.0032225E+04;  0.0000000E+00; -6.2313950E-07;  1.0000000E+04;  0.0000000E+00;  9.9968330E+03; -5.3140092E-01;  0.0000000E+00;  6.7611918E-02;  1.6104873E+03;
  3.3975178E-01;  9.9999998E-03;  1.2001679E-01;1577; -1.0270947E-01;  0.0000000E+00;  8.6008869E-03;  1.0014578E+03;  4.0000001E-01;  1.2077678E+03;3; -2.9800673E+01;  0.0000000E+00;  2.8453417E+00;0; -4.6343005E-01;  1.0032541E+04;  0.0000000E+00; -8.2856951E-07;  1.0000000E+04;  0.0000000E+00;  9.9966396E+03; -5.3039086E-01;  0.0000000E+00;  6.6960827E-02;  1.7088320E+03;
  3.3974931E-01;  9.9999998E-03;  1.4002015E-01;1578; -1.0278555E-01;  0.0000000E+00;  1.0014729E-02;  1.0014630E+03;  4.0000001E-01;  1.2121133E+03;3; -2.9306551E+01;  0.0000000E+00;  3.2787526E+00;0; -4.6259832E-01;  1.0032888E+04;  0.0000000E+00; -5.5831839E-07;  1.0000000E+04;  0.0000000E+00;  9.9964033E+03; -5.2919257E-01;  0.0000000E+00;  6.6594236E-02;  1.8270852E+03;
  3.5972887E-01;  9.9999998E-03; -5.0654051E-12;1602; -1.1288076E-01;  0.0000000E+00; -2.8019171E-09;  1.0015945E+03;  4.0000001E-01;  1.3210483E+03;3; -3.3520973E+01;  0.0000000E+00; -1.7078055E-05;0; -4.9999467E-01;  1.0035097E+04;  0.0000000E+00;  1.3261580E-17;  1.0000000E+04;  0.0000000E+00;  9.9968281E+03; -5.8059758E-01;  0.0000000E+00;  8.0602907E-02;  1.6063851E+03;
  3.5972852E-01;  9.9999998E-03;  2.0003041E-02;1603; -1.1292650E-01;  0.0000000E+00;  1.7032850E-03;  1.0015953E+03;  4.0000001E-01;  1.3216410E+03;3; -3.3485794E+01;  0.0000000E+00;  5.5435336E-01;0; -4.9995768E-01;  1.0035131E+04;  0.0000000E+00; -1.1559218E-08;  1.0000000E+04;  0.0000000E+00;  9.9968057E+03; -5.8040017E-01;  0.0000000E+00;  8.0442481E-02;  1.6176216E+03;
  3.5972753E-01;  9.9999998E-03;  4.0006123E-02;1604; -1.1305634E-01;  0.0000000E+00;  3.3988010E-03;  1.0015972E+03;  4.0000001E-01;  1.3232212E+03;3; -3.3372791E+01;  0.0000000E+00;  1.1049489E+00;0; -4.9983633E-01;  1.0035233E+04;  0.0000000E+00; -6.4505372E-08;  1.0000000E+04;  0.0000000E+00;  9.9967412E+03; -5.7981646E-01;  0.0000000E+00;  7.9980120E-02;  1.6511665E+03;
  3.5972595E-01;  9.9999998E-03;  6.0009297E-02;1605; -1.1325358E-01;  0.0000000E+00;  5.0797155E-03;  1.0016002E+03;  4.0000001E-01;  1.3257889E+03;3; -3.3180305E+01;  0.0000000E+00;  1.6509215E+00;0; -4.9960229E-01;  1.0035405E+04;  0.0000000E+00; -2.0076686E-07;  1.0000000E+04;  0.0000000E+00;  9.9966318E+03; -5.7886851E-01;  0.0000000E+00;  7.9266220E-02;  1.7064796E+03;
  3.5972381E-01;  9.9999998E-03;  8.0012597E-02;1606; -1.1348672E-01;  0.0000000E+00;  6.7350287E-03;  1.0016045E+03;  4.0000001E-01;  1.3292456E+03;3; -3.2901974E+01;  0.0000000E+00;  2.1779702E+00;0; -4.9921593E-01;  1.0035638E+04;  0.0000000E+00; -4.4600182E-07;  1.0000000E+04;  0.0000000E+00;  9.9964844E+03; -5.7758784E-01;  0.0000000E+00;  7.8371905E-02;  1.7825858E+03;
  3.5972124E-01;  9.9999998E-03;  1.0001607E-01;1607; -1.1371523E-01;  0.0000000E+00;  8.3718468E-03;  1.0016095E+03;  4.0000001E-01;  1.3333937E+03;3; -3.2531925E+01;  0.0000000E+00;  2.6896577E+00;0; -4.9861944E-01;  1.0035931E+04;  0.0000000E+00; -7.9186088E-07;  1.0000000E+04;  0.0000000E+00;  9.9962939E+03; -5.7600570E-01;  0.0000000E+00;  7.7386267E-02;  1.8782485E+03;
  3.5971844E-01;  9.9999998E-03;  1.2001976E-01;1608; -1.1388485E-01;  0.0000000E+00;  9.9908961E-03;  1.0016154E+03;  4.0000001E-01;  1.3383318E+03;3; -3.2064079E+01;  0.0000000E+00;  3.1830540E+00;0; -4.9770409E-01;  1.0036271E+04;  0.0000000E+00; -1.0095212E-06;  1.0000000E+04;  0.0000000E+00;  9.9960723E+03; -5.7413602E-01;  0.0000000E+00;  7.6431930E-02;  1.9927224E+03;
  3.5971555E-01;  9.9999998E-03;  1.4002371E-01;1609; -1.1392981E-01;  0.0000000E+00;  1.1592631E-02;  1.0016208E+03;  4.0000001E-01;  1.3427761E+03;3; -3.1496784E+01;  0.0000000E+00;  3.6509666E+00;0; -4.9627045E-01;  1.0036642E+04;  0.0000000E+00; -6.9007910E-07;  1.0000000E+04;  0.0000000E+00;  9.9958027E+03; -5.7196295E-01;  0.0000000E+00;  7.5692497E-02;  2.1273367E+03;
  3.7969291E-01;  9.9999998E-03; -8.6049969E-12;1633; -1.2514561E-01;  0.0000000E+00; -2.5275382E-09;  1.0017689E+03;  4.0000001E-01;  1.4655377E+03;3; -3.6067539E+01;  0.0000000E+00;  2.8030136E-06;0; -5.3886318E-01;  1.0039074E+04;  0.0000000E+00;  2.7814523E-15;  1.0000000E+04;  0.0000000E+00;  9.9963408E+03; -6.3003302E-01;  0.0000000E+00;  9.1169856E-02;  1.8488313E+03;
  3.7969255E-01;  9.9999998E-03;  2.0003507E-02;1634; -1.2518498E-01;  0.0000000E+00;  1.9458896E-03;  1.0017696E+03;  4.0000001E-01;  1.4660315E+03;3; -3.6022968E+01;  0.0000000E+00;  6.0856062E-01;0; -5.3877121E-01;  1.0039112E+04;  0.0000000E+00; -1.5511739E-08;  1.0000000E+04;  0.0000000E+00;  9.9963154E+03; -6.2972099E-01;  0.0000000E+00;  9.0949796E-02;  1.8615688E+03;
  3.7969145E-01;  9.9999998E-03;  4.0007062E-02;1635; -1.2529840E-01;  0.0000000E+00;  3.8814852E-03;  1.0017715E+03;  4.0000001E-01;  1.4677104E+03;3; -3.5890781E+01;  0.0000000E+00;  1.2172661E+00;0; -5.3848308E-01;  1.0039225E+04;  0.0000000E+00; -8.0627743E-08;  1.0000000E+04;  0.0000000E+00;  9.9962441E+03; -6.2880015E-01;  0.0000000E+00;  9.0317093E-02;  1.8996675E+03;
  3.7968969E-01;  9.9999998E-03;  6.0010720E-02;1636; -1.2546779E-01;  0.0000000E+00;  5.7950988E-03;  1.0017744E+03;  4.0000001E-01;  1.4700808E+03;3; -3.5665890E+01;  0.0000000E+00;  1.8131945E+00;0; -5.3796804E-01;  1.0039410E+04;  0.0000000E+00; -2.4300277E-07;  1.0000000E+04;  0.0000000E+00;  9.9961182E+03; -6.2731332E-01;  0.0000000E+00;  8.9345291E-02;  1.9626759E+03;
  3.7968731E-01;  9.9999998E-03;  8.0014527E-02;1637; -1.2566496E-01;  0.0000000E+00;  7.6817302E-03;  1.0017786E+03;  4.0000001E-01;  1.4735375E+03;3; -3.5343216E+01;  0.0000000E+00;  2.3925457E+00;0; -5.3719050E-01;  1.0039657E+04;  0.0000000E+00; -5.4426278E-07;  1.0000000E+04;  0.0000000E+00;  9.9959541E+03; -6.2532318E-01;  0.0000000E+00;  8.8132672E-02;  2.0495500E+03;
  3.7968445E-01;  9.9999998E-03;  1.0001853E-01;1638; -1.2584810E-01;  0.0000000E+00;  9.5276982E-03;  1.0017837E+03;  4.0000001E-01;  1.4777843E+03;3; -3.4914940E+01;  0.0000000E+00;  2.9428701E+00;0; -5.3610677E-01;  1.0039975E+04;  0.0000000E+00; -9.5574376E-07;  1.0000000E+04;  0.0000000E+00;  9.9957393E+03; -6.2289470E-01;  0.0000000E+00;  8.6787917E-02;  2.1585789E+03;
  3.7968126E-01;  9.9999998E-03;  1.2002279E-01;1639; -1.2596683E-01;  0.0000000E+00;  1.1340805E-02;  1.0017895E+03;  4.0000001E-01;  1.4825249E+03;3; -3.4377056E+01;  0.0000000E+00;  3.4686708E+00;0; -5.3463835E-01;  1.0040347E+04;  0.0000000E+00; -1.1939727E-06;  1.0000000E+04;  0.0000000E+00;  9.9954873E+03; -6.2006980E-01;  0.0000000E+00;  8.5431479E-02;  2.2879558E+03;
  3.7967795E-01;  9.9999998E-03;  1.4002734E-01;1640; -1.2595610E-01;  0.0000000E+00;  1.3123552E-02;  1.0017950E+03;  4.0000001E-01;  1.4871667E+03;3; -3.3726082E+01;  0.0000000E+00;  3.9690659E+00;0; -5.3262466E-01;  1.0040752E+04;  0.0000000E+00; -9.6044994E-07;  1.0000000E+04;  0.0000000E+00;  9.9951924E+03; -6.1683947E-01;  0.0000000E+00;  8.4214784E-02;  2.4374275E+03;
  3.9965287E-01;  9.9999998E-03; -1.7176917E-13;1664; -1.3845809E-01;  0.0000000E+00; -9.3867658E-10;  1.0019589E+03;  4.0000001E-01;  1.6228662E+03;3; -3.8682411E+01;  0.0000000E+00; -1.1864028E-05;0; -5.8040732E-01;  1.0043399E+04;  0.0000000E+00;  4.8696377E-15;  1.0000000E+04;  0.0000000E+00;  9.9958242E+03; -6.8169934E-01;  0.0000000E+00;  1.0129204E-01;  2.1101848E+03;
  3.9965245E-01;  9.9999998E-03;  2.0003974E-02;1665; -1.3848895E-01;  0.0000000E+00;  2.1771975E-03;  1.0019593E+03;  4.0000001E-01;  1.6232612E+03;3; -3.8630924E+01;  0.0000000E+00;  6.5899509E-01;0; -5.8025634E-01;  1.0043438E+04;  0.0000000E+00; -2.1821519E-08;  1.0000000E+04;  0.0000000E+00;  9.9957959E+03; -6.8126357E-01;  0.0000000E+00;  1.0100724E-01;  2.1242734E+03;
  3.9965126E-01;  9.9999998E-03;  4.0008005E-02;1666; -1.3857655E-01;  0.0000000E+00;  4.3391204E-03;  1.0019610E+03;  4.0000001E-01;  1.6246439E+03;3; -3.8476414E+01;  0.0000000E+00;  1.3120873E+00;0; -5.7979071E-01;  1.0043559E+04;  0.0000000E+00; -1.1111900E-07;  1.0000000E+04;  0.0000000E+00;  9.9957158E+03; -6.7998111E-01;  0.0000000E+00;  1.0019041E-01;  2.1664790E+03;
  3.9964929E-01;  9.9999998E-03;  6.0012147E-02;1667; -1.3870384E-01;  0.0000000E+00;  6.4723236E-03;  1.0019642E+03;  4.0000001E-01;  1.6273105E+03;3; -3.8215595E+01;  0.0000000E+00;  1.9504870E+00;0; -5.7897729E-01;  1.0043753E+04;  0.0000000E+00; -3.0416271E-07;  1.0000000E+04;  0.0000000E+00;  9.9955791E+03; -6.7791760E-01;  0.0000000E+00;  9.8940313E-02;  2.2364275E+03;
  3.9964667E-01;  9.9999998E-03;  8.0016457E-02;1668; -1.3884322E-01;  0.0000000E+00;  8.5652526E-03;  1.0019688E+03;  4.0000001E-01;  1.6310635E+03;3; -3.7841854E+01;  0.0000000E+00;  2.5641141E+00;0; -5.7778597E-01;  1.0044030E+04;  0.0000000E+00; -6.5055298E-07;  1.0000000E+04;  0.0000000E+00;  9.9953906E+03; -6.7517138E-01;  0.0000000E+00;  9.7385429E-02;  2.3329600E+03;
  3.9964348E-01;  9.9999998E-03;  1.0002100E-01;1669; -1.3895753E-01;  0.0000000E+00;  1.0612230E-02;  1.0019740E+03;  4.0000001E-01;  1.6354091E+03;3; -3.7348598E+01;  0.0000000E+00;  3.1439695E+00;0; -5.7619244E-01;  1.0044375E+04;  0.0000000E+00; -1.0841964E-06;  1.0000000E+04;  0.0000000E+00;  9.9951563E+03; -6.7184663E-01;  0.0000000E+00;  9.5654167E-02;  2.4538201E+03;
  3.9963990E-01;  9.9999998E-03;  1.2002583E-01;1670; -1.3899665E-01;  0.0000000E+00;  1.2605214E-02;  1.0019806E+03;  4.0000001E-01;  1.6408409E+03;3; -3.6729652E+01;  0.0000000E+00;  3.6935034E+00;0; -5.7415479E-01;  1.0044782E+04;  0.0000000E+00; -1.3259644E-06;  1.0000000E+04;  0.0000000E+00;  9.9948789E+03; -6.6802168E-01;  0.0000000E+00;  9.3866862E-02;  2.5961855E+03;
  3.9963612E-01;  9.9999998E-03;  1.4003100E-01;1671; -1.3890176E-01;  0.0000000E+00;  1.4551739E-02;  1.0019868E+03;  4.0000001E-01;  1.6460754E+03;3; -3.5988316E+01;  0.0000000E+00;  4.2045531E+00;0; -5.7155305E-01;  1.0045230E+04;  0.0000000E+00; -1.1516552E-06;  1.0000000E+04;  0.0000000E+00;  9.9945615E+03; -6.6370559E-01;  0.0000000E+00;  9.2152558E-02;  2.7586682E+03;
  4.1960841E-01;  9.9999998E-03; -6.2391303E-12;1695; -1.5285906E-01;  0.0000000E+00; -6.4758381E-09;  1.0021625E+03;  4.0000001E-01;  1.7916508E+03;3; -4.1358879E+01;  0.0000000E+00; -1.3144321E-05;0; -6.2438941E-01;  1.0048062E+04;  0.0000000E+00; -2.2584323E-15;  1.0000000E+04;  0.0000000E+00;  9.9952500E+03; -7.3511630E-01;  0.0000000E+00;  1.1072687E-01;  2.4008901E+03;
  4.1960797E-01;  9.9999998E-03;  2.0004459E-02;1696; -1.5287811E-01;  0.0000000E+00;  2.3890431E-03;  1.0021632E+03;  4.0000001E-01;  1.7921445E+03;3; -4.1299370E+01;  0.0000000E+00;  6.9746053E-01;0; -6.2417626E-01;  1.0048107E+04;  0.0000000E+00; -3.6568778E-08;  1.0000000E+04;  0.0000000E+00;  9.9952197E+03; -7.3455572E-01;  0.0000000E+00;  1.1037949E-01;  2.4160737E+03;
  4.1960666E-01;  9.9999998E-03;  4.0008973E-02;1697; -1.5293013E-01;  0.0000000E+00;  4.7572521E-03;  1.0021654E+03;  4.0000001E-01;  1.7940210E+03;3; -4.1121128E+01;  0.0000000E+00;  1.3844894E+00;0; -6.2352133E-01;  1.0048234E+04;  0.0000000E+00; -1.4972603E-07;  1.0000000E+04;  0.0000000E+00;  9.9951309E+03; -7.3290652E-01;  0.0000000E+00;  1.0938521E-01;  2.4615989E+03;
  4.1960451E-01;  9.9999998E-03;  6.0013607E-02;1698; -1.5299912E-01;  0.0000000E+00;  7.0866551E-03;  1.0021688E+03;  4.0000001E-01;  1.7967864E+03;3; -4.0819672E+01;  0.0000000E+00;  2.0514748E+00;0; -6.2239122E-01;  1.0048453E+04;  0.0000000E+00; -3.8575905E-07;  1.0000000E+04;  0.0000000E+00;  9.9949863E+03; -7.3026067E-01;  0.0000000E+00;  1.0786944E-01;  2.5370986E+03;
  4.1960162E-01;  9.9999998E-03;  8.0018423E-02;1699; -1.5305930E-01;  0.0000000E+00;  9.3636615E-03;  1.0021738E+03;  4.0000001E-01;  1.8009344E+03;3; -4.0389198E+01;  0.0000000E+00;  2.6840045E+00;0; -6.2076384E-01;  1.0048754E+04;  0.0000000E+00; -7.6230884E-07;  1.0000000E+04;  0.0000000E+00;  9.9947852E+03; -7.2675449E-01;  0.0000000E+00;  1.0599065E-01;  2.6411641E+03;
  4.1959807E-01;  9.9999998E-03;  1.0002350E-01;1700; -1.5307754E-01;  0.0000000E+00;  1.1584978E-02;  1.0021802E+03;  4.0000001E-01;  1.8062676E+03;3; -3.9822033E+01;  0.0000000E+00;  3.2848487E+00;0; -6.1864042E-01;  1.0049137E+04;  0.0000000E+00; -1.1612798E-06;  1.0000000E+04;  0.0000000E+00;  9.9945352E+03; -7.2253525E-01;  0.0000000E+00;  1.0389480E-01;  2.7708782E+03;
  4.1959405E-01;  9.9999998E-03;  1.2002891E-01;1701; -1.5300982E-01;  0.0000000E+00;  1.3740026E-02;  1.0021878E+03;  4.0000001E-01;  1.8125884E+03;3; -3.9115166E+01;  0.0000000E+00;  3.8307874E+00;0; -6.1601883E-01;  1.0049586E+04;  0.0000000E+00; -1.2259071E-06;  1.0000000E+04;  0.0000000E+00;  9.9942412E+03; -7.1771926E-01;  0.0000000E+00;  1.0170040E-01;  2.9225176E+03;
  4.1958976E-01;  9.9999998E-03;  1.4003471E-01;1702; -1.5280078E-01;  0.0000000E+00;  1.5838210E-02;  1.0021962E+03;  4.0000001E-01;  1.8195017E+03;3; -3.8272579E+01;  0.0000000E+00;  4.3389916E+00;0; -6.1282235E-01;  1.0050087E+04;  0.0000000E+00; -7.8313121E-07;  1.0000000E+04;  0.0000000E+00;  9.9939033E+03; -7.1234328E-01;  0.0000000E+00;  9.9520914E-02;  3.0942388E+03;
  4.3955925E-01;  9.9999998E-03;  5.6764810E-12;1726; -1.6837633E-01;  0.0000000E+00;  3.0419809E-09;  1.0023787E+03;  4.0000001E-01;  1.9707064E+03;3; -4.4084572E+01;  0.0000000E+00;  3.9742745E-06;0; -6.7026341E-01;  1.0053064E+04;  0.0000000E+00;  3.3661430E-15;  1.0000000E+04;  0.0000000E+00;  9.9945869E+03; -7.8959757E-01;  0.0000000E+00;  1.1933419E-01;  2.7387681E+03;
  4.3955877E-01;  9.9999998E-03;  2.0004986E-02;1727; -1.6838005E-01;  0.0000000E+00;  2.5755335E-03;  1.0023795E+03;  4.0000001E-01;  1.9712990E+03;3; -4.4016586E+01;  0.0000000E+00;  7.2074556E-01;0; -6.6998249E-01;  1.0053110E+04;  0.0000000E+00; -4.6389015E-08;  1.0000000E+04;  0.0000000E+00;  9.9945576E+03; -7.8891760E-01;  0.0000000E+00;  1.1893511E-01;  2.7546904E+03;
  4.3955731E-01;  9.9999998E-03;  4.0010028E-02;1728; -1.6838619E-01;  0.0000000E+00;  5.1243319E-03;  1.0023821E+03;  4.0000001E-01;  1.9735706E+03;3; -4.3811958E+01;  0.0000000E+00;  1.4282931E+00;0; -6.6912448E-01;  1.0053255E+04;  0.0000000E+00; -1.9837611E-07;  1.0000000E+04;  0.0000000E+00;  9.9944658E+03; -7.8691918E-01;  0.0000000E+00;  1.1779467E-01;  2.8024009E+03;
  4.3955496E-01;  9.9999998E-03;  6.0015190E-02;1729; -1.6837984E-01;  0.0000000E+00;  7.6219910E-03;  1.0023865E+03;  4.0000001E-01;  1.9771260E+03;3; -4.3465466E+01;  0.0000000E+00;  2.1056199E+00;0; -6.6765976E-01;  1.0053489E+04;  0.0000000E+00; -4.7131181E-07;  1.0000000E+04;  0.0000000E+00;  9.9943184E+03; -7.8372031E-01;  0.0000000E+00;  1.1606057E-01;  2.8813186E+03;
  4.3955177E-01;  9.9999998E-03;  8.0020539E-02;1730; -1.6833858E-01;  0.0000000E+00;  1.0055244E-02;  1.0023925E+03;  4.0000001E-01;  1.9821628E+03;3; -4.2970825E+01;  0.0000000E+00;  2.7411952E+00;0; -6.6557980E-01;  1.0053821E+04;  0.0000000E+00; -8.2703735E-07;  1.0000000E+04;  0.0000000E+00;  9.9941074E+03; -7.7949226E-01;  0.0000000E+00;  1.1391247E-01;  2.9894368E+03;
  4.3954787E-01;  9.9999998E-03;  1.0002618E-01;1731; -1.6823532E-01;  0.0000000E+00;  1.2420026E-02;  1.0024005E+03;  4.0000001E-01;  1.9886812E+03;3; -4.2323578E+01;  0.0000000E+00;  3.3323143E+00;0; -6.6292149E-01;  1.0054244E+04;  0.0000000E+00; -1.0245074E-06;  1.0000000E+04;  0.0000000E+00;  9.9938467E+03; -7.7442467E-01;  0.0000000E+00;  1.1150321E-01;  3.1228374E+03;
  4.3954337E-01;  9.9999998E-03;  1.2003218E-01;1732; -1.6803417E-01;  0.0000000E+00;  1.4717418E-02;  1.0024107E+03;  4.0000001E-01;  1.9971748E+03;3; -4.1520111E+01;  0.0000000E+00;  3.8637381E+00;0; -6.5973395E-01;  1.0054748E+04;  0.0000000E+00; -5.4124592E-07;  1.0000000E+04;  0.0000000E+00;  9.9935498E+03; -7.6867419E-01;  0.0000000E+00;  1.0894022E-01;  3.2768953E+03;
  4.3953851E-01;  9.9999998E-03;  1.4003861E-01;1733; -1.6768464E-01;  0.0000000E+00;  1.6953303E-02;  1.0024217E+03;  4.0000001E-01;  2.0063596E+03;3; -4.0567150E+01;  0.0000000E+00;  4.3552628E+00;0; -6.5598160E-01;  1.0055308E+04;  0.0000000E+00;  7.7046451E-07;  1.0000000E+04;  0.0000000E+00;  9.9932139E+03; -7.6230693E-01;  0.0000000E+00;  1.0632533E-01;  3.4501509E+03;
  4.5950502E-01;  9.9999998E-03;  8.0393782E-12;1757; -1.8502901E-01;  0.0000000E+00; -2.0303734E-09;  1.0026040E+03;  4.0000093E-01;  2.1573662E+03;3; -4.6844921E+01;  0.0000000E+00; -2.2284656E-05;0; -7.1689641E-01;  1.0058350E+04;  0.0000000E+00;  1.6008647E-14;  1.0000000E+04;  0.0000000E+00;  9.9937832E+03; -8.4399551E-01;  0.0000000E+00;  1.2709908E-01;  3.1495522E+03;
  4.5950449E-01;  9.9999998E-03;  2.0005612E-02;1758; -1.8501404E-01;  0.0000000E+00;  2.7350890E-03;  1.0026051E+03;  4.0000084E-01;  2.1582551E+03;3; -4.6768101E+01;  0.0000000E+00;  7.2910142E-01;0; -7.1653938E-01;  1.0058403E+04;  0.0000000E+00; -5.0018020E-08;  1.0000000E+04;  0.0000000E+00;  9.9937529E+03; -8.4320903E-01;  0.0000000E+00;  1.2666963E-01;  3.1658013E+03;
  4.5950291E-01;  9.9999998E-03;  4.0011276E-02;1759; -1.8496346E-01;  0.0000000E+00;  5.4351971E-03;  1.0026082E+03;  4.0000084E-01;  2.1608230E+03;3; -4.6533043E+01;  0.0000000E+00;  1.4361026E+00;0; -7.1545732E-01;  1.0058561E+04;  0.0000000E+00; -2.0788825E-07;  1.0000000E+04;  0.0000000E+00;  9.9936631E+03; -8.4089988E-01;  0.0000000E+00;  1.2544253E-01;  3.2143127E+03;
  4.5950034E-01;  9.9999998E-03;  6.0017046E-02;1760; -1.8486504E-01;  0.0000000E+00;  8.0719898E-03;  1.0026138E+03;  4.0000081E-01;  2.1654646E+03;3; -4.6135807E+01;  0.0000000E+00;  2.1030288E+00;0; -7.1363115E-01;  1.0058819E+04;  0.0000000E+00; -4.5902223E-07;  1.0000000E+04;  0.0000000E+00;  9.9935088E+03; -8.3720469E-01;  0.0000000E+00;  1.2357357E-01;  3.2938540E+03;
  4.5949683E-01;  9.9999998E-03;  8.0023006E-02;1761; -1.8470152E-01;  0.0000000E+00;  1.0632044E-02;  1.0026216E+03;  4.0000081E-01;  2.1718843E+03;3; -4.5571487E+01;  0.0000000E+00;  2.7171671E+00;0; -7.1108401E-01;  1.0059185E+04;  0.0000000E+00; -6.5765363E-07;  1.0000000E+04;  0.0000000E+00;  9.9933066E+03; -8.3232528E-01;  0.0000000E+00;  1.2124126E-01;  3.4011333E+03;
  4.5949247E-01;  9.9999998E-03;  1.0002927E-01;1762; -1.8445371E-01;  0.0000000E+00;  1.3115085E-02;  1.0026324E+03;  4.0000087E-01;  2.1808716E+03;3; -4.4837196E+01;  0.0000000E+00;  3.2762587E+00;0; -7.0790756E-01;  1.0059650E+04;  0.0000000E+00; -3.1547245E-07;  1.0000000E+04;  0.0000000E+00;  9.9930557E+03; -8.2648569E-01;  0.0000000E+00;  1.1857816E-01;  3.5304868E+03;
  4.5948744E-01;  9.9999998E-03;  1.2003591E-01;1763; -1.8409610E-01;  0.0000000E+00;  1.5532267E-02;  1.0026459E+03;  4.0000090E-01;  2.1921306E+03;3; -4.3929890E+01;  0.0000000E+00;  3.7722220E+00;0; -7.0421690E-01;  1.0060206E+04;  0.0000000E+00;  1.4301471E-06;  1.0000000E+04;  0.0000000E+00;  9.9927744E+03; -8.1987715E-01;  0.0000000E+00;  1.1566023E-01;  3.6760352E+03;
  4.5948195E-01;  9.9999998E-03;  1.4004299E-01;1764; -1.8358532E-01;  0.0000000E+00;  1.7890479E-02;  1.0026617E+03;  4.0000096E-01;  2.2051672E+03;3; -4.2859455E+01;  0.0000000E+00;  4.2288723E+00;0; -7.0002699E-01;  1.0060835E+04;  0.0000000E+00;  4.7959702E-06;  1.0000000E+04;  0.0000000E+00;  9.9924668E+03; -8.1260544E-01;  0.0000000E+00;  1.1257847E-01;  3.8375247E+03;
  4.7944528E-01;  9.9999998E-03; -9.0944597E-13;1788; -2.0283034E-01;  0.0000000E+00;  3.6378551E-09;  1.0028284E+03;  4.0000263E-01;  2.3433340E+03;3; -4.9623852E+01;  0.0000000E+00;  5.0682393E-06;0; -7.6203042E-01;  1.0063787E+04;  0.0000000E+00;  2.2291798E-16;  1.0000000E+04;  0.0000000E+00;  9.9927705E+03; -8.9615828E-01;  0.0000000E+00;  1.3412784E-01;  3.6659409E+03;
  4.7944471E-01;  9.9999998E-03;  2.0006413E-02;1789; -2.0279261E-01;  0.0000000E+00;  2.8675892E-03;  1.0028297E+03;  4.0000248E-01;  2.3443218E+03;3; -4.9535015E+01;  0.0000000E+00;  7.1502775E-01;0; -7.6158369E-01;  1.0063845E+04;  0.0000000E+00; -4.3342542E-08;  1.0000000E+04;  0.0000000E+00;  9.9927432E+03; -8.9528543E-01;  0.0000000E+00;  1.3370174E-01;  3.6821243E+03;
  4.7944298E-01;  9.9999998E-03;  4.0012863E-02;1790; -2.0267537E-01;  0.0000000E+00;  5.6924177E-03;  1.0028337E+03;  4.0000254E-01;  2.3476797E+03;3; -4.9264950E+01;  0.0000000E+00;  1.3999463E+00;0; -7.6023787E-01;  1.0064020E+04;  0.0000000E+00; -1.6681288E-07;  1.0000000E+04;  0.0000000E+00;  9.9926514E+03; -8.9271814E-01;  0.0000000E+00;  1.3248028E-01;  3.7300222E+03;
  4.7944012E-01;  9.9999998E-03;  6.0019407E-02;1791; -2.0246992E-01;  0.0000000E+00;  8.4429784E-03;  1.0028406E+03;  4.0000272E-01;  2.3533091E+03;3; -4.8811016E+01;  0.0000000E+00;  2.0333948E+00;0; -7.5800371E-01;  1.0064302E+04;  0.0000000E+00; -2.6649013E-07;  1.0000000E+04;  0.0000000E+00;  9.9925020E+03; -8.8860488E-01;  0.0000000E+00;  1.3060115E-01;  3.8070620E+03;
  4.7943625E-01;  9.9999998E-03;  8.0026135E-02;1792; -2.0216647E-01;  0.0000000E+00;  1.1107016E-02;  1.0028508E+03;  4.0000242E-01;  2.3618027E+03;3; -4.8171486E+01;  0.0000000E+00;  2.5998831E+00;0; -7.5496209E-01;  1.0064699E+04;  0.0000000E+00;  1.0731715E-08;  1.0000000E+04;  0.0000000E+00;  9.9923096E+03; -8.8316202E-01;  0.0000000E+00;  1.2819993E-01;  3.9075676E+03;
  4.7943142E-01;  9.9999998E-03;  1.0003315E-01;1793; -2.0175555E-01;  0.0000000E+00;  1.3691406E-02;  1.0028651E+03;  4.0000269E-01;  2.3736541E+03;3; -4.7343666E+01;  0.0000000E+00;  3.1011915E+00;0; -7.5129312E-01;  1.0065205E+04;  0.0000000E+00;  1.6814849E-06;  1.0000000E+04;  0.0000000E+00;  9.9920928E+03; -8.7663537E-01;  0.0000000E+00;  1.2534225E-01;  4.0228496E+03;
  4.7942579E-01;  9.9999998E-03;  1.2004056E-01;1794; -2.0122372E-01;  0.0000000E+00;  1.6213380E-02;  1.0028838E+03;  4.0000257E-01;  2.3891597E+03;3; -4.6327038E+01;  0.0000000E+00;  3.5352826E+00;0; -7.4721020E-01;  1.0065810E+04;  0.0000000E+00;  6.3511716E-06;  1.0000000E+04;  0.0000000E+00;  9.9918633E+03; -8.6924559E-01;  0.0000000E+00;  1.2203540E-01;  4.1449048E+03;
  4.7941956E-01;  9.9999998E-03;  1.4004840E-01;1795; -2.0053729E-01;  0.0000000E+00;  1.8680362E-02;  1.0029063E+03;  4.0000263E-01;  2.4077271E+03;3; -4.5134903E+01;  0.0000000E+00;  3.9336395E+00;0; -7.4279267E-01;  1.0066505E+04;  0.0000000E+00;  1.4269172E-05;  1.0000000E+04;  0.0000000E+00;  9.9916152E+03; -8.6115009E-01;  0.0000000E+00;  1.1835742E-01;  4.2753394E+03;
  4.9937955E-01;  9.9999998E-03; -1.1390592E-11;1819; -2.2178470E-01;  0.0000000E+00;  3.8950905E-09;  1.0030356E+03;  4.0000612E-01;  2.5148821E+03;3; -5.2399555E+01;  0.0000000E+00;  1.6832579E-05;0; -8.0160648E-01;  1.0069071E+04;  0.0000000E+00; -4.3758116E-15;  1.0000000E+04;  0.0000000E+00;  9.9914707E+03; -9.4221073E-01;  0.0000000E+00;  1.4060426E-01;  4.3248672E+03;
  4.9937889E-01;  9.9999998E-03;  2.0007480E-02;1820; -2.2172159E-01;  0.0000000E+00;  2.9766038E-03;  1.0030374E+03;  4.0000612E-01;  2.5163635E+03;3; -5.2297207E+01;  0.0000000E+00;  6.7443591E-01;0; -8.0104405E-01;  1.0069126E+04;  0.0000000E+00; -1.8668620E-08;  1.0000000E+04;  0.0000000E+00;  9.9914434E+03; -9.4127411E-01;  0.0000000E+00;  1.4023004E-01;  4.3406797E+03;
  4.9937701E-01;  9.9999998E-03;  4.0014986E-02;1821; -2.2152975E-01;  0.0000000E+00;  5.9049213E-03;  1.0030417E+03;  4.0000609E-01;  2.5200176E+03;3; -5.1986866E+01;  0.0000000E+00;  1.3145576E+00;0; -7.9937053E-01;  1.0069315E+04;  0.0000000E+00; -2.3881169E-08;  1.0000000E+04;  0.0000000E+00;  9.9913574E+03; -9.3851584E-01;  0.0000000E+00;  1.3914534E-01;  4.3867500E+03;
  4.9937388E-01;  9.9999998E-03;  6.0022566E-02;1822; -2.2120588E-01;  0.0000000E+00;  8.7533090E-03;  1.0030505E+03;  4.0000594E-01;  2.5273259E+03;3; -5.1470306E+01;  0.0000000E+00;  1.8891722E+00;0; -7.9664910E-01;  1.0069620E+04;  0.0000000E+00;  2.4495424E-07;  1.0000000E+04;  0.0000000E+00;  9.9912197E+03; -9.3407774E-01;  0.0000000E+00;  1.3742861E-01;  4.4582476E+03;
  4.9936959E-01;  9.9999998E-03;  8.0030322E-02;1823; -2.2074950E-01;  0.0000000E+00;  1.1513432E-02;  1.0030631E+03;  4.0000603E-01;  2.5376960E+03;3; -5.0748081E+01;  0.0000000E+00;  2.3809707E+00;0; -7.9305780E-01;  1.0070046E+04;  0.0000000E+00;  1.7502535E-06;  1.0000000E+04;  0.0000000E+00;  9.9910518E+03; -9.2817110E-01;  0.0000000E+00;  1.3511327E-01;  4.5456611E+03;
  4.9936423E-01;  9.9999998E-03;  1.0003836E-01;1824; -2.2016357E-01;  0.0000000E+00;  1.4198266E-02;  1.0030817E+03;  4.0000594E-01;  2.5531030E+03;3; -4.9823277E+01;  0.0000000E+00;  2.7936733E+00;0; -7.8891271E-01;  1.0070587E+04;  0.0000000E+00;  6.5706540E-06;  1.0000000E+04;  0.0000000E+00;  9.9908896E+03; -9.2104119E-01;  0.0000000E+00;  1.3212848E-01;  4.6355347E+03;
  4.9935791E-01;  9.9999998E-03;  1.2004677E-01;1825; -2.1944565E-01;  0.0000000E+00;  1.6824633E-02;  1.0031068E+03;  4.0000591E-01;  2.5738430E+03;3; -4.8694759E+01;  0.0000000E+00;  3.1348641E+00;0; -7.8457463E-01;  1.0071230E+04;  0.0000000E+00;  1.7583234E-05;  1.0000000E+04;  0.0000000E+00;  9.9907393E+03; -9.1293484E-01;  0.0000000E+00;  1.2836018E-01;  4.7164321E+03;
  4.9935085E-01;  9.9999998E-03;  1.4005554E-01;1826; -2.1857400E-01;  0.0000000E+00;  1.9395499E-02;  1.0031368E+03;  4.0000603E-01;  2.5988298E+03;3; -4.7379440E+01;  0.0000000E+00;  3.4480731E+00;0; -7.8020769E-01;  1.0071976E+04;  0.0000000E+00;  3.4968136E-05;  1.0000000E+04;  0.0000000E+00;  9.9906055E+03; -9.0407681E-01;  0.0000000E+00;  1.2386914E-01;  4.7923843E+03;
  5.1930743E-01;  9.9999998E-03; -1.7813076E-11;1850; -2.4187285E-01;  0.0000000E+00;  8.2901686E-10;  1.0032083E+03;  4.0001655E-01;  2.6579849E+03;3; -5.5153141E+01;  0.0000000E+00;  2.7166163E-05;0; -8.2932055E-01;  1.0073659E+04;  0.0000000E+00; -1.0850153E-14;  1.0000000E+04;  0.0000000E+00;  9.9898076E+03; -9.7603160E-01;  0.0000000E+00;  1.4671108E-01;  5.1629082E+03;
  5.1930672E-01;  9.9999998E-03;  2.0008918E-02;1851; -2.4178255E-01;  0.0000000E+00;  3.0666487E-03;  1.0032104E+03;  4.0001658E-01;  2.6597627E+03;3; -5.5033882E+01;  0.0000000E+00;  6.0804260E-01;0; -8.2860929E-01;  1.0073725E+04;  0.0000000E+00;  3.5689691E-08;  1.0000000E+04;  0.0000000E+00;  9.9897803E+03; -9.7506070E-01;  0.0000000E+00;  1.4645141E-01;  5.1781411E+03;
  5.1930463E-01;  9.9999998E-03;  4.0017851E-02;1852; -2.4151149E-01;  0.0000000E+00;  6.0864431E-03;  1.0032156E+03;  4.0001658E-01;  2.6640093E+03;3; -5.4679428E+01;  0.0000000E+00;  1.1739029E+00;0; -8.2651538E-01;  1.0073922E+04;  0.0000000E+00;  2.9888986E-07;  1.0000000E+04;  0.0000000E+00;  9.9896973E+03; -9.7218913E-01;  0.0000000E+00;  1.4567377E-01;  5.2214321E+03;
  5.1930118E-01;  9.9999998E-03;  6.0026858E-02;1853; -2.4106330E-01;  0.0000000E+00;  9.0306280E-03;  1.0032257E+03;  4.0001664E-01;  2.6724041E+03;3; -5.4093727E+01;  0.0000000E+00;  1.6593348E+00;0; -8.2319063E-01;  1.0074243E+04;  0.0000000E+00;  1.5304914E-06;  1.0000000E+04;  0.0000000E+00;  9.9895781E+03; -9.6753567E-01;  0.0000000E+00;  1.4434506E-01;  5.2847212E+03;
  5.1929641E-01;  9.9999998E-03;  8.0036044E-02;1854; -2.4044803E-01;  0.0000000E+00;  1.1896589E-02;  1.0032414E+03;  4.0001643E-01;  2.6854407E+03;3; -5.3283379E+01;  0.0000000E+00;  2.0455515E+00;0; -8.1895638E-01;  1.0074684E+04;  0.0000000E+00;  5.8399096E-06;  1.0000000E+04;  0.0000000E+00;  9.9894521E+03; -9.6127731E-01;  0.0000000E+00;  1.4232095E-01;  5.3531064E+03;
  5.1929045E-01;  9.9999998E-03;  1.0004552E-01;1855; -2.3968077E-01;  0.0000000E+00;  1.4701417E-02;  1.0032643E+03;  4.0001658E-01;  2.7044031E+03;3; -5.2253536E+01;  0.0000000E+00;  2.3365290E+00;0; -8.1432819E-01;  1.0075240E+04;  0.0000000E+00;  1.7335029E-05;  1.0000000E+04;  0.0000000E+00;  9.9893555E+03; -9.5364100E-01;  0.0000000E+00;  1.3931277E-01;  5.4065625E+03;
  5.1928341E-01;  9.9999998E-03;  1.2005530E-01;1856; -2.3877081E-01;  0.0000000E+00;  1.7452713E-02;  1.0032960E+03;  4.0001652E-01;  2.7306738E+03;3; -5.1014339E+01;  0.0000000E+00;  2.5560462E+00;0; -8.0986488E-01;  1.0075905E+04;  0.0000000E+00;  4.0495004E-05;  1.0000000E+04;  0.0000000E+00;  9.9893281E+03; -9.4488966E-01;  0.0000000E+00;  1.3502480E-01;  5.4290078E+03;
  5.1927543E-01;  9.9999998E-03;  1.4006530E-01;1857; -2.3770532E-01;  0.0000000E+00;  2.0138791E-02;  1.0033361E+03;  4.0001664E-01;  2.7638579E+03;3; -4.9578213E+01;  0.0000000E+00;  2.7540519E+00;0; -8.0583245E-01;  1.0076684E+04;  0.0000000E+00;  7.3535892E-05;  1.0000000E+04;  0.0000000E+00;  9.9893525E+03; -9.3533361E-01;  0.0000000E+00;  1.2950118E-01;  5.4278838E+03;
  5.3922898E-01;  9.9999998E-03; -7.8129468E-13;1881; -2.6298752E-01;  0.0000000E+00;  3.0009595E-09;  1.0033326E+03;  4.0004453E-01;  2.7609890E+03;3; -5.7857128E+01;  0.0000000E+00;  2.0691470E-05;0; -8.3691198E-01;  1.0076811E+04;  0.0000000E+00; -1.1869151E-14;  1.0000000E+04;  0.0000000E+00;  9.9877119E+03; -9.8944145E-01;  0.0000000E+00;  1.5252948E-01;  6.2115103E+03;
  5.3922820E-01;  9.9999998E-03;  2.0010822E-02;1882; -2.6286912E-01;  0.0000000E+00;  3.1418819E-03;  1.0033347E+03;  4.0004450E-01;  2.7626680E+03;3; -5.7721474E+01;  0.0000000E+00;  5.0600702E-01;0; -8.3600855E-01;  1.0076880E+04;  0.0000000E+00;  2.0929599E-07;  1.0000000E+04;  0.0000000E+00;  9.9876846E+03; -9.8846698E-01;  0.0000000E+00;  1.5245846E-01;  6.2259141E+03;
  5.3922588E-01;  9.9999998E-03;  4.0021677E-02;1883; -2.6251885E-01;  0.0000000E+00;  6.2515819E-03;  1.0033406E+03;  4.0004462E-01;  2.7676060E+03;3; -5.7318886E+01;  0.0000000E+00;  9.6168923E-01;0; -8.3337957E-01;  1.0077081E+04;  0.0000000E+00;  1.1515815E-06;  1.0000000E+04;  0.0000000E+00;  9.9876045E+03; -9.8556888E-01;  0.0000000E+00;  1.5218931E-01;  6.2654570E+03;
  5.3922206E-01;  9.9999998E-03;  6.0032617E-02;1884; -2.6194632E-01;  0.0000000E+00;  9.3023852E-03;  1.0033519E+03;  4.0004453E-01;  2.7769883E+03;3; -5.6658195E+01;  0.0000000E+00;  1.3262802E+00;0; -8.2929707E-01;  1.0077404E+04;  0.0000000E+00;  4.4516960E-06;  1.0000000E+04;  0.0000000E+00;  9.9875088E+03; -9.8082048E-01;  0.0000000E+00;  1.5152341E-01;  6.3181577E+03;
  5.3921682E-01;  9.9999998E-03;  8.0043748E-02;1885; -2.6117238E-01;  0.0000000E+00;  1.2299592E-02;  1.0033697E+03;  4.0004459E-01;  2.7917039E+03;3; -5.5753613E+01;  0.0000000E+00;  1.5784813E+00;0; -8.2428074E-01;  1.0077848E+04;  0.0000000E+00;  1.4283254E-05;  1.0000000E+04;  0.0000000E+00;  9.9874287E+03; -9.7434253E-01;  0.0000000E+00;  1.5006177E-01;  6.3626270E+03;
  5.3921020E-01;  9.9999998E-03;  1.0005518E-01;1886; -2.6022208E-01;  0.0000000E+00;  1.5259376E-02;  1.0033969E+03;  4.0004453E-01;  2.8142217E+03;3; -5.4615227E+01;  0.0000000E+00;  1.7103070E+00;0; -8.1909668E-01;  1.0078400E+04;  0.0000000E+00;  3.7181122E-05;  1.0000000E+04;  0.0000000E+00;  9.9874219E+03; -9.6631801E-01;  0.0000000E+00;  1.4722130E-01;  6.3712129E+03;
  5.3920233E-01;  9.9999998E-03;  1.2006687E-01;1887; -2.5911379E-01;  0.0000000E+00;  1.8179420E-02;  1.0034355E+03;  4.0004444E-01;  2.8462205E+03;3; -5.3265202E+01;  0.0000000E+00;  1.7888567E+00;0; -8.1453812E-01;  1.0079059E+04;  0.0000000E+00;  7.7739256E-05;  1.0000000E+04;  0.0000000E+00;  9.9875361E+03; -9.5701832E-01;  0.0000000E+00;  1.4248018E-01;  6.3232700E+03;
  5.3919345E-01;  9.9999998E-03;  1.4007856E-01;1888; -2.5783968E-01;  0.0000000E+00;  2.1014534E-02;  1.0034845E+03;  4.0004423E-01;  2.8868118E+03;3; -5.1710930E+01;  0.0000000E+00;  1.8356378E+00;0; -8.1095725E-01;  1.0079835E+04;  0.0000000E+00;  1.2666536E-04;  1.0000000E+04;  0.0000000E+00;  9.9877471E+03; -9.4684374E-01;  0.0000000E+00;  1.3588649E-01;  6.2323872E+03;
  5.5914539E-01;  9.9999998E-03; -1.6682060E-11;1912; -2.8480265E-01;  0.0000000E+00; -3.7733101E-09;  1.0034337E+03;  4.0011987E-01;  2.8447319E+03;3; -6.0468731E+01;  0.0000000E+00;  7.2055263E-06;0; -8.1529307E-01;  1.0077613E+04;  0.0000000E+00; -8.1705687E-15;  1.0000000E+04;  0.0000000E+00;  9.9851240E+03; -9.7331583E-01;  0.0000000E+00;  1.5802279E-01;  7.4968516E+03;
  5.5914450E-01;  9.9999998E-03;  2.0013327E-02;1913; -2.8465730E-01;  0.0000000E+00;  3.2164515E-03;  1.0034359E+03;  4.0011993E-01;  2.8465098E+03;3; -6.0315144E+01;  0.0000000E+00;  3.5258707E-01;0; -8.1414235E-01;  1.0077680E+04;  0.0000000E+00;  5.7661674E-07;  1.0000000E+04;  0.0000000E+00;  9.9850986E+03; -9.7236037E-01;  0.0000000E+00;  1.5821803E-01;  7.5097959E+03;
  5.5914193E-01;  9.9999998E-03;  4.0026698E-02;1914; -2.8422737E-01;  0.0000000E+00;  6.4113396E-03;  1.0034420E+03;  4.0012011E-01;  2.8516453E+03;3; -5.9859585E+01;  0.0000000E+00;  6.5168238E-01;0; -8.1082213E-01;  1.0077872E+04;  0.0000000E+00;  2.8425018E-06;  1.0000000E+04;  0.0000000E+00;  9.9850264E+03; -9.6949637E-01;  0.0000000E+00;  1.5867423E-01;  7.5437817E+03;
  5.5913776E-01;  9.9999998E-03;  6.0040187E-02;1915; -2.8353286E-01;  0.0000000E+00;  9.5839296E-03;  1.0034536E+03;  4.0011999E-01;  2.8611265E+03;3; -5.9121216E+01;  0.0000000E+00;  8.6320621E-01;0; -8.0575520E-01;  1.0078181E+04;  0.0000000E+00;  9.6123495E-06;  1.0000000E+04;  0.0000000E+00;  9.9849512E+03; -9.6473867E-01;  0.0000000E+00;  1.5898347E-01;  7.5830469E+03;
  5.5913198E-01;  9.9999998E-03;  8.0053903E-02;1916; -2.8260151E-01;  0.0000000E+00;  1.2748223E-02;  1.0034728E+03;  4.0011978E-01;  2.8771257E+03;3; -5.8119396E+01;  0.0000000E+00;  9.5398712E-01;0; -7.9969364E-01;  1.0078597E+04;  0.0000000E+00;  2.7327093E-05;  1.0000000E+04;  0.0000000E+00;  9.9849248E+03; -9.5813149E-01;  0.0000000E+00;  1.5843786E-01;  7.5999990E+03;
  5.5912471E-01;  9.9999998E-03;  1.0006791E-01;1917; -2.8146321E-01;  0.0000000E+00;  1.5915297E-02;  1.0035030E+03;  4.0011987E-01;  2.9021125E+03;3; -5.6870514E+01;  0.0000000E+00;  9.1305846E-01;0; -7.9367507E-01;  1.0079107E+04;  0.0000000E+00;  6.3498592E-05;  1.0000000E+04;  0.0000000E+00;  9.9850156E+03; -9.4979739E-01;  0.0000000E+00;  1.5612236E-01;  7.5604312E+03;
  5.5911613E-01;  9.9999998E-03;  1.2008212E-01;1918; -2.8013927E-01;  0.0000000E+00;  1.9060891E-02;  1.0035460E+03;  4.0011978E-01;  2.9377656E+03;3; -5.5406384E+01;  0.0000000E+00;  8.0899954E-01;0; -7.8870565E-01;  1.0079717E+04;  0.0000000E+00;  1.1627637E-04;  1.0000000E+04;  0.0000000E+00;  9.9852734E+03; -9.3999749E-01;  0.0000000E+00;  1.5129183E-01;  7.4423984E+03;
  5.5910641E-01;  9.9999998E-03;  1.4009608E-01;1919; -2.7862155E-01;  0.0000000E+00;  2.2098262E-02;  1.0036006E+03;  4.0011978E-01;  2.9829983E+03;3; -5.3728943E+01;  0.0000000E+00;  6.6906244E-01;0; -7.8516126E-01;  1.0080447E+04;  0.0000000E+00;  1.6167226E-04;  1.0000000E+04;  0.0000000E+00;  9.9856445E+03; -9.2919683E-01;  0.0000000E+00;  1.4403555E-01;  7.2706807E+03;
  5.7905978E-01;  9.9999998E-03; -1.0380893E-11;1943; -3.0655390E-01;  0.0000000E+00; -9.9004094E-10;  1.0036448E+03;  4.0031976E-01;  3.0196294E+03;3; -6.2906689E+01;  0.0000000E+00;  9.2456758E-06;0; -7.5463498E-01;  1.0074944E+04;  0.0000000E+00;  6.3051015E-15;  1.0000000E+04;  0.0000000E+00;  9.9819707E+03; -9.1797155E-01;  0.0000000E+00;  1.6333655E-01;  9.0479082E+03;
  5.7905883E-01;  9.9999998E-03;  2.0016409E-02;1944; -3.0638263E-01;  0.0000000E+00;  3.2837915E-03;  1.0036467E+03;  4.0031967E-01;  3.0211108E+03;3; -6.2734222E+01;  0.0000000E+00;  1.4798795E-01;0; -7.5315815E-01;  1.0075000E+04;  0.0000000E+00;  1.2427066E-06;  1.0000000E+04;  0.0000000E+00;  9.9819502E+03; -9.1702414E-01;  0.0000000E+00;  1.6386600E-01;  9.0579717E+03;
  5.7905602E-01;  9.9999998E-03;  4.0032856E-02;1945; -3.0587599E-01;  0.0000000E+00;  6.5715332E-03;  1.0036526E+03;  4.0031978E-01;  3.0261477E+03;3; -6.2216755E+01;  0.0000000E+00;  2.5664529E-01;0; -7.4891281E-01;  1.0075173E+04;  0.0000000E+00;  5.5647934E-06;  1.0000000E+04;  0.0000000E+00;  9.9818994E+03; -9.1415989E-01;  0.0000000E+00;  1.6524710E-01;  9.0827451E+03;
  5.7905138E-01;  9.9999998E-03;  6.0049444E-02;1946; -3.0506334E-01;  0.0000000E+00;  9.8705105E-03;  1.0036633E+03;  4.0031967E-01;  3.0349375E+03;3; -6.1388840E+01;  0.0000000E+00;  2.5991622E-01;0; -7.4246973E-01;  1.0075437E+04;  0.0000000E+00;  1.6459901E-05;  1.0000000E+04;  0.0000000E+00;  9.9818525E+03; -9.0932405E-01;  0.0000000E+00;  1.6685431E-01;  9.1043809E+03;
  5.7904512E-01;  9.9999998E-03;  8.0066323E-02;1947; -3.0397141E-01;  0.0000000E+00;  1.3221930E-02;  1.0036818E+03;  4.0031961E-01;  3.0502454E+03;3; -6.0283077E+01;  0.0000000E+00;  1.6126288E-01;0; -7.3479766E-01;  1.0075790E+04;  0.0000000E+00;  4.1146555E-05;  1.0000000E+04;  0.0000000E+00;  9.9818789E+03; -9.0247130E-01;  0.0000000E+00;  1.6767365E-01;  9.0918223E+03;
  5.7903725E-01;  9.9999998E-03;  1.0008355E-01;1948; -3.0263290E-01;  0.0000000E+00;  1.6634179E-02;  1.0037115E+03;  4.0031952E-01;  3.0749358E+03;3; -5.8897152E+01;  0.0000000E+00; -2.1333922E-02;0; -7.2715569E-01;  1.0076208E+04;  0.0000000E+00;  8.2556078E-05;  1.0000000E+04;  0.0000000E+00;  9.9820527E+03; -8.9364648E-01;  0.0000000E+00;  1.6649079E-01;  9.0088936E+03;
  5.7902795E-01;  9.9999998E-03;  1.2010095E-01;1949; -3.0105445E-01;  0.0000000E+00;  2.0057026E-02;  1.0037541E+03;  4.0031943E-01;  3.1101936E+03;3; -5.7299740E+01;  0.0000000E+00; -3.6217541E-01;0; -7.2068453E-01;  1.0076708E+04;  0.0000000E+00;  1.2127817E-04;  1.0000000E+04;  0.0000000E+00;  9.9824131E+03; -8.8307959E-01;  0.0000000E+00;  1.6239507E-01;  8.8393369E+03;
  5.7901764E-01;  9.9999998E-03;  1.4011790E-01;1950; -2.9921806E-01;  0.0000000E+00;  2.3385232E-02;  1.0038064E+03;  4.0031943E-01;  3.1534512E+03;3; -5.5483273E+01;  0.0000000E+00; -6.7638755E-01;0; -7.1577084E-01;  1.0077308E+04;  0.0000000E+00;  1.1650305E-04;  1.0000000E+04;  0.0000000E+00;  9.9828711E+03; -8.7125915E-01;  0.0000000E+00;  1.5548830E-01;  8.6237930E+03;
  5.9897774E-01;  9.9999998E-03;  7.1454201E-12;1974; -3.2684287E-01;  0.0000000E+00;  4.2881827E-09;  1.0043332E+03;  4.0082756E-01;  3.5898616E+03;3; -6.5013077E+01;  0.0000000E+00;  1.0290532E-05;0; -6.3833380E-01;  1.0067154E+04;  0.0000000E+00; -1.4916204E-14;  1.0000000E+04;  0.0000000E+00;  9.9781533E+03; -8.0785054E-01;  0.0000000E+00;  1.6951677E-01;  1.0909788E+04;
  5.9897667E-01;  9.9999998E-03;  2.0020114E-02;1975; -3.2665274E-01;  0.0000000E+00;  3.3197636E-03;  1.0043347E+03;  4.0082750E-01;  3.5911455E+03;3; -6.4830330E+01;  0.0000000E+00; -8.7233499E-02;0; -6.3641769E-01;  1.0067195E+04;  0.0000000E+00;  2.1804733E-06;  1.0000000E+04;  0.0000000E+00;  9.9781416E+03; -8.0683982E-01;  0.0000000E+00;  1.7042214E-01;  1.0914595E+04;
  5.9897357E-01;  9.9999998E-03;  4.0040240E-02;1976; -3.2608375E-01;  0.0000000E+00;  6.6741868E-03;  1.0043395E+03;  4.0082735E-01;  3.5950959E+03;3; -6.4241722E+01;  0.0000000E+00; -2.2842669E-01;0; -6.3089287E-01;  1.0067316E+04;  0.0000000E+00;  8.5852353E-06;  1.0000000E+04;  0.0000000E+00;  9.9781162E+03; -8.0376089E-01;  0.0000000E+00;  1.7286801E-01;  1.0924341E+04;
  5.9896851E-01;  9.9999998E-03;  6.0060509E-02;1977; -3.2517242E-01;  0.0000000E+00;  1.0087666E-02;  1.0043483E+03;  4.0082741E-01;  3.6024043E+03;3; -6.3307354E+01;  0.0000000E+00; -4.6563703E-01;0; -6.2242514E-01;  1.0067503E+04;  0.0000000E+00;  2.1487636E-05;  1.0000000E+04;  0.0000000E+00;  9.9781094E+03; -7.9848510E-01;  0.0000000E+00;  1.7605996E-01;  1.0922746E+04;
  5.9896171E-01;  9.9999998E-03;  8.0081150E-02;1978; -3.2393691E-01;  0.0000000E+00;  1.3626034E-02;  1.0043633E+03;  4.0082729E-01;  3.6148481E+03;3; -6.2082745E+01;  0.0000000E+00; -8.2273567E-01;0; -6.1212301E-01;  1.0067736E+04;  0.0000000E+00;  4.5119228E-05;  1.0000000E+04;  0.0000000E+00;  9.9781914E+03; -7.9088217E-01;  0.0000000E+00;  1.7875916E-01;  1.0880855E+04;
  5.9895337E-01;  9.9999998E-03;  1.0010223E-01;1979; -3.2240039E-01;  0.0000000E+00;  1.7310547E-02;  1.0043878E+03;  4.0082684E-01;  3.6351929E+03;3; -6.0605511E+01;  0.0000000E+00; -1.2708871E+00;0; -6.0137296E-01;  1.0068000E+04;  0.0000000E+00;  6.7740490E-05;  1.0000000E+04;  0.0000000E+00;  9.9784199E+03; -7.8092253E-01;  0.0000000E+00;  1.7954960E-01;  1.0768350E+04;
  5.9894365E-01;  9.9999998E-03;  1.2012345E-01;1980; -3.2054812E-01;  0.0000000E+00;  2.1081256E-02;  1.0044213E+03;  4.0082672E-01;  3.6629448E+03;3; -5.8849903E+01;  0.0000000E+00; -1.8167822E+00;0; -5.9140456E-01;  1.0068302E+04;  0.0000000E+00;  4.2437918E-05;  1.0000000E+04;  0.0000000E+00;  9.9788008E+03; -7.6878732E-01;  0.0000000E+00;  1.7738275E-01;  1.0582423E+04;
  5.9893280E-01;  9.9999998E-03;  1.4014398E-01;1981; -3.1837866E-01;  0.0000000E+00;  2.4708197E-02;  1.0044598E+03;  4.0082654E-01;  3.6948445E+03;3; -5.6932930E+01;  0.0000000E+00; -2.4415781E+00;0; -5.8278483E-01;  1.0068656E+04;  0.0000000E+00; -7.6217308E-05;  1.0000000E+04;  0.0000000E+00;  9.9792295E+03; -7.5496227E-01;  0.0000000E+00;  1.7217743E-01;  1.0378593E+04;
  6.1890435E-01;  9.9999998E-03; -1.3796125E-12;2005; -3.4420627E-01;  0.0000000E+00;  5.0437308E-09;  1.0062401E+03;  4.0199304E-01;  5.1697100E+03;3; -6.6550957E+01;  0.0000000E+00; -7.9126039E-08;0; -4.3472636E-01;  1.0051759E+04;  0.0000000E+00; -6.9399794E-15;  1.0000000E+04;  0.0000000E+00;  9.9735088E+03; -6.1372793E-01;  0.0000000E+00;  1.7900155E-01;  1.3146483E+04;
  6.1890322E-01;  9.9999998E-03;  2.0024478E-02;2006; -3.4400421E-01;  0.0000000E+00;  3.2610195E-03;  1.0062412E+03;  4.0199304E-01;  5.1705986E+03;3; -6.6339371E+01;  0.0000000E+00; -4.3911979E-01;0; -4.3224153E-01;  1.0051776E+04;  0.0000000E+00;  2.7003091E-06;  1.0000000E+04;  0.0000000E+00;  9.9735127E+03; -6.1251926E-01;  0.0000000E+00;  1.8027773E-01;  1.3142758E+04;
  6.1889988E-01;  9.9999998E-03;  4.0048879E-02;2007; -3.4339589E-01;  0.0000000E+00;  6.5854373E-03;  1.0062439E+03;  4.0199283E-01;  5.1728701E+03;3; -6.5685844E+01;  0.0000000E+00; -9.3921214E-01;0; -4.2501220E-01;  1.0051821E+04;  0.0000000E+00;  8.2952311E-06;  1.0000000E+04;  0.0000000E+00;  9.9735313E+03; -6.0882646E-01;  0.0000000E+00;  1.8381426E-01;  1.3129605E+04;
  6.1889440E-01;  9.9999998E-03;  6.0073406E-02;2008; -3.4240991E-01;  0.0000000E+00;  1.0062267E-02;  1.0062492E+03;  4.0199277E-01;  5.1772153E+03;3; -6.4668243E+01;  0.0000000E+00; -1.4660745E+00;0; -4.1372019E-01;  1.0051884E+04;  0.0000000E+00;  1.3933396E-05;  1.0000000E+04;  0.0000000E+00;  9.9735791E+03; -6.0247511E-01;  0.0000000E+00;  1.8875490E-01;  1.3097593E+04;
  6.1888719E-01;  9.9999998E-03;  8.0098271E-02;2009; -3.4108618E-01;  0.0000000E+00;  1.3736356E-02;  1.0062573E+03;  4.0199247E-01;  5.1839312E+03;3; -6.3360294E+01;  0.0000000E+00; -2.1673093E+00;0; -3.9950410E-01;  1.0051935E+04;  0.0000000E+00;  1.4893712E-05;  1.0000000E+04;  0.0000000E+00;  9.9737109E+03; -5.9328187E-01;  0.0000000E+00;  1.9377777E-01;  1.3027437E+04;
  6.1887842E-01;  9.9999998E-03;  1.0012346E-01;2010; -3.3938435E-01;  0.0000000E+00;  1.7671032E-02;  1.0062700E+03;  4.0199214E-01;  5.1943999E+03;3; -6.1795116E+01;  0.0000000E+00; -2.9161146E+00;0; -3.8380504E-01;  1.0051959E+04;  0.0000000E+00; -2.3229410E-05;  1.0000000E+04;  0.0000000E+00;  9.9739531E+03; -5.8117169E-01;  0.0000000E+00;  1.9736665E-01;  1.2902960E+04;
  6.1886829E-01;  9.9999998E-03;  1.2014869E-01;2011; -3.3730814E-01;  0.0000000E+00;  2.1719035E-02;  1.0062855E+03;  4.0199155E-01;  5.2073374E+03;3; -5.9954170E+01;  0.0000000E+00; -3.6799207E+00;0; -3.6804777E-01;  1.0051962E+04;  0.0000000E+00; -1.7183583E-04;  1.0000000E+04;  0.0000000E+00;  9.9742803E+03; -5.6629407E-01;  0.0000000E+00;  1.9824632E-01;  1.2737935E+04;
  6.1885715E-01;  9.9999998E-03;  1.4017308E-01;2012; -3.3484551E-01;  0.0000000E+00;  2.5663264E-02;  1.0062978E+03;  4.0199140E-01;  5.2175098E+03;3; -5.7891293E+01;  0.0000000E+00; -4.5580001E+00;0; -3.5324931E-01;  1.0051938E+04;  0.0000000E+00; -4.5812191E-04;  1.0000000E+04;  0.0000000E+00;  9.9745742E+03; -5.4906696E-01;  0.0000000E+00;  1.9581766E-01;  1.2594568E+04;
  6.3884306E-01;  9.9999998E-03;  3.4601724E-11;2036; -3.5799083E-01;  0.0000000E+00;  1.0158169E-08;  1.0100295E+03;  4.0414250E-01;  8.3089385E+03;3; -6.7354004E+01;  0.0000000E+00; -7.6773540E-07;0; -1.0081574E-01;  1.0026040E+04;  0.0000000E+00;  6.5351954E-16;  1.0000000E+04;  0.0000000E+00;  9.9678848E+03; -2.9607317E-01;  0.0000000E+00;  1.9525743E-01;  1.5820984E+04;
  6.3884187E-01;  9.9999998E-03;  2.0028934E-02;2037; -3.5777235E-01;  0.0000000E+00;  3.1007621E-03;  1.0100300E+03;  4.0414229E-01;  8.3094326E+03;3; -6.7126808E+01;  0.0000000E+00; -1.0651661E+00;0; -9.7691178E-02;  1.0026022E+04;  0.0000000E+00;  1.0124073E-06;  1.0000000E+04;  0.0000000E+00;  9.9679160E+03; -2.9452062E-01;  0.0000000E+00;  1.9682944E-01;  1.5804534E+04;
  6.3883829E-01;  9.9999998E-03;  4.0057775E-02;2038; -3.5715410E-01;  0.0000000E+00;  6.3615213E-03;  1.0100304E+03;  4.0414208E-01;  8.3097285E+03;3; -6.6512260E+01;  0.0000000E+00; -1.9834691E+00;0; -8.8500842E-02;  1.0025962E+04;  0.0000000E+00; -3.1339073E-06;  1.0000000E+04;  0.0000000E+00;  9.9679951E+03; -2.8979450E-01;  0.0000000E+00;  2.0129366E-01;  1.5758181E+04;
  6.3883251E-01;  9.9999998E-03;  6.0086634E-02;2039; -3.5613957E-01;  0.0000000E+00;  9.8583149E-03;  1.0100300E+03;  4.0414178E-01;  8.3094326E+03;3; -6.5445839E+01;  0.0000000E+00; -2.9072518E+00;0; -7.3842585E-02;  1.0025847E+04;  0.0000000E+00; -2.4790563E-05;  1.0000000E+04;  0.0000000E+00;  9.9681201E+03; -2.8172913E-01;  0.0000000E+00;  2.0788655E-01;  1.5685434E+04;
  6.3882482E-01;  9.9999998E-03;  8.0115855E-02;2040; -3.5472739E-01;  0.0000000E+00;  1.3648068E-02;  1.0100287E+03;  4.0414140E-01;  8.3083467E+03;3; -6.4034859E+01;  0.0000000E+00; -3.8385305E+00;0; -5.4794163E-02;  1.0025654E+04;  0.0000000E+00; -8.1067861E-05;  1.0000000E+04;  0.0000000E+00;  9.9682998E+03; -2.7015817E-01;  0.0000000E+00;  2.1536401E-01;  1.5584321E+04;
  6.3881558E-01;  9.9999998E-03;  1.0014550E-01;2041; -3.5289910E-01;  0.0000000E+00;  1.7708510E-02;  1.0100241E+03;  4.0414086E-01;  8.3044951E+03;3; -6.2403049E+01;  0.0000000E+00; -4.9137630E+00;0; -3.2882214E-02;  1.0025358E+04;  0.0000000E+00; -2.2153425E-04;  1.0000000E+04;  0.0000000E+00;  9.9685332E+03; -2.5503296E-01;  0.0000000E+00;  2.2215074E-01;  1.5457304E+04;
  6.3880515E-01;  9.9999998E-03;  1.2017509E-01;2042; -3.5061532E-01;  0.0000000E+00;  2.1879379E-02;  1.0100137E+03;  4.0414008E-01;  8.2959023E+03;3; -6.0491951E+01;  0.0000000E+00; -5.9371977E+00;0; -9.9429935E-03;  1.0024952E+04;  0.0000000E+00; -5.1566883E-04;  1.0000000E+04;  0.0000000E+00;  9.9687754E+03; -2.3649377E-01;  0.0000000E+00;  2.2655077E-01;  1.5330409E+04;
  6.3879389E-01;  9.9999998E-03;  1.4020354E-01;2043; -3.4789199E-01;  0.0000000E+00;  2.5957596E-02;  1.0099915E+03;  4.0413946E-01;  8.2775332E+03;3; -5.8371731E+01;  0.0000000E+00; -7.0001345E+00;0;  1.2273133E-02;  1.0024409E+04;  0.0000000E+00; -9.4133534E-04;  1.0000000E+04;  0.0000000E+00;  9.9689150E+03; -2.1479315E-01;  0.0000000E+00;  2.2706628E-01;  1.5259442E+04;
  6.5879679E-01;  9.9999998E-03; -2.6194543E-12;2067; -3.6755937E-01;  0.0000000E+00;  1.5957859E-08;  1.0146038E+03;  4.0687227E-01;  1.2098411E+04;3; -6.7608948E+01;  0.0000000E+00;  6.5082641E-06;0;  3.9941978E-01;  9.9884531E+03;  0.0000000E+00;  1.1480046E-14;  1.0000000E+04;  0.0000000E+00;  9.9612285E+03;  1.7801517E-01;  0.0000000E+00;  2.2140461E-01;  1.8949471E+04;
  6.5879554E-01;  9.9999998E-03;  2.0033972E-02;2068; -3.6734378E-01;  0.0000000E+00;  2.8717197E-03;  1.0146037E+03;  4.0687221E-01;  1.2098411E+04;3; -6.7316223E+01;  0.0000000E+00; -1.4755001E+00;0;  4.0307176E-01;  9.9883906E+03;  0.0000000E+00; -4.8562847E-06;  1.0000000E+04;  0.0000000E+00;  9.9612900E+03;  1.7996217E-01;  0.0000000E+00;  2.2310960E-01;  1.8915105E+04;
  6.5879190E-01;  9.9999998E-03;  4.0067803E-02;2069; -3.6674160E-01;  0.0000000E+00;  5.8667040E-03;  1.0146025E+03;  4.0687218E-01;  1.2097424E+04;3; -6.6563362E+01;  0.0000000E+00; -2.9117966E+00;0;  4.1393051E-01;  9.9882041E+03;  0.0000000E+00; -3.2281165E-05;  1.0000000E+04;  0.0000000E+00;  9.9614600E+03;  1.8584427E-01;  0.0000000E+00;  2.2808623E-01;  1.8822307E+04;
  6.5878594E-01;  9.9999998E-03;  6.0101327E-02;2070; -3.6574671E-01;  0.0000000E+00;  9.1620749E-03;  1.0145969E+03;  4.0687186E-01;  1.2092782E+04;3; -6.5518967E+01;  0.0000000E+00; -4.2715364E+00;0;  4.3158668E-01;  9.9878721E+03;  0.0000000E+00; -1.0519898E-04;  1.0000000E+04;  0.0000000E+00;  9.9616943E+03;  1.9574913E-01;  0.0000000E+00;  2.3583753E-01;  1.8693127E+04;
  6.5877807E-01;  9.9999998E-03;  8.0134980E-02;2071; -3.6433026E-01;  0.0000000E+00;  1.2880182E-02;  1.0145839E+03;  4.0687138E-01;  1.2082018E+04;3; -6.4133636E+01;  0.0000000E+00; -5.6255279E+00;0;  4.5507240E-01;  9.9873789E+03;  0.0000000E+00; -2.4327582E-04;  1.0000000E+04;  0.0000000E+00;  9.9619551E+03;  2.0972323E-01;  0.0000000E+00;  2.4534917E-01;  1.8548066E+04;
  6.5876877E-01;  9.9999998E-03;  1.0016934E-01;2072; -3.6241558E-01;  0.0000000E+00;  1.6962223E-02;  1.0145609E+03;  4.0687087E-01;  1.2062957E+04;3; -6.2462692E+01;  0.0000000E+00; -7.0338821E+00;0;  4.8267066E-01;  9.9867012E+03;  0.0000000E+00; -4.7981899E-04;  1.0000000E+04;  0.0000000E+00;  9.9622051E+03;  2.2769879E-01;  0.0000000E+00;  2.5497189E-01;  1.8406984E+04;
  6.5875864E-01;  9.9999998E-03;  1.2020412E-01;2073; -3.5995126E-01;  0.0000000E+00;  2.1285580E-02;  1.0145244E+03;  4.0687022E-01;  1.2032737E+04;3; -6.0610344E+01;  0.0000000E+00; -8.4897156E+00;0;  5.1185036E-01;  9.9858145E+03;  0.0000000E+00; -8.3763490E-04;  1.0000000E+04;  0.0000000E+00;  9.9623994E+03;  2.4949892E-01;  0.0000000E+00;  2.6235145E-01;  1.8297578E+04;
  6.5874767E-01;  9.9999998E-03;  1.4023791E-01;2074; -3.5699007E-01;  0.0000000E+00;  2.5660312E-02;  1.0144691E+03;  4.0686986E-01;  1.1986913E+04;3; -5.8397118E+01;  0.0000000E+00; -9.9313965E+00;0;  5.3975999E-01;  9.9846816E+03;  0.0000000E+00; -1.2205869E-03;  1.0000000E+04;  0.0000000E+00;  9.9624697E+03;  2.7502817E-01;  0.0000000E+00;  2.6473179E-01;  1.8254213E+04;
  6.7877275E-01;  9.9999998E-03;  1.7784963E-11;2098; -3.7279528E-01;  0.0000000E+00;  1.6773964E-08;  1.0172755E+03;  4.0907758E-01;  1.4311678E+04;3; -6.7152145E+01;  0.0000000E+00;  7.5389617E-06;0;  1.0673671E+00;  9.9404277E+03;  0.0000000E+00;  3.5710929E-14;  1.0000000E+04;  0.0000000E+00;  9.9537305E+03;  8.0929142E-01;  0.0000000E+00;  2.5807562E-01;  2.2437541E+04;
  6.7877167E-01;  9.9999998E-03;  2.0043548E-02;2099; -3.7256750E-01;  0.0000000E+00;  2.8162391E-03;  1.0172753E+03;  4.0907738E-01;  1.4311480E+04;3; -6.6953339E+01;  0.0000000E+00; -2.6182301E+00;0;  1.0711371E+00;  9.9403213E+03;  0.0000000E+00; -1.3883974E-05;  1.0000000E+04;  0.0000000E+00;  9.9538428E+03;  8.1146216E-01;  0.0000000E+00;  2.5967488E-01;  2.2379725E+04;
  6.7876852E-01;  9.9999998E-03;  4.0085871E-02;2100; -3.7188593E-01;  0.0000000E+00;  5.8258208E-03;  1.0172737E+03;  4.0907735E-01;  1.4310098E+04;3; -6.6383942E+01;  0.0000000E+00; -5.0170989E+00;0;  1.0824785E+00;  9.9400000E+03;  0.0000000E+00; -7.2397954E-05;  1.0000000E+04;  0.0000000E+00;  9.9541338E+03;  8.1796461E-01;  0.0000000E+00;  2.6451385E-01;  2.2225641E+04;
  6.7876321E-01;  9.9999998E-03;  6.0126700E-02;2101; -3.7074599E-01;  0.0000000E+00;  9.2241680E-03;  1.0172648E+03;  4.0907735E-01;  1.4302789E+04;3; -6.5462311E+01;  0.0000000E+00; -7.1305575E+00;0;  1.1012557E+00;  9.9394395E+03;  0.0000000E+00; -2.0101278E-04;  1.0000000E+04;  0.0000000E+00;  9.9545205E+03;  8.2873654E-01;  0.0000000E+00;  2.7251908E-01;  2.2019471E+04;
  6.7875612E-01;  9.9999998E-03;  8.0166966E-02;2102; -3.6911309E-01;  0.0000000E+00;  1.3151547E-02;  1.0172435E+03;  4.0907711E-01;  1.4285112E+04;3; -6.4104607E+01;  0.0000000E+00; -8.8836679E+00;0;  1.1266490E+00;  9.9386396E+03;  0.0000000E+00; -4.0117046E-04;  1.0000000E+04;  0.0000000E+00;  9.9549121E+03;  8.4360814E-01;  0.0000000E+00;  2.8304085E-01;  2.1804949E+04;
  6.7874771E-01;  9.9999998E-03;  1.0020754E-01;2103; -3.6690870E-01;  0.0000000E+00;  1.7513368E-02;  1.0172067E+03;  4.0907705E-01;  1.4254596E+04;3; -6.2426895E+01;  0.0000000E+00; -1.0545740E+01;0;  1.1566236E+00;  9.9375781E+03;  0.0000000E+00; -6.5062172E-04;  1.0000000E+04;  0.0000000E+00;  9.9552529E+03;  8.6229444E-01;  0.0000000E+00;  2.9432920E-01;  2.1613115E+04;
  6.7873865E-01;  9.9999998E-03;  1.2024876E-01;2104; -3.6403668E-01;  0.0000000E+00;  2.2321364E-02;  1.0171511E+03;  4.0907696E-01;  1.4208575E+04;3; -6.0548336E+01;  0.0000000E+00; -1.2245939E+01;0;  1.1876559E+00;  9.9362324E+03;  0.0000000E+00; -8.8799372E-04;  1.0000000E+04;  0.0000000E+00;  9.9555273E+03;  8.8448310E-01;  0.0000000E+00;  3.0317283E-01;  2.1460242E+04;
  6.7872918E-01;  9.9999998E-03;  1.4028928E-01;2105; -3.6048245E-01;  0.0000000E+00;  2.7485901E-02;  1.0170756E+03;  4.0907693E-01;  1.4146062E+04;3; -5.8232391E+01;  0.0000000E+00; -1.3800452E+01;0;  1.2153965E+00;  9.9345430E+03;  0.0000000E+00; -9.5607474E-04;  1.0000000E+04;  0.0000000E+00;  9.9557314E+03;  9.1009885E-01;  0.0000000E+00;  3.0529767E-01;  2.1346352E+04;
  6.9878507E-01;  9.9999998E-03;  4.3080588E-11;2129; -3.7218919E-01;  0.0000000E+00;  2.6295934E-08;  1.0172147E+03;  4.1029814E-01;  1.4260932E+04;3; -6.6782494E+01;  0.0000000E+00;  2.0685984E-05;0;  1.8434885E+00;  9.8877021E+03;  0.0000000E+00;  2.6701892E-14;  1.0000000E+04;  0.0000000E+00;  9.9459521E+03;  1.5421664E+00;  0.0000000E+00;  3.0132204E-01;  2.6038201E+04;
  6.9878441E-01;  9.9999998E-03;  2.0056307E-02;2130; -3.7185735E-01;  0.0000000E+00;  4.4004698E-03;  1.0172154E+03;  4.1029802E-01;  1.4261524E+04;3; -6.6547859E+01;  0.0000000E+00; -3.9773510E+00;0;  1.8466551E+00;  9.8875508E+03;  0.0000000E+00; -1.9902885E-05;  1.0000000E+04;  0.0000000E+00;  9.9461152E+03;  1.5441034E+00;  0.0000000E+00;  3.0255172E-01;  2.5952357E+04;
  6.9878227E-01;  9.9999998E-03;  4.0110964E-02;2131; -3.7083521E-01;  0.0000000E+00;  8.9188041E-03;  1.0172147E+03;  4.1029826E-01;  1.4260932E+04;3; -6.6127136E+01;  0.0000000E+00; -7.6401539E+00;0;  1.8563553E+00;  9.8870938E+03;  0.0000000E+00; -9.5507647E-05;  1.0000000E+04;  0.0000000E+00;  9.9465586E+03;  1.5498412E+00;  0.0000000E+00;  3.0651414E-01;  2.5723627E+04;
  6.9877851E-01;  9.9999998E-03;  6.0163207E-02;2132; -3.6905754E-01;  0.0000000E+00;  1.3621438E-02;  1.0172058E+03;  4.1029835E-01;  1.4253624E+04;3; -6.5209305E+01;  0.0000000E+00; -1.0484183E+01;0;  1.8728205E+00;  9.8863340E+03;  0.0000000E+00; -2.4436702E-04;  1.0000000E+04;  0.0000000E+00;  9.9471377E+03;  1.5591319E+00;  0.0000000E+00;  3.1368861E-01;  2.5418576E+04;
  6.9877338E-01;  9.9999998E-03;  8.0213934E-02;2133; -3.6667502E-01;  0.0000000E+00;  1.8558880E-02;  1.0171819E+03;  4.1029862E-01;  1.4233873E+04;3; -6.3922371E+01;  0.0000000E+00; -1.2773521E+01;0;  1.8954450E+00;  9.8852695E+03;  0.0000000E+00; -4.3810718E-04;  1.0000000E+04;  0.0000000E+00;  9.9477344E+03;  1.5715528E+00;  0.0000000E+00;  3.2389227E-01;  2.5101418E+04;
  6.9876760E-01;  9.9999998E-03;  1.0026442E-01;2134; -3.6358684E-01;  0.0000000E+00;  2.3826856E-02;  1.0171398E+03;  4.1029859E-01;  1.4198914E+04;3; -6.2187710E+01;  0.0000000E+00; -1.4620625E+01;0;  1.9218082E+00;  9.8838926E+03;  0.0000000E+00; -5.9187465E-04;  1.0000000E+04;  0.0000000E+00;  9.9482813E+03;  1.5865436E+00;  0.0000000E+00;  3.3526471E-01;  2.4806145E+04;
  6.9876230E-01;  9.9999998E-03;  1.2031627E-01;2135; -3.5965580E-01;  0.0000000E+00;  2.9722489E-02;  1.0170803E+03;  4.1029915E-01;  1.4149635E+04;3; -6.0047516E+01;  0.0000000E+00; -1.6374537E+01;0;  1.9472255E+00;  9.8821992E+03;  0.0000000E+00; -5.7867583E-04;  1.0000000E+04;  0.0000000E+00;  9.9488037E+03;  1.6035658E+00;  0.0000000E+00;  3.4365961E-01;  2.4526795E+04;
  6.9875824E-01;  9.9999998E-03;  1.4036913E-01;2136; -3.5451862E-01;  0.0000000E+00;  3.6808476E-02;  1.0170062E+03;  4.1029951E-01;  1.4088308E+04;3; -5.7565731E+01;  0.0000000E+00; -1.7873396E+01;0;  1.9655623E+00;  9.8801484E+03;  0.0000000E+00; -2.3716173E-04;  1.0000000E+04;  0.0000000E+00;  9.9493926E+03;  1.6223429E+00;  0.0000000E+00;  3.4321934E-01;  2.4222996E+04;
  7.1895504E-01;  9.9999998E-03; -1.8603770E-11;2160; -3.4297737E-01;  0.0000000E+00;  1.1322292E-08;  1.0157197E+03;  4.1083905E-01;  1.3022191E+04;3; -6.7608055E+01;  0.0000000E+00; -7.2507828E-06;0;  2.6027882E+00;  9.8397939E+03;  0.0000000E+00;  6.5373020E-14;  1.0000000E+04;  0.0000000E+00;  9.9386934E+03;  2.2603331E+00;  0.0000000E+00;  3.4245518E-01;  2.9395777E+04;
  7.1895379E-01;  9.9999998E-03;  2.0072846E-02;2161; -3.4254268E-01;  0.0000000E+00;  9.1806846E-03;  1.0157220E+03;  4.1083884E-01;  1.3024068E+04;3; -6.7191833E+01;  0.0000000E+00; -4.0228715E+00;0;  2.6044874E+00;  9.8396084E+03;  0.0000000E+00; -1.4702153E-05;  1.0000000E+04;  0.0000000E+00;  9.9389238E+03;  2.2613626E+00;  0.0000000E+00;  3.4312481E-01;  2.9278227E+04;
  7.1895027E-01;  9.9999998E-03;  4.0143482E-02;2162; -3.4118393E-01;  0.0000000E+00;  1.8199157E-02;  1.0157247E+03;  4.1083899E-01;  1.3026341E+04;3; -6.5905022E+01;  0.0000000E+00; -7.6470327E+00;0;  2.6099834E+00;  9.8390498E+03;  0.0000000E+00; -7.0920680E-05;  1.0000000E+04;  0.0000000E+00;  9.9395400E+03;  2.2643168E+00;  0.0000000E+00;  3.4566662E-01;  2.8963400E+04;
  7.1894497E-01;  9.9999998E-03;  6.0211409E-02;2163; -3.3878782E-01;  0.0000000E+00;  2.7038164E-02;  1.0157201E+03;  4.1083935E-01;  1.3022489E+04;3; -6.3884300E+01;  0.0000000E+00; -1.0630507E+01;0;  2.6199825E+00;  9.8381328E+03;  0.0000000E+00; -1.7663695E-04;  1.0000000E+04;  0.0000000E+00;  9.9403623E+03;  2.2688115E+00;  0.0000000E+00;  3.5117102E-01;  2.8538582E+04;
  7.1893871E-01;  9.9999998E-03;  8.0278277E-02;2164; -3.3530617E-01;  0.0000000E+00;  3.5959825E-02;  1.0157003E+03;  4.1083989E-01;  1.3006096E+04;3; -6.1287659E+01;  0.0000000E+00; -1.2983882E+01;0;  2.6341889E+00;  9.8368779E+03;  0.0000000E+00; -2.9047939E-04;  1.0000000E+04;  0.0000000E+00;  9.9412324E+03;  2.2742164E+00;  0.0000000E+00;  3.5997254E-01;  2.8084789E+04;
  7.1893233E-01;  9.9999998E-03;  1.0034670E-01;2165; -3.3061108E-01;  0.0000000E+00;  4.5371037E-02;  1.0156639E+03;  4.1084003E-01;  1.2975878E+04;3; -5.8130310E+01;  0.0000000E+00; -1.4941084E+01;0;  2.6498952E+00;  9.8353037E+03;  0.0000000E+00; -3.1305134E-04;  1.0000000E+04;  0.0000000E+00;  9.9420918E+03;  2.2797422E+00;  0.0000000E+00;  3.7015295E-01;  2.7633588E+04;
  7.1892703E-01;  9.9999998E-03;  1.2041777E-01;2166; -3.2431915E-01;  0.0000000E+00;  5.5483904E-02;  1.0156160E+03;  4.1084072E-01;  1.2936180E+04;3; -5.4498596E+01;  0.0000000E+00; -1.6637871E+01;0;  2.6613357E+00;  9.8334482E+03;  0.0000000E+00; -1.2383384E-04;  1.0000000E+04;  0.0000000E+00;  9.9430117E+03;  2.2845886E+00;  0.0000000E+00;  3.7674716E-01;  2.7154094E+04;
  7.1892345E-01;  9.9999998E-03;  1.4048941E-01;2167; -3.1654555E-01;  0.0000000E+00;  6.6333383E-02;  1.0155657E+03;  4.1084141E-01;  1.2894604E+04;3; -5.0490795E+01;  0.0000000E+00; -1.7995058E+01;0;  2.6606407E+00;  9.8313105E+03;  0.0000000E+00;  3.8074801E-04;  1.0000000E+04;  0.0000000E+00;  9.9441709E+03;  2.2881007E+00;  0.0000000E+00;  3.7253997E-01;  2.6571408E+04;
  7.3931372E-01;  9.9999998E-03;  6.7273534E-11;2191; -2.3203421E-01;  0.0000000E+00;  2.7230410E-08;  1.0142391E+03;  4.1105428E-01;  1.1795253E+04;3; -4.6402870E+01;  0.0000000E+00;  2.6116497E-05;0;  3.1803851E+00;  9.8067490E+03;  0.0000000E+00;  4.3718078E-14;  1.0000000E+04;  0.0000000E+00;  9.9328047E+03;  2.8091102E+00;  0.0000000E+00;  3.7127486E-01;  3.2142436E+04;
  7.3931301E-01;  9.9999998E-03;  2.0078244E-02;2192; -2.3152947E-01;  0.0000000E+00;  9.0259556E-03;  1.0142436E+03;  4.1105452E-01;  1.1798906E+04;3; -4.6000462E+01;  0.0000000E+00; -5.0093327E+00;0;  3.1800621E+00;  9.8065400E+03;  0.0000000E+00; -3.8690240E-07;  1.0000000E+04;  0.0000000E+00;  9.9330986E+03;  2.8086922E+00;  0.0000000E+00;  3.7136984E-01;  3.1991705E+04;
  7.3931098E-01;  9.9999998E-03;  4.0153727E-02;2193; -2.3000474E-01;  0.0000000E+00;  1.7809814E-02;  1.0142527E+03;  4.1105455E-01;  1.1806511E+04;3; -4.4826607E+01;  0.0000000E+00; -9.5231333E+00;0;  3.1796887E+00;  9.8059180E+03;  0.0000000E+00; -1.0206279E-05;  1.0000000E+04;  0.0000000E+00;  9.9339053E+03;  2.8072801E+00;  0.0000000E+00;  3.7240857E-01;  3.1584998E+04;
  7.3930818E-01;  9.9999998E-03;  6.0225580E-02;2194; -2.2743170E-01;  0.0000000E+00;  2.6278114E-02;  1.0142573E+03;  4.1105485E-01;  1.1810264E+04;3; -4.2968975E+01;  0.0000000E+00; -1.3285780E+01;0;  3.1804249E+00;  9.8049170E+03;  0.0000000E+00; -3.5728754E-05;  1.0000000E+04;  0.0000000E+00;  9.9349961E+03;  2.8044090E+00;  0.0000000E+00;  3.7601587E-01;  3.1027244E+04;
  7.3930514E-01;  9.9999998E-03;  8.0295339E-02;2195; -2.2378108E-01;  0.0000000E+00;  3.4608088E-02;  1.0142493E+03;  4.1105539E-01;  1.1803647E+04;3; -4.0543186E+01;  0.0000000E+00; -1.6362930E+01;0;  3.1824152E+00;  9.8035674E+03;  0.0000000E+00; -5.0595598E-05;  1.0000000E+04;  0.0000000E+00;  9.9361885E+03;  2.7993824E+00;  0.0000000E+00;  3.8303280E-01;  3.0413891E+04;
  7.3930228E-01;  9.9999998E-03;  1.0036575E-01;2196; -2.1905617E-01;  0.0000000E+00;  4.3225288E-02;  1.0142290E+03;  4.1105589E-01;  1.1786860E+04;3; -3.7667709E+01;  0.0000000E+00; -1.8996595E+01;0;  3.1830399E+00;  9.8019414E+03;  0.0000000E+00;  4.4363078E-06;  1.0000000E+04;  0.0000000E+00;  9.9374238E+03;  2.7913735E+00;  0.0000000E+00;  3.9166650E-01;  2.9776094E+04;
  7.3930001E-01;  9.9999998E-03;  1.2043875E-01;2197; -2.1333165E-01;  0.0000000E+00;  5.2708339E-02;  1.0142049E+03;  4.1105652E-01;  1.1766813E+04;3; -3.4455799E+01;  0.0000000E+00; -2.1343534E+01;0;  3.1760461E+00;  9.8000908E+03;  0.0000000E+00;  1.8873057E-04;  1.0000000E+04;  0.0000000E+00;  9.9388115E+03;  2.7794924E+00;  0.0000000E+00;  3.9655367E-01;  2.9067670E+04;
  7.3929840E-01;  9.9999998E-03;  1.4051282E-01;2198; -2.0679590E-01;  0.0000000E+00;  6.3318759E-02;  1.0141925E+03;  4.1105717E-01;  1.1756544E+04;3; -3.1032362E+01;  0.0000000E+00; -2.3298456E+01;0;  3.1524823E+00;  9.7980996E+03;  0.0000000E+00;  5.2973029E-04;  1.0000000E+04;  0.0000000E+00;  9.9405527E+03;  2.7628117E+00;  0.0000000E+00;  3.8967064E-01;  2.8196887E+04;
  7.5958991E-01;  9.9999998E-03;  1.6695284E-10;2222; -1.4644580E-01;  0.0000000E+00;  3.4230581E-08;  1.0134892E+03;  4.1113546E-01;  1.1173470E+04;3; -3.0843763E+01;  0.0000000E+00;  1.6046455E-05;0;  3.4792900E+00;  9.7924902E+03;  0.0000000E+00; -1.7488046E-14;  1.0000000E+04;  0.0000000E+00;  9.9287803E+03;  3.0966055E+00;  0.0000000E+00;  3.8268441E-01;  3.4049477E+04;
  7.5958979E-01;  9.9999998E-03;  2.0081125E-02;2223; -1.4592591E-01;  0.0000000E+00;  8.2876133E-03;  1.0134968E+03;  4.1113576E-01;  1.1179690E+04;3; -3.0517506E+01;  0.0000000E+00; -5.9593663E+00;0;  3.4768739E+00;  9.7922813E+03;  0.0000000E+00;  9.3111976E-06;  1.0000000E+04;  0.0000000E+00;  9.9291436E+03;  3.0944972E+00;  0.0000000E+00;  3.8237676E-01;  3.3867941E+04;
  7.5958937E-01;  9.9999998E-03;  4.0159017E-02;2224; -1.4437115E-01;  0.0000000E+00;  1.6276464E-02;  1.0135151E+03;  4.1113597E-01;  1.1194897E+04;3; -2.9569889E+01;  0.0000000E+00; -1.1351588E+01;0;  3.4704020E+00;  9.7916641E+03;  0.0000000E+00;  3.0817966E-05;  1.0000000E+04;  0.0000000E+00;  9.9301201E+03;  3.0880475E+00;  0.0000000E+00;  3.8235447E-01;  3.3375020E+04;
  7.5958902E-01;  9.9999998E-03;  6.0232446E-02;2225; -1.4179879E-01;  0.0000000E+00;  2.3831993E-02;  1.0135339E+03;  4.1113618E-01;  1.1210499E+04;3; -2.8085909E+01;  0.0000000E+00; -1.5882331E+01;0;  3.4615555E+00;  9.7906807E+03;  0.0000000E+00;  5.6293371E-05;  1.0000000E+04;  0.0000000E+00;  9.9314707E+03;  3.0769351E+00;  0.0000000E+00;  3.8462055E-01;  3.2690059E+04;
  7.5958920E-01;  9.9999998E-03;  8.0302782E-02;2226; -1.3825281E-01;  0.0000000E+00;  3.1074001E-02;  1.0135444E+03;  4.1113672E-01;  1.1219090E+04;3; -2.6181026E+01;  0.0000000E+00; -1.9624943E+01;0;  3.4511709E+00;  9.7893828E+03;  0.0000000E+00;  9.0112742E-05;  1.0000000E+04;  0.0000000E+00;  9.9329766E+03;  3.0607169E+00;  0.0000000E+00;  3.9045402E-01;  3.1922152E+04;
  7.5959003E-01;  9.9999998E-03;  1.0037273E-01;2227; -1.3382497E-01;  0.0000000E+00;  3.8383383E-02;  1.0135469E+03;  4.1113719E-01;  1.1221262E+04;3; -2.3978312E+01;  0.0000000E+00; -2.2866858E+01;0;  3.4372692E+00;  9.7878428E+03;  0.0000000E+00;  1.4624029E-04;  1.0000000E+04;  0.0000000E+00;  9.9345654E+03;  3.0389285E+00;  0.0000000E+00;  3.9834058E-01;  3.1108021E+04;
  7.5959176E-01;  9.9999998E-03;  1.2044422E-01;2228; -1.2866917E-01;  0.0000000E+00;  4.6311926E-02;  1.0135520E+03;  4.1113788E-01;  1.1225409E+04;3; -2.1594957E+01;  0.0000000E+00; -2.5817358E+01;0;  3.4139233E+00;  9.7861533E+03;  0.0000000E+00;  2.3190049E-04;  1.0000000E+04;  0.0000000E+00;  9.9363516E+03;  3.0110037E+00;  0.0000000E+00;  4.0291959E-01;  3.0200160E+04;
  7.5959432E-01;  9.9999998E-03;  1.4051567E-01;2229; -1.2300779E-01;  0.0000000E+00;  5.5168591E-02;  1.0135775E+03;  4.1113859E-01;  1.1246540E+04;3; -1.9146521E+01;  0.0000000E+00; -2.8384270E+01;0;  3.3718882E+00;  9.7844600E+03;  0.0000000E+00;  3.3487627E-04;  1.0000000E+04;  0.0000000E+00;  9.9385400E+03;  2.9759846E+00;  0.0000000E+00;  3.9590347E-01;  2.9109785E+04;
  7.7979827E-01;  9.9999998E-03; -7.9806869E-11;2253; -8.0875412E-02;  0.0000000E+00; -3.8701337E-08;  1.0134767E+03;  4.1116458E-01;  1.1162354E+04;3; -1.9427208E+01;  0.0000000E+00; -2.1062209E-05;0;  3.5432634E+00;  9.7930068E+03;  0.0000000E+00;  2.4156922E-14;  1.0000000E+04;  0.0000000E+00;  9.9266455E+03;  3.1640925E+00;  0.0000000E+00;  3.7917084E-01;  3.5083715E+04;
  7.7979851E-01;  9.9999998E-03;  2.0082010E-02;2254; -8.0437690E-02;  0.0000000E+00;  7.3530395E-03;  1.0134880E+03;  4.1116458E-01;  1.1171636E+04;3; -1.9211044E+01;  0.0000000E+00; -6.6888247E+00;0;  3.5392506E+00;  9.7928203E+03;  0.0000000E+00;  8.1764974E-06;  1.0000000E+04;  0.0000000E+00;  9.9270557E+03;  3.1604934E+00;  0.0000000E+00;  3.7875724E-01;  3.4878297E+04;
  7.7979916E-01;  9.9999998E-03;  4.0160481E-02;2255; -7.9141244E-02;  0.0000000E+00;  1.4408647E-02;  1.0135168E+03;  4.1116488E-01;  1.1195629E+04;3; -1.8588095E+01;  0.0000000E+00; -1.2739734E+01;0;  3.5281601E+00;  9.7922637E+03;  0.0000000E+00;  2.8996743E-05;  1.0000000E+04;  0.0000000E+00;  9.9281689E+03;  3.1496797E+00;  0.0000000E+00;  3.7848055E-01;  3.4318516E+04;
  7.7980047E-01;  9.9999998E-03;  6.0233969E-02;2256; -7.7040069E-02;  0.0000000E+00;  2.1028282E-02;  1.0135508E+03;  4.1116503E-01;  1.1223770E+04;3; -1.7628698E+01;  0.0000000E+00; -1.7813625E+01;0;  3.5122123E+00;  9.7913828E+03;  0.0000000E+00;  5.5714590E-05;  1.0000000E+04;  0.0000000E+00;  9.9297178E+03;  3.1316779E+00;  0.0000000E+00;  3.8053450E-01;  3.3534980E+04;
  7.7980256E-01;  9.9999998E-03;  8.0303766E-02;2257; -7.4231490E-02;  0.0000000E+00;  2.7323665E-02;  1.0135805E+03;  4.1116548E-01;  1.1248354E+04;3; -1.6430861E+01;  0.0000000E+00; -2.1979090E+01;0;  3.4931149E+00;  9.7902236E+03;  0.0000000E+00;  8.3310289E-05;  1.0000000E+04;  0.0000000E+00;  9.9314590E+03;  3.1066203E+00;  0.0000000E+00;  3.8649467E-01;  3.2649736E+04;
  7.7980548E-01;  9.9999998E-03;  1.0037261E-01;2258; -7.0865974E-02;  0.0000000E+00;  3.3660199E-02;  1.0136050E+03;  4.1116610E-01;  1.1268595E+04;3; -1.5100196E+01;  0.0000000E+00; -2.5556730E+01;0;  3.4698694E+00;  9.7888525E+03;  0.0000000E+00;  1.0705343E-04;  1.0000000E+04;  0.0000000E+00;  9.9333027E+03;  3.0747371E+00;  0.0000000E+00;  3.9513239E-01;  3.1710119E+04;
  7.7980924E-01;  9.9999998E-03;  1.2044241E-01;2259; -6.7145184E-02;  0.0000000E+00;  4.0555164E-02;  1.0136338E+03;  4.1116655E-01;  1.1292489E+04;3; -1.3736106E+01;  0.0000000E+00; -2.8809025E+01;0;  3.4373574E+00;  9.7873740E+03;  0.0000000E+00;  1.1853170E-04;  1.0000000E+04;  0.0000000E+00;  9.9353369E+03;  3.0361192E+00;  0.0000000E+00;  4.0123817E-01;  3.0677268E+04;
  7.7981347E-01;  9.9999998E-03;  1.4051150E-01;2260; -6.3302755E-02;  0.0000000E+00;  4.8299678E-02;  1.0136852E+03;  4.1116726E-01;  1.1335045E+04;3; -1.2425641E+01;  0.0000000E+00; -3.1684616E+01;0;  3.3865561E+00;  9.7859707E+03;  0.0000000E+00;  1.0416995E-04;  1.0000000E+04;  0.0000000E+00;  9.9377393E+03;  2.9900541E+00;  0.0000000E+00;  3.9650208E-01;  2.9476375E+04;
  7.9997522E-01;  9.9999998E-03; -2.1815133E-10;2284; -2.3043441E-02;  0.0000000E+00; -2.1231182E-08;  1.0139238E+03;  4.1117245E-01;  1.1531576E+04;3; -9.0093346E+00;  0.0000000E+00;  3.7505059E-05;0;  3.4665258E+00;  9.8017061E+03;  0.0000000E+00; -3.1382689E-14;  1.0000000E+04;  0.0000000E+00;  9.9261152E+03;  3.0991888E+00;  0.0000000E+00;  3.6733696E-01;  3.5347105E+04;
  7.9997563E-01;  9.9999998E-03;  2.0081408E-02;2285; -2.2757633E-02;  0.0000000E+00;  6.4854180E-03;  1.0139377E+03;  4.1117239E-01;  1.1543128E+04;3; -8.9180326E+00;  0.0000000E+00; -7.1017346E+00;0;  3.4618442E+00;  9.8015469E+03;  0.0000000E+00;  2.3412672E-06;  1.0000000E+04;  0.0000000E+00;  9.9265547E+03;  3.0947063E+00;  0.0000000E+00;  3.6713785E-01;  3.5128223E+04;
  7.9997694E-01;  9.9999998E-03;  4.0159155E-02;2286; -2.1922514E-02;  0.0000000E+00;  1.2725532E-02;  1.0139741E+03;  4.1117272E-01;  1.1573239E+04;3; -8.6605310E+00;  0.0000000E+00; -1.3503996E+01;0;  3.4489026E+00;  9.8010684E+03;  0.0000000E+00;  8.4705698E-06;  1.0000000E+04;  0.0000000E+00;  9.9277393E+03;  3.0814078E+00;  0.0000000E+00;  3.6749494E-01;  3.4531262E+04;
  7.9997909E-01;  9.9999998E-03;  6.0231734E-02;2287; -2.0603307E-02;  0.0000000E+00;  1.8626455E-02;  1.0140198E+03;  4.1117299E-01;  1.1611053E+04;3; -8.2805929E+00;  0.0000000E+00; -1.8824789E+01;0;  3.4303827E+00;  9.8003008E+03;  0.0000000E+00;  1.6347207E-05;  1.0000000E+04;  0.0000000E+00;  9.9293965E+03;  3.0597847E+00;  0.0000000E+00;  3.7059811E-01;  3.3694742E+04;
  7.9998219E-01;  9.9999998E-03;  8.0300450E-02;2288; -1.8909775E-02;  0.0000000E+00;  2.4331816E-02;  1.0140626E+03;  4.1117337E-01;  1.1646495E+04;3; -7.8396025E+00;  0.0000000E+00; -2.3121378E+01;0;  3.4087911E+00;  9.7992783E+03;  0.0000000E+00;  2.3356946E-05;  1.0000000E+04;  0.0000000E+00;  9.9312539E+03;  3.0306773E+00;  0.0000000E+00;  3.7811372E-01;  3.2751260E+04;
  7.9998600E-01;  9.9999998E-03;  1.0036813E-01;2289; -1.6993761E-02;  0.0000000E+00;  3.0219527E-02;  1.0140990E+03;  4.1117370E-01;  1.1676706E+04;3; -7.4022288E+00;  0.0000000E+00; -2.6735672E+01;0;  3.3841348E+00;  9.7980439E+03;  0.0000000E+00;  2.5819561E-05;  1.0000000E+04;  0.0000000E+00;  9.9331953E+03;  2.9951887E+00;  0.0000000E+00;  3.8894612E-01;  3.1759826E+04;
  7.9999042E-01;  9.9999998E-03;  1.2043671E-01;2290; -1.5043080E-02;  0.0000000E+00;  3.6779284E-02;  1.0141374E+03;  4.1117427E-01;  1.1708497E+04;3; -7.0264659E+00;  0.0000000E+00; -2.9978153E+01;0;  3.3521016E+00;  9.7966836E+03;  0.0000000E+00;  1.9219478E-05;  1.0000000E+04;  0.0000000E+00;  9.9352959E+03;  2.9541800E+00;  0.0000000E+00;  3.9792156E-01;  3.0692775E+04;
  7.9999512E-01;  9.9999998E-03;  1.4050448E-01;2291; -1.3247124E-02;  0.0000000E+00;  4.4239253E-02;  1.0141945E+03;  4.1117498E-01;  1.1755787E+04;3; -6.7517810E+00;  0.0000000E+00; -3.2856308E+01;0;  3.3039930E+00;  9.7953906E+03;  0.0000000E+00; -6.0400691E-07;  1.0000000E+04;  0.0000000E+00;  9.9377031E+03;  2.9073281E+00;  0.0000000E+00;  3.9666489E-01;  2.9489289E+04;
  8.2015085E-01;  9.9999998E-03;  3.1786875E-11;2315;  3.5884686E-02;  0.0000000E+00;  2.1323546E-08;  1.0145444E+03;  4.1115662E-01;  1.2044181E+04;3;  2.1798482E+00;  0.0000000E+00;  5.4873992E-05;0;  3.3256538E+00;  9.8136729E+03;  0.0000000E+00;  9.6815705E-15;  1.0000000E+04;  0.0000000E+00;  9.9267949E+03;  2.9713085E+00;  0.0000000E+00;  3.5434529E-01;  3.5003676E+04;
  8.2015139E-01;  9.9999998E-03;  2.0079833E-02;2316;  3.5988532E-02;  0.0000000E+00;  5.8849873E-03;  1.0145595E+03;  4.1115668E-01;  1.2056619E+04;3;  2.1509738E+00;  0.0000000E+00; -7.1590133E+00;0;  3.3213925E+00;  9.8135293E+03;  0.0000000E+00; -1.0136379E-06;  1.0000000E+04;  0.0000000E+00;  9.9272373E+03;  2.9668002E+00;  0.0000000E+00;  3.5459229E-01;  3.4782754E+04;
  8.2015294E-01;  9.9999998E-03;  4.0156040E-02;2317;  3.6283165E-02;  0.0000000E+00;  1.1604308E-02;  1.0145989E+03;  4.1115680E-01;  1.2089194E+04;3;  2.0609529E+00;  0.0000000E+00; -1.3576389E+01;0;  3.3098056E+00;  9.8131016E+03;  0.0000000E+00; -3.4003965E-06;  1.0000000E+04;  0.0000000E+00;  9.9284326E+03;  2.9535768E+00;  0.0000000E+00;  3.5622883E-01;  3.4181387E+04;
  8.2015550E-01;  9.9999998E-03;  6.0227159E-02;2318;  3.6719769E-02;  0.0000000E+00;  1.7132843E-02;  1.0146478E+03;  4.1115716E-01;  1.2129767E+04;3;  1.9002618E+00;  0.0000000E+00; -1.8839563E+01;0;  3.2938437E+00;  9.8123926E+03;  0.0000000E+00; -5.7470061E-06;  1.0000000E+04;  0.0000000E+00;  9.9300928E+03;  2.9325531E+00;  0.0000000E+00;  3.6129081E-01;  3.3342184E+04;
  8.2015902E-01;  9.9999998E-03;  8.0294587E-02;2319;  3.7225388E-02;  0.0000000E+00;  2.2665622E-02;  1.0146927E+03;  4.1115749E-01;  1.2166884E+04;3;  1.6581749E+00;  0.0000000E+00; -2.2995302E+01;0;  3.2765379E+00;  9.8114209E+03;  0.0000000E+00; -6.9291304E-06;  1.0000000E+04;  0.0000000E+00;  9.9319346E+03;  2.9052277E+00;  0.0000000E+00;  3.7131023E-01;  3.2404021E+04;
  8.2016325E-01;  9.9999998E-03;  1.0036124E-01;2320;  3.7708219E-02;  0.0000000E+00;  2.8609101E-02;  1.0147272E+03;  4.1115785E-01;  1.2195413E+04;3;  1.3281167E+00;  0.0000000E+00; -2.6397846E+01;0;  3.2585108E+00;  9.8101934E+03;  0.0000000E+00; -7.0887900E-06;  1.0000000E+04;  0.0000000E+00;  9.9338320E+03;  2.8734305E+00;  0.0000000E+00;  3.8508025E-01;  3.1433961E+04;
  8.2016808E-01;  9.9999998E-03;  1.2042917E-01;2321;  3.8067039E-02;  0.0000000E+00;  3.5435539E-02;  1.0147576E+03;  4.1115841E-01;  1.2220585E+04;3;  9.1242915E-01;  0.0000000E+00; -2.9395844E+01;0;  3.2358658E+00;  9.8087725E+03;  0.0000000E+00; -7.5351359E-06;  1.0000000E+04;  0.0000000E+00;  9.9358359E+03;  2.8386438E+00;  0.0000000E+00;  3.9722201E-01;  3.0411441E+04;
  8.2017320E-01;  9.9999998E-03;  1.4049661E-01;2322;  3.8221993E-02;  0.0000000E+00;  4.3287907E-02;  1.0147985E+03;  4.1115895E-01;  1.2254543E+04;3;  4.3342125E-01;  0.0000000E+00; -3.2059155E+01;0;  3.1999753E+00;  9.8073184E+03;  0.0000000E+00; -6.5263835E-06;  1.0000000E+04;  0.0000000E+00;  9.9380879E+03;  2.8008423E+00;  0.0000000E+00;  3.9913297E-01;  2.9282592E+04;
  8.4033567E-01;  9.9999998E-03;  2.3475055E-10;2346;  9.8008461E-02;  0.0000000E+00;  7.5197434E-08;  1.0148880E+03;  4.1097423E-01;  1.2326638E+04;3;  1.4199063E+01;  0.0000000E+00;  3.7404010E-05;0;  3.1488879E+00;  9.8274570E+03;  0.0000000E+00; -1.5843894E-14;  1.0000000E+04;  0.0000000E+00;  9.9283379E+03;  2.8036616E+00;  0.0000000E+00;  3.4522635E-01;  3.4212719E+04;
  8.4033626E-01;  9.9999998E-03;  2.0077668E-02;2347;  9.7939722E-02;  0.0000000E+00;  5.6440234E-03;  1.0149022E+03;  4.1097438E-01;  1.2338284E+04;3;  1.4069826E+01;  0.0000000E+00; -6.8827119E+00;0;  3.1459920E+00;  9.8273135E+03;  0.0000000E+00; -5.7860393E-07;  1.0000000E+04;  0.0000000E+00;  9.9287646E+03;  2.8000054E+00;  0.0000000E+00;  3.4598669E-01;  3.3999777E+04;
  8.4033799E-01;  9.9999998E-03;  4.0151849E-02;2348;  9.7728632E-02;  0.0000000E+00;  1.1199530E-02;  1.0149388E+03;  4.1097447E-01;  1.2368684E+04;3;  1.3691079E+01;  0.0000000E+00; -1.3009333E+01;0;  3.1385145E+00;  9.8268809E+03;  0.0000000E+00; -1.7849763E-06;  1.0000000E+04;  0.0000000E+00;  9.9299092E+03;  2.7894289E+00;  0.0000000E+00;  3.4908554E-01;  3.3422516E+04;
  8.4034079E-01;  9.9999998E-03;  6.0221191E-02;2349;  9.7366862E-02;  0.0000000E+00;  1.6706217E-02;  1.0149822E+03;  4.1097465E-01;  1.2404610E+04;3;  1.3090229E+01;  0.0000000E+00; -1.7957426E+01;0;  3.1294470E+00;  9.8261494E+03;  0.0000000E+00; -2.3197533E-06;  1.0000000E+04;  0.0000000E+00;  9.9314814E+03;  2.7731020E+00;  0.0000000E+00;  3.5634482E-01;  3.2623898E+04;
  8.4034455E-01;  9.9999998E-03;  8.0287181E-02;2350;  9.6853882E-02;  0.0000000E+00;  2.2406613E-02;  1.0150169E+03;  4.1097525E-01;  1.2433331E+04;3;  1.2311473E+01;  0.0000000E+00; -2.1770945E+01;0;  3.1218839E+00;  9.8251006E+03;  0.0000000E+00; -1.2673812E-06;  1.0000000E+04;  0.0000000E+00;  9.9332090E+03;  2.7528801E+00;  0.0000000E+00;  3.6900380E-01;  3.1743811E+04;
  8.4034926E-01;  9.9999998E-03;  1.0035285E-01;2351;  9.6206583E-02;  0.0000000E+00;  2.8735539E-02;  1.0150356E+03;  4.1097549E-01;  1.2448827E+04;3;  1.1412865E+01;  0.0000000E+00; -2.4810745E+01;0;  3.1164720E+00;  9.8237227E+03;  0.0000000E+00;  9.4504685E-07;  1.0000000E+04;  0.0000000E+00;  9.9349453E+03;  2.7309556E+00;  0.0000000E+00;  3.8551646E-01;  3.0850693E+04;
  8.4035486E-01;  9.9999998E-03;  1.2042033E-01;2352;  9.5465846E-02;  0.0000000E+00;  3.6155887E-02;  1.0150424E+03;  4.1097605E-01;  1.2454453E+04;3;  1.0465553E+01;  0.0000000E+00; -2.7449509E+01;0;  3.1091466E+00;  9.8220449E+03;  0.0000000E+00;  3.9276988E-06;  1.0000000E+04;  0.0000000E+00;  9.9367559E+03;  2.7090502E+00;  0.0000000E+00;  4.0009636E-01;  2.9923684E+04;
  8.4036124E-01;  9.9999998E-03;  1.4048788E-01;2353;  9.4711915E-02;  0.0000000E+00;  4.4729222E-02;  1.0150516E+03;  4.1097653E-01;  1.2462051E+04;3;  9.5571995E+00;  0.0000000E+00; -2.9807184E+01;0;  3.0909321E+00;  9.8201943E+03;  0.0000000E+00;  1.3762181E-05;  1.0000000E+04;  0.0000000E+00;  9.9387754E+03;  2.6871564E+00;  0.0000000E+00;  4.0377572E-01;  2.8906754E+04;
  8.6052328E-01;  9.9999998E-03;  1.8263417E-10;2377;  1.6052710E-01;  0.0000000E+00;  7.7719690E-08;  1.0149891E+03;  4.1061655E-01;  1.2407454E+04;3;  2.6256613E+01;  0.0000000E+00;  1.4092016E-05;0;  2.9211056E+00;  9.8444287E+03;  0.0000000E+00;  2.5762280E-14;  1.0000000E+04;  0.0000000E+00;  9.9305059E+03;  2.5793769E+00;  0.0000000E+00;  3.4172860E-01;  3.3090859E+04;
  8.6052394E-01;  9.9999998E-03;  2.0075092E-02;2378;  1.6032094E-01;  0.0000000E+00;  5.7394700E-03;  1.0150008E+03;  4.1061661E-01;  1.2417224E+04;3;  2.6052368E+01;  0.0000000E+00; -6.3408456E+00;0;  2.9201658E+00;  9.8442666E+03;  0.0000000E+00;  1.0833089E-06;  1.0000000E+04;  0.0000000E+00;  9.9309004E+03;  2.5772734E+00;  0.0000000E+00;  3.4289241E-01;  3.2892852E+04;
  8.6052585E-01;  9.9999998E-03;  4.0146880E-02;2379;  1.5971361E-01;  0.0000000E+00;  1.1440150E-02;  1.0150299E+03;  4.1061655E-01;  1.2441301E+04;3;  2.5459381E+01;  0.0000000E+00; -1.1942917E+01;0;  2.9184971E+00;  9.8437744E+03;  0.0000000E+00;  3.9501197E-06;  1.0000000E+04;  0.0000000E+00;  9.9319609E+03;  2.5713565E+00;  0.0000000E+00;  3.4714055E-01;  3.2359307E+04;
  8.6052889E-01;  9.9999998E-03;  6.0214143E-02;2380;  1.5874767E-01;  0.0000000E+00;  1.7180318E-02;  1.0150600E+03;  4.1061687E-01;  1.2466168E+04;3;  2.4538437E+01;  0.0000000E+00; -1.6397884E+01;0;  2.9189043E+00;  9.8429287E+03;  0.0000000E+00;  7.7513077E-06;  1.0000000E+04;  0.0000000E+00;  9.9333936E+03;  2.5627861E+00;  0.0000000E+00;  3.5611811E-01;  3.1630412E+04;
  8.6053318E-01;  9.9999998E-03;  8.0278434E-02;2381;  1.5751098E-01;  0.0000000E+00;  2.3228649E-02;  1.0150763E+03;  4.1061717E-01;  1.2479686E+04;3;  2.3382608E+01;  0.0000000E+00; -1.9757612E+01;0;  2.9241211E+00;  9.8417041E+03;  0.0000000E+00;  1.0956374E-05;  1.0000000E+04;  0.0000000E+00;  9.9349316E+03;  2.5533636E+00;  0.0000000E+00;  3.7075749E-01;  3.0842160E+04;
  8.6053866E-01;  9.9999998E-03;  1.0034284E-01;2382;  1.5614809E-01;  0.0000000E+00;  3.0036787E-02;  1.0150696E+03;  4.1061750E-01;  1.2474158E+04;3;  2.2110159E+01;  0.0000000E+00; -2.2386032E+01;0;  2.9342289E+00;  9.8400547E+03;  0.0000000E+00;  1.1770347E-05;  1.0000000E+04;  0.0000000E+00;  9.9364473E+03;  2.5451486E+00;  0.0000000E+00;  3.8908032E-01;  3.0057514E+04;
  8.6054564E-01;  9.9999998E-03;  1.2040955E-01;2383;  1.5486290E-01;  0.0000000E+00;  3.8063243E-02;  1.0150448E+03;  4.1061795E-01;  1.2453633E+04;3;  2.0856077E+01;  0.0000000E+00; -2.4663059E+01;0;  2.9444683E+00;  9.8379971E+03;  0.0000000E+00;  1.1984123E-05;  1.0000000E+04;  0.0000000E+00;  9.9380156E+03;  2.5396521E+00;  0.0000000E+00;  4.0481618E-01;  2.9248197E+04;
  8.6055434E-01;  9.9999998E-03;  1.4047688E-01;2384;  1.5391332E-01;  0.0000000E+00;  4.7316305E-02;  1.0150142E+03;  4.1061839E-01;  1.2428271E+04;3;  1.9767607E+01;  0.0000000E+00; -2.6732782E+01;0;  2.9452229E+00;  9.8356191E+03;  0.0000000E+00;  2.1690386E-05;  1.0000000E+04;  0.0000000E+00;  9.9398066E+03;  2.5366130E+00;  0.0000000E+00;  4.0860987E-01;  2.8348865E+04;
  8.8070112E-01;  9.9999998E-03; -1.1235252E-10;2408;  2.1972604E-01;  0.0000000E+00;  2.7526283E-08;  1.0149953E+03;  4.1010326E-01;  1.2408923E+04;3;  3.7827038E+01;  0.0000000E+00;  6.6745939E-05;0;  2.6120415E+00;  9.8666240E+03;  0.0000000E+00; -5.7303176E-15;  1.0000000E+04;  0.0000000E+00;  9.9331787E+03;  2.2692442E+00;  0.0000000E+00;  3.4279716E-01;  3.1708525E+04;
  8.8070184E-01;  9.9999998E-03;  2.0072114E-02;2409;  2.1942855E-01;  0.0000000E+00;  6.0604336E-03;  1.0150035E+03;  4.1010317E-01;  1.2415729E+04;3;  3.7571323E+01;  0.0000000E+00; -5.6286459E+00;0;  2.6132183E+00;  9.8664268E+03;  0.0000000E+00;  1.5448612E-06;  1.0000000E+04;  0.0000000E+00;  9.9335342E+03;  2.2690880E+00;  0.0000000E+00;  3.4413016E-01;  3.1528984E+04;
  8.8070399E-01;  9.9999998E-03;  4.0141113E-02;2410;  2.1856426E-01;  0.0000000E+00;  1.2090322E-02;  1.0150223E+03;  4.1010335E-01;  1.2431316E+04;3;  3.6834152E+01;  0.0000000E+00; -1.0565855E+01;0;  2.6177902E+00;  9.8658447E+03;  0.0000000E+00;  5.0909034E-06;  1.0000000E+04;  0.0000000E+00;  9.9344893E+03;  2.2689252E+00;  0.0000000E+00;  3.4886515E-01;  3.1048885E+04;
  8.8070756E-01;  9.9999998E-03;  6.0205884E-02;2411;  2.1722490E-01;  0.0000000E+00;  1.8170597E-02;  1.0150366E+03;  4.1010341E-01;  1.2443055E+04;3;  3.5701015E+01;  0.0000000E+00; -1.4439480E+01;0;  2.6282110E+00;  9.8648428E+03;  0.0000000E+00;  8.4902422E-06;  1.0000000E+04;  0.0000000E+00;  9.9357598E+03;  2.2696278E+00;  0.0000000E+00;  3.5858312E-01;  3.0403479E+04;
  8.8071257E-01;  9.9999998E-03;  8.0268003E-02;2412;  2.1558024E-01;  0.0000000E+00;  2.4568828E-02;  1.0150303E+03;  4.1010368E-01;  1.2437825E+04;3;  3.4302521E+01;  0.0000000E+00; -1.7319145E+01;0;  2.6465831E+00;  9.8633975E+03;  0.0000000E+00;  9.0010290E-06;  1.0000000E+04;  0.0000000E+00;  9.9370850E+03;  2.2725430E+00;  0.0000000E+00;  3.7404025E-01;  2.9721193E+04;
  8.8071930E-01;  9.9999998E-03;  1.0033055E-01;2413;  2.1389024E-01;  0.0000000E+00;  3.1739388E-02;  1.0149966E+03;  4.1010410E-01;  1.2409906E+04;3;  3.2802174E+01;  0.0000000E+00; -1.9567139E+01;0;  2.6720860E+00;  9.8614502E+03;  0.0000000E+00;  5.2950177E-06;  1.0000000E+04;  0.0000000E+00;  9.9383623E+03;  2.2791607E+00;  0.0000000E+00;  3.9292532E-01;  2.9055002E+04;
  8.8072819E-01;  9.9999998E-03;  1.2039575E-01;2414;  2.1250273E-01;  0.0000000E+00;  4.0144123E-02;  1.0149393E+03;  4.1010451E-01;  1.2362554E+04;3;  3.1383205E+01;  0.0000000E+00; -2.1551575E+01;0;  2.6990287E+00;  9.8590020E+03;  0.0000000E+00;  1.1995871E-06;  1.0000000E+04;  0.0000000E+00;  9.9396953E+03;  2.2904484E+00;  0.0000000E+00;  4.0858024E-01;  2.8364959E+04;
  8.8073981E-01;  9.9999998E-03;  1.4046200E-01;2415;  2.1183003E-01;  0.0000000E+00;  4.9780536E-02;  1.0148710E+03;  4.1010505E-01;  1.2306025E+04;3;  3.0236551E+01;  0.0000000E+00; -2.3408552E+01;0;  2.7171569E+00;  9.8560957E+03;  0.0000000E+00;  5.4076527E-06;  1.0000000E+04;  0.0000000E+00;  9.9412705E+03;  2.3058014E+00;  0.0000000E+00;  4.1135561E-01;  2.7573219E+04;
  9.0085757E-01;  9.9999998E-03; -1.2369282E-10;2439;  2.7309155E-01;  0.0000000E+00;  2.1218405E-08;  1.0149883E+03;  4.0946293E-01;  1.2398029E+04;3;  4.9034275E+01;  0.0000000E+00;  5.1116251E-05;0;  2.2106581E+00;  9.8943760E+03;  0.0000000E+00;  3.4530680E-14;  1.0000000E+04;  0.0000000E+00;  9.9362783E+03;  1.8645531E+00;  0.0000000E+00;  3.4610504E-01;  3.0108047E+04;
  9.0085840E-01;  9.9999998E-03;  2.0068660E-02;2440;  2.7275476E-01;  0.0000000E+00;  6.4570620E-03;  1.0149938E+03;  4.0946284E-01;  1.2402564E+04;3;  4.8747581E+01;  0.0000000E+00; -4.8448133E+00;0;  2.2136943E+00;  9.8941611E+03;  0.0000000E+00;  3.6966310E-07;  1.0000000E+04;  0.0000000E+00;  9.9365986E+03;  1.8663559E+00;  0.0000000E+00;  3.4733835E-01;  2.9947943E+04;
  9.0086102E-01;  9.9999998E-03;  4.0134374E-02;2441;  2.7178568E-01;  0.0000000E+00;  1.2849194E-02;  1.0150031E+03;  4.0946278E-01;  1.2410256E+04;3;  4.7923306E+01;  0.0000000E+00; -9.0696583E+00;0;  2.2237072E+00;  9.8934971E+03;  0.0000000E+00;  4.2304720E-07;  1.0000000E+04;  0.0000000E+00;  9.9374414E+03;  1.8719043E+00;  0.0000000E+00;  3.5180292E-01;  2.9523680E+04;
  9.0086538E-01;  9.9999998E-03;  6.0196105E-02;2442;  2.7031404E-01;  0.0000000E+00;  1.9224044E-02;  1.0150014E+03;  4.0946287E-01;  1.2408873E+04;3;  4.6664318E+01;  0.0000000E+00; -1.2355440E+01;0;  2.2427704E+00;  9.8923682E+03;  0.0000000E+00; -1.4287548E-06;  1.0000000E+04;  0.0000000E+00;  9.9385469E+03;  1.8816166E+00;  0.0000000E+00;  3.6115393E-01;  2.8964016E+04;
  9.0087152E-01;  9.9999998E-03;  8.0255419E-02;2443;  2.6856792E-01;  0.0000000E+00;  2.5827199E-02;  1.0149761E+03;  4.0946299E-01;  1.2387868E+04;3;  4.5124645E+01;  0.0000000E+00; -1.4793841E+01;0;  2.2722957E+00;  9.8907480E+03;  0.0000000E+00; -6.0400293E-06;  1.0000000E+04;  0.0000000E+00;  9.9396621E+03;  1.8961282E+00;  0.0000000E+00;  3.7616763E-01;  2.8387537E+04;
  9.0087986E-01;  9.9999998E-03;  1.0031534E-01;2444;  2.6688224E-01;  0.0000000E+00;  3.3109691E-02;  1.0149203E+03;  4.0946332E-01;  1.2341717E+04;3;  4.3493233E+01;  0.0000000E+00; -1.6737572E+01;0;  2.3105707E+00;  9.8885908E+03;  0.0000000E+00; -1.2290408E-05;  1.0000000E+04;  0.0000000E+00;  9.9407188E+03;  1.9161211E+00;  0.0000000E+00;  3.9444956E-01;  2.7835447E+04;
  9.0089107E-01;  9.9999998E-03;  1.2037806E-01;2445;  2.6569331E-01;  0.0000000E+00;  4.1550815E-02;  1.0148380E+03;  4.0946379E-01;  1.2273675E+04;3;  4.1977768E+01;  0.0000000E+00; -1.8522615E+01;0;  2.3511176E+00;  9.8858682E+03;  0.0000000E+00; -1.6917229E-05;  1.0000000E+04;  0.0000000E+00;  9.9418291E+03;  1.9419171E+00;  0.0000000E+00;  4.0920067E-01;  2.7255598E+04;
  9.0090579E-01;  9.9999998E-03;  1.4044210E-01;2446;  2.6550823E-01;  0.0000000E+00;  5.1181629E-02;  1.0147417E+03;  4.0946415E-01;  1.2193996E+04;3;  4.0788589E+01;  0.0000000E+00; -2.0246414E+01;0;  2.3834119E+00;  9.8825898E+03;  0.0000000E+00; -2.2131042E-05;  1.0000000E+04;  0.0000000E+00;  9.9432236E+03;  1.9727483E+00;  0.0000000E+00;  4.1066363E-01;  2.6558342E+04;
  9.2095208E-01;  9.9999998E-03; -6.8786578E-13;2470;  3.1237134E-01;  0.0000000E+00;  5.5348020E-09;  1.0149171E+03;  4.0872887E-01;  1.2332266E+04;3;  6.0216995E+01;  0.0000000E+00; -2.3392378E-05;0;  1.7477362E+00;  9.9251719E+03;  0.0000000E+00; -3.8039542E-14;  1.0000000E+04;  0.0000000E+00;  9.9397148E+03;  1.3982700E+00;  0.0000000E+00;  3.4946615E-01;  2.8323225E+04;
  9.2095339E-01;  9.9999998E-03;  2.0064821E-02;2471;  3.1211933E-01;  0.0000000E+00;  6.7942254E-03;  1.0149198E+03;  4.0872884E-01;  1.2334531E+04;3;  5.9916985E+01;  0.0000000E+00; -4.0733504E+00;0;  1.7519997E+00;  9.9249424E+03;  0.0000000E+00; -1.0496234E-06;  1.0000000E+04;  0.0000000E+00;  9.9399990E+03;  1.4016076E+00;  0.0000000E+00;  3.5039213E-01;  2.8182609E+04;
  9.2095733E-01;  9.9999998E-03;  4.0126804E-02;2472;  3.1141007E-01;  0.0000000E+00;  1.3454595E-02;  1.0149225E+03;  4.0872893E-01;  1.2336797E+04;3;  5.9056911E+01;  0.0000000E+00; -7.6148720E+00;0;  1.7655957E+00;  9.9242568E+03;  0.0000000E+00; -4.6348982E-06;  1.0000000E+04;  0.0000000E+00;  9.9407393E+03;  1.4115981E+00;  0.0000000E+00;  3.5399756E-01;  2.7813537E+04;
  9.2096406E-01;  9.9999998E-03;  6.0184933E-02;2473;  3.1039244E-01;  0.0000000E+00;  1.9967696E-02;  1.0149119E+03;  4.0872887E-01;  1.2328022E+04;3;  5.7748611E+01;  0.0000000E+00; -1.0367874E+01;0;  1.7902796E+00;  9.9230947E+03;  0.0000000E+00; -1.0445850E-05;  1.0000000E+04;  0.0000000E+00;  9.9416875E+03;  1.4281719E+00;  0.0000000E+00;  3.6210772E-01;  2.7336508E+04;
  9.2097360E-01;  9.9999998E-03;  8.0240682E-02;2474;  3.0930489E-01;  0.0000000E+00;  2.6540717E-02;  1.0148749E+03;  4.0872920E-01;  1.2297467E+04;3;  5.6156147E+01;  0.0000000E+00; -1.2443917E+01;0;  1.8269441E+00;  9.9214443E+03;  0.0000000E+00; -1.5648297E-05;  1.0000000E+04;  0.0000000E+00;  9.9426094E+03;  1.4512442E+00;  0.0000000E+00;  3.7569982E-01;  2.6858971E+04;
  9.2098635E-01;  9.9999998E-03;  1.0029704E-01;2475;  3.0847809E-01;  0.0000000E+00;  3.3628695E-02;  1.0148078E+03;  4.0872929E-01;  1.2241978E+04;3;  5.4472122E+01;  0.0000000E+00; -1.4173923E+01;0;  1.8732903E+00;  9.9192686E+03;  0.0000000E+00; -1.5445354E-05;  1.0000000E+04;  0.0000000E+00;  9.9434648E+03;  1.4807329E+00;  0.0000000E+00;  3.9255741E-01;  2.6410162E+04;
  9.2100269E-01;  9.9999998E-03;  1.2035625E-01;2476;  3.0832806E-01;  0.0000000E+00;  4.1756589E-02;  1.0147141E+03;  4.0872949E-01;  1.2164409E+04;3;  5.2901379E+01;  0.0000000E+00; -1.5842043E+01;0;  1.9225245E+00;  9.9165088E+03;  0.0000000E+00; -8.7845592E-06;  1.0000000E+04;  0.0000000E+00;  9.9443936E+03;  1.5164840E+00;  0.0000000E+00;  4.0604046E-01;  2.5927605E+04;
  9.2102343E-01;  9.9999998E-03;  1.4041705E-01;2477;  3.0936283E-01;  0.0000000E+00;  5.1039033E-02;  1.0146046E+03;  4.0872967E-01;  1.2073929E+04;3;  5.1645691E+01;  0.0000000E+00; -1.7483644E+01;0;  1.9644457E+00;  9.9131279E+03;  0.0000000E+00; -1.5741667E-05;  1.0000000E+04;  0.0000000E+00;  9.9456270E+03;  1.5579351E+00;  0.0000000E+00;  4.0651062E-01;  2.5313119E+04;
  9.4097763E-01;  9.9999998E-03;  1.3602486E-10;2501;  3.2910624E-01;  0.0000000E+00;  2.6057576E-08;  1.0146466E+03;  4.0793774E-01;  1.2099785E+04;3;  6.9732742E+01;  0.0000000E+00;  6.0128805E-06;0;  1.2849417E+00;  9.9547500E+03;  0.0000000E+00; -1.5606638E-14;  1.0000000E+04;  0.0000000E+00;  9.9433896E+03;  9.3345404E-01;  0.0000000E+00;  3.5148761E-01;  2.6389193E+04;
  9.4097930E-01;  9.9999998E-03;  2.0060387E-02;2502;  3.2911971E-01;  0.0000000E+00;  6.9735353E-03;  1.0146482E+03;  4.0793777E-01;  1.2101064E+04;3;  6.9500862E+01;  0.0000000E+00; -3.3257751E+00;0;  1.2896161E+00;  9.9545391E+03;  0.0000000E+00; -1.3074355E-06;  1.0000000E+04;  0.0000000E+00;  9.9436377E+03;  9.3760020E-01;  0.0000000E+00;  3.5201591E-01;  2.6268322E+04;
  9.4098437E-01;  9.9999998E-03;  4.0118165E-02;2503;  3.2920864E-01;  0.0000000E+00;  1.3762537E-02;  1.0146482E+03;  4.0793774E-01;  1.2101063E+04;3;  6.8921524E+01;  0.0000000E+00; -6.2359099E+00;0;  1.3043838E+00;  9.9538945E+03;  0.0000000E+00; -5.0441490E-06;  1.0000000E+04;  0.0000000E+00;  9.9442773E+03;  9.4989002E-01;  0.0000000E+00;  3.5449380E-01;  2.5954129E+04;
  9.4099295E-01;  9.9999998E-03;  6.0172316E-02;2504;  3.2942966E-01;  0.0000000E+00;  2.0283738E-02;  1.0146337E+03;  4.0793768E-01;  1.2089142E+04;3;  6.8053787E+01;  0.0000000E+00; -8.5365620E+00;0;  1.3308382E+00;  9.9528174E+03;  0.0000000E+00; -8.7477965E-06;  1.0000000E+04;  0.0000000E+00;  9.9450732E+03;  9.6990478E-01;  0.0000000E+00;  3.6093342E-01;  2.5556324E+04;
  9.4100517E-01;  9.9999998E-03;  8.0224194E-02;2505;  3.2987386E-01;  0.0000000E+00;  2.6689626E-02;  1.0145950E+03;  4.0793774E-01;  1.2057030E+04;3;  6.6779793E+01;  0.0000000E+00; -1.0356969E+01;0;  1.3696477E+00;  9.9512969E+03;  0.0000000E+00; -6.1102596E-06;  1.0000000E+04;  0.0000000E+00;  9.9458252E+03;  9.9704689E-01;  0.0000000E+00;  3.7260091E-01;  2.5169570E+04;
  9.4102120E-01;  9.9999998E-03;  1.0027657E-01;2506;  3.3073461E-01;  0.0000000E+00;  3.3405975E-02;  1.0145279E+03;  4.0793785E-01;  1.2001677E+04;3;  6.5395653E+01;  0.0000000E+00; -1.1981264E+01;0;  1.4183818E+00;  9.9492979E+03;  0.0000000E+00;  1.1108935E-05;  1.0000000E+04;  0.0000000E+00;  9.9465088E+03;  1.0307498E+00;  0.0000000E+00;  3.8763198E-01;  2.4811432E+04;
  9.4104147E-01;  9.9999998E-03;  1.2033170E-01;2507;  3.3231446E-01;  0.0000000E+00;  4.1010655E-02;  1.0144377E+03;  4.0793782E-01;  1.1927216E+04;3;  6.3977947E+01;  0.0000000E+00; -1.3606596E+01;0;  1.4704807E+00;  9.9467588E+03;  0.0000000E+00;  4.3992408E-05;  1.0000000E+04;  0.0000000E+00;  9.9472764E+03;  1.0707061E+00;  0.0000000E+00;  3.9977452E-01;  2.4411766E+04;
  9.4106662E-01;  9.9999998E-03;  1.4038864E-01;2508;  3.3499417E-01;  0.0000000E+00;  4.9748551E-02;  1.0143312E+03;  4.0793791E-01;  1.1839161E+04;3;  6.2726925E+01;  0.0000000E+00; -1.5194981E+01;0;  1.5166833E+00;  9.9435635E+03;  0.0000000E+00;  5.9362948E-05;  1.0000000E+04;  0.0000000E+00;  9.9483779E+03;  1.1169603E+00;  0.0000000E+00;  3.9972311E-01;  2.3868254E+04;
  9.6097797E-01;  9.9999998E-03;  4.3859114E-11;2532;  3.3324221E-01;  0.0000000E+00;  6.3360779E-09;  1.0140722E+03;  4.0712327E-01;  1.1613641E+04;3;  7.3744156E+01;  0.0000000E+00; -1.5975966E-06;0;  8.8138664E-01;  9.9795166E+03;  0.0000000E+00;  2.4611908E-14;  1.0000000E+04;  0.0000000E+00;  9.9471738E+03;  5.2980185E-01;  0.0000000E+00;  3.5158479E-01;  2.4350332E+04;
  9.6097988E-01;  9.9999998E-03;  2.0055667E-02;2533;  3.3343345E-01;  0.0000000E+00;  7.1110101E-03;  1.0140735E+03;  4.0712312E-01;  1.1614721E+04;3;  7.3686974E+01;  0.0000000E+00; -2.5621402E+00;0;  8.8575339E-01;  9.9793311E+03;  0.0000000E+00; -1.0126573E-06;  1.0000000E+04;  0.0000000E+00;  9.9473809E+03;  5.3400922E-01;  0.0000000E+00;  3.5174415E-01;  2.4249773E+04;
  9.6098542E-01;  9.9999998E-03;  4.0108871E-02;2534;  3.3403116E-01;  0.0000000E+00;  1.3958894E-02;  1.0140728E+03;  4.0712330E-01;  1.1614127E+04;3;  7.3518112E+01;  0.0000000E+00; -4.8093805E+00;0;  8.9957798E-01;  9.9787832E+03;  0.0000000E+00; -2.9508130E-06;  1.0000000E+04;  0.0000000E+00;  9.9479170E+03;  5.4642975E-01;  0.0000000E+00;  3.5314825E-01;  2.3990762E+04;
  9.6099490E-01;  9.9999998E-03;  6.0158905E-02;2535;  3.3508077E-01;  0.0000000E+00;  2.0485204E-02;  1.0140594E+03;  4.0712318E-01;  1.1603102E+04;3;  7.3212593E+01;  0.0000000E+00; -6.6068358E+00;0;  9.2440641E-01;  9.9778652E+03;  0.0000000E+00; -1.4641596E-06;  1.0000000E+04;  0.0000000E+00;  9.9485674E+03;  5.6648183E-01;  0.0000000E+00;  3.5792455E-01;  2.3668994E+04;
  9.6100843E-01;  9.9999998E-03;  8.0207035E-02;2536;  3.3666050E-01;  0.0000000E+00;  2.6805820E-02;  1.0140249E+03;  4.0712315E-01;  1.1574562E+04;3;  7.2723091E+01;  0.0000000E+00; -8.1456156E+00;0;  9.6094197E-01;  9.9765762E+03;  0.0000000E+00;  1.1637102E-05;  1.0000000E+04;  0.0000000E+00;  9.9491699E+03;  5.9335279E-01;  0.0000000E+00;  3.6758918E-01;  2.3363955E+04;
  9.6102619E-01;  9.9999998E-03;  1.0025574E-01;2537;  3.3893108E-01;  0.0000000E+00;  3.3289872E-02;  1.0139664E+03;  4.0712309E-01;  1.1526245E+04;3;  7.2210228E+01;  0.0000000E+00; -9.6224689E+00;0;  1.0069889E+00;  9.9748887E+03;  0.0000000E+00;  4.6596284E-05;  1.0000000E+04;  0.0000000E+00;  9.9497090E+03;  6.2631750E-01;  0.0000000E+00;  3.8067135E-01;  2.3081715E+04;
  9.6104848E-01;  9.9999998E-03;  1.2030700E-01;2538;  3.4202540E-01;  0.0000000E+00;  4.0480979E-02;  1.0138891E+03;  4.0712306E-01;  1.1462478E+04;3;  7.1508301E+01;  0.0000000E+00; -1.1209072E+01;0;  1.0566480E+00;  9.9727188E+03;  0.0000000E+00;  1.0770171E-04;  1.0000000E+04;  0.0000000E+00;  9.9503643E+03;  6.6522497E-01;  0.0000000E+00;  3.9142305E-01;  2.2747217E+04;
  9.6107578E-01;  9.9999998E-03;  1.4036013E-01;2539;  3.4619719E-01;  0.0000000E+00;  4.8755109E-02;  1.0137974E+03;  4.0712297E-01;  1.1386806E+04;3;  7.0901360E+01;  0.0000000E+00; -1.2751895E+01;0;  1.1019747E+00;  9.9699141E+03;  0.0000000E+00;  1.6342985E-04;  1.0000000E+04;  0.0000000E+00;  9.9513604E+03;  7.1094251E-01;  0.0000000E+00;  3.9103225E-01;  2.2258820E+04;
  9.8096836E-01;  9.9999998E-03; -4.0171238E-11;2563;  3.3321303E-01;  0.0000000E+00; -7.4377984E-09;  1.0131871E+03;  4.0631685E-01;  1.0868595E+04;3;  7.5532608E+01;  0.0000000E+00; -1.4876234E-05;0;  5.6968009E-01;  9.9978984E+03;  0.0000000E+00;  2.4309896E-15;  1.0000000E+04;  0.0000000E+00;  9.9509336E+03;  2.2004046E-01;  0.0000000E+00;  3.4963962E-01;  2.2259023E+04;
  9.8097032E-01;  9.9999998E-03;  2.0050922E-02;2564;  3.3346972E-01;  0.0000000E+00;  7.1376897E-03;  1.0131881E+03;  4.0631688E-01;  1.0869477E+04;3;  7.5494942E+01;  0.0000000E+00; -1.9106044E+00;0;  5.7335401E-01;  9.9977461E+03;  0.0000000E+00; -1.5316081E-06;  1.0000000E+04;  0.0000000E+00;  9.9511006E+03;  2.2381388E-01;  0.0000000E+00;  3.4954014E-01;  2.2179018E+04;
  9.8097622E-01;  9.9999998E-03;  4.0099893E-02;2565;  3.3427858E-01;  0.0000000E+00;  1.4078691E-02;  1.0131874E+03;  4.0631679E-01;  1.0868884E+04;3;  7.5400314E+01;  0.0000000E+00; -3.5384083E+00;0;  5.8507413E-01;  9.9972988E+03;  0.0000000E+00; -3.7306443E-06;  1.0000000E+04;  0.0000000E+00;  9.9515352E+03;  2.3493224E-01;  0.0000000E+00;  3.5014188E-01;  2.1974316E+04;
  9.8098624E-01;  9.9999998E-03;  6.0146164E-02;2566;  3.3568797E-01;  0.0000000E+00;  2.0694071E-02;  1.0131765E+03;  4.0631673E-01;  1.0859835E+04;3;  7.5267349E+01;  0.0000000E+00; -4.8713360E+00;0;  6.0636199E-01;  9.9965586E+03;  0.0000000E+00;  4.8698250E-09;  1.0000000E+04;  0.0000000E+00;  9.9520537E+03;  2.5282261E-01;  0.0000000E+00;  3.5353935E-01;  2.1723217E+04;
  9.8100036E-01;  9.9999998E-03;  8.0190822E-02;2567;  3.3775777E-01;  0.0000000E+00;  2.7035728E-02;  1.0131475E+03;  4.0631679E-01;  1.0835949E+04;3;  7.5104919E+01;  0.0000000E+00; -6.0595741E+00;0;  6.3803548E-01;  9.9955186E+03;  0.0000000E+00;  1.7895325E-05;  1.0000000E+04;  0.0000000E+00;  9.9525254E+03;  2.7669117E-01;  0.0000000E+00;  3.6134431E-01;  2.1487266E+04;
  9.8101884E-01;  9.9999998E-03;  1.0023617E-01;2568;  3.4061912E-01;  0.0000000E+00;  3.3455566E-02;  1.0131000E+03;  4.0631661E-01;  1.0796830E+04;3;  7.4994545E+01;  0.0000000E+00; -7.2705841E+00;0;  6.7829299E-01;  9.9941504E+03;  0.0000000E+00;  5.7619429E-05;  1.0000000E+04;  0.0000000E+00;  9.9529609E+03;  3.0588838E-01;  0.0000000E+00;  3.7240463E-01;  2.1261570E+04;
  9.8104209E-01;  9.9999998E-03;  1.2028408E-01;2569;  3.4441239E-01;  0.0000000E+00;  4.0512796E-02;  1.0130389E+03;  4.0631652E-01;  1.0746408E+04;3;  7.4742348E+01;  0.0000000E+00; -8.6377964E+00;0;  7.2203577E-01;  9.9923662E+03;  0.0000000E+00;  1.2494497E-04;  1.0000000E+04;  0.0000000E+00;  9.9535449E+03;  3.4053689E-01;  0.0000000E+00;  3.8149887E-01;  2.0969475E+04;
  9.8107052E-01;  9.9999998E-03;  1.4033391E-01;2570;  3.4932232E-01;  0.0000000E+00;  4.8581421E-02;  1.0129656E+03;  4.0631637E-01;  1.0686060E+04;3;  7.4581161E+01;  0.0000000E+00; -9.9414787E+00;0;  7.6266146E-01;  9.9899727E+03;  0.0000000E+00;  2.0244840E-04;  1.0000000E+04;  0.0000000E+00;  9.9544932E+03;  3.8223377E-01;  0.0000000E+00;  3.8042772E-01;  2.0514785E+04;
  1.0009525E+00;  9.9999998E-03;  8.8683332E-12;2594;  3.3101723E-01;  0.0000000E+00; -6.5449473E-09;  1.0120715E+03;  4.0554476E-01;  9.9313008E+03;3;  7.6694862E+01;  0.0000000E+00; -1.3226920E-05;0;  3.5139611E-01;  1.0010250E+04;  0.0000000E+00; -1.4506960E-14;  1.0000000E+04;  0.0000000E+00;  9.9545654E+03;  5.7224752E-03;  0.0000000E+00;  3.4567365E-01;  2.0163234E+04;
  1.0009545E+00;  9.9999998E-03;  2.0046813E-02;2595;  3.3134806E-01;  0.0000000E+00;  7.2254403E-03;  1.0120721E+03;  4.0554479E-01;  9.9317891E+03;3;  7.6684883E+01;  0.0000000E+00; -1.3843602E+00;0;  3.5433877E-01;  1.0010131E+04;  0.0000000E+00; -3.0311937E-06;  1.0000000E+04;  0.0000000E+00;  9.9546963E+03;  8.8871848E-03;  0.0000000E+00;  3.4545159E-01;  2.0102744E+04;
  1.0009608E+00;  9.9999998E-03;  4.0092051E-02;2596;  3.3236390E-01;  0.0000000E+00;  1.4214174E-02;  1.0120710E+03;  4.0554461E-01;  9.9308994E+03;3;  7.6655472E+01;  0.0000000E+00; -2.6003790E+00;0;  3.6380482E-01;  1.0009768E+04;  0.0000000E+00; -7.8562343E-06;  1.0000000E+04;  0.0000000E+00;  9.9550303E+03;  1.8217316E-02;  0.0000000E+00;  3.4558749E-01;  1.9948164E+04;
  1.0009714E+00;  9.9999998E-03;  6.0135212E-02;2597;  3.3407119E-01;  0.0000000E+00;  2.0844894E-02;  1.0120612E+03;  4.0554458E-01;  9.9228467E+03;3;  7.6551224E+01;  0.0000000E+00; -3.6533768E+00;0;  3.8121501E-01;  1.0009164E+04;  0.0000000E+00; -5.2218866E-06;  1.0000000E+04;  0.0000000E+00;  9.9554326E+03;  3.3258695E-02;  0.0000000E+00;  3.4795630E-01;  1.9757678E+04;
  1.0009861E+00;  9.9999998E-03;  8.0177173E-02;2598;  3.3653483E-01;  0.0000000E+00;  2.7214620E-02;  1.0120370E+03;  4.0554449E-01;  9.9029229E+03;3;  7.6492851E+01;  0.0000000E+00; -4.5648661E+00;0;  4.0743086E-01;  1.0008314E+04;  0.0000000E+00;  1.0899385E-05;  1.0000000E+04;  0.0000000E+00;  9.9558125E+03;  5.3395193E-02;  0.0000000E+00;  3.5403568E-01;  1.9572775E+04;
  1.0010052E+00;  9.9999998E-03;  1.0021972E-01;2599;  3.3979639E-01;  0.0000000E+00;  3.3636674E-02;  1.0119989E+03;  4.0554446E-01;  9.8715195E+03;3;  7.6377144E+01;  0.0000000E+00; -5.5874972E+00;0;  4.4101635E-01;  1.0007180E+04;  0.0000000E+00;  3.7632220E-05;  1.0000000E+04;  0.0000000E+00;  9.9561973E+03;  7.8165263E-02;  0.0000000E+00;  3.6285108E-01;  1.9379180E+04;
  1.0010290E+00;  9.9999998E-03;  1.2026453E-01;2600;  3.4398270E-01;  0.0000000E+00;  4.0598541E-02;  1.0119507E+03;  4.0554410E-01;  9.8318730E+03;3;  7.6399994E+01;  0.0000000E+00; -6.6831679E+00;0;  4.7758234E-01;  1.0005667E+04;  0.0000000E+00;  7.2036593E-05;  1.0000000E+04;  0.0000000E+00;  9.9567646E+03;  1.0788654E-01;  0.0000000E+00;  3.6969581E-01;  1.9103123E+04;
  1.0010585E+00;  9.9999998E-03;  1.4031067E-01;2601;  3.4930971E-01;  0.0000000E+00;  4.8435077E-02;  1.0118936E+03;  4.0554410E-01;  9.7847686E+03;3;  7.6315689E+01;  0.0000000E+00; -7.6194577E+00;0;  5.1162463E-01;  1.0003580E+04;  0.0000000E+00;  1.1405787E-04;  1.0000000E+04;  0.0000000E+00;  9.9577197E+03;  1.4450525E-01;  0.0000000E+00;  3.6711940E-01;  1.8659211E+04;
  1.0209330E+00;  9.9999998E-03;  3.0301924E-11;2625;  3.2769373E-01;  0.0000000E+00;  6.3445760E-09;  1.0108489E+03;  4.0482739E-01;  8.9039736E+03;3;  7.7220337E+01;  0.0000000E+00;  9.7686716E-06;0;  2.0750839E-01;  1.0018015E+04;  0.0000000E+00;  3.3671142E-14;  1.0000000E+04;  0.0000000E+00;  9.9580078E+03; -1.3219205E-01;  0.0000000E+00;  3.3970043E-01;  1.8096861E+04;
  1.0209353E+00;  9.9999998E-03;  2.0042948E-02;2626;  3.2807156E-01;  0.0000000E+00;  7.0545748E-03;  1.0108488E+03;  4.0482754E-01;  8.9038730E+03;3;  7.7176254E+01;  0.0000000E+00; -1.1468128E+00;0;  2.0991088E-01;  1.0017908E+04;  0.0000000E+00; -3.9520546E-06;  1.0000000E+04;  0.0000000E+00;  9.9581035E+03; -1.2955831E-01;  0.0000000E+00;  3.3946919E-01;  1.8053131E+04;
  1.0209420E+00;  9.9999998E-03;  4.0084641E-02;2627;  3.2921630E-01;  0.0000000E+00;  1.3895668E-02;  1.0108459E+03;  4.0482745E-01;  8.9015166E+03;3;  7.7120483E+01;  0.0000000E+00; -2.1481943E+00;0;  2.1764684E-01;  1.0017599E+04;  0.0000000E+00; -9.5892592E-06;  1.0000000E+04;  0.0000000E+00;  9.9583584E+03; -1.2175865E-01;  0.0000000E+00;  3.3940548E-01;  1.7939889E+04;
  1.0209529E+00;  9.9999998E-03;  6.0124572E-02;2628;  3.3112296E-01;  0.0000000E+00;  2.0366229E-02;  1.0108356E+03;  4.0482736E-01;  8.8930898E+03;3;  7.7120636E+01;  0.0000000E+00; -3.0150216E+00;0;  2.3189488E-01;  1.0017077E+04;  0.0000000E+00; -5.6528365E-06;  1.0000000E+04;  0.0000000E+00;  9.9586738E+03; -1.0907193E-01;  0.0000000E+00;  3.4096682E-01;  1.7794186E+04;
  1.0209681E+00;  9.9999998E-03;  8.0163620E-02;2629;  3.3380747E-01;  0.0000000E+00;  2.6620036E-02;  1.0108137E+03;  4.0482736E-01;  8.8750674E+03;3;  7.7168327E+01;  0.0000000E+00; -3.7186837E+00;0;  2.5339970E-01;  1.0016314E+04;  0.0000000E+00;  7.6184838E-06;  1.0000000E+04;  0.0000000E+00;  9.9590068E+03; -9.1864876E-02;  0.0000000E+00;  3.4526458E-01;  1.7637566E+04;
  1.0209876E+00;  9.9999998E-03;  1.0020354E-01;2630;  3.3736718E-01;  0.0000000E+00;  3.3088107E-02;  1.0107809E+03;  4.0482715E-01;  8.8481387E+03;3;  7.7249290E+01;  0.0000000E+00; -4.2448440E+00;0;  2.8097644E-01;  1.0015272E+04;  0.0000000E+00;  8.4926460E-06;  1.0000000E+04;  0.0000000E+00;  9.9594004E+03; -7.0387393E-02;  0.0000000E+00;  3.5136384E-01;  1.7449314E+04;
  1.0210121E+00;  9.9999998E-03;  1.2024561E-01;2631;  3.4187138E-01;  0.0000000E+00;  4.0152524E-02;  1.0107402E+03;  4.0482697E-01;  8.8147461E+03;3;  7.7164810E+01;  0.0000000E+00; -4.9386606E+00;0;  3.1080568E-01;  1.0013857E+04;  0.0000000E+00; -2.7432581E-05;  1.0000000E+04;  0.0000000E+00;  9.9600107E+03; -4.4296626E-02;  0.0000000E+00;  3.5510230E-01;  1.7164506E+04;
  1.0210425E+00;  9.9999998E-03;  1.4028835E-01;2632;  3.4752050E-01;  0.0000000E+00;  4.7871541E-02;  1.0106913E+03;  4.0482670E-01;  8.7744971E+03;3;  7.7153908E+01;  0.0000000E+00; -5.5264230E+00;0;  3.3816832E-01;  1.0011892E+04;  0.0000000E+00; -8.8124973E-05;  1.0000000E+04;  0.0000000E+00;  9.9610156E+03; -1.1801154E-02;  0.0000000E+00;  3.4996948E-01;  1.6714494E+04;
  1.0409095E+00;  9.9999998E-03;  2.1342768E-11;2656;  3.2328585E-01;  0.0000000E+00;  1.0569318E-09;  1.0096350E+03;  4.0417930E-01;  7.8822451E+03;3;  7.7881050E+01;  0.0000000E+00;  1.3170793E-06;0;  1.1261956E-01;  1.0022776E+04;  0.0000000E+00; -1.2015641E-14;  1.0000000E+04;  0.0000000E+00;  9.9612441E+03; -2.1912734E-01;  0.0000000E+00;  3.3174691E-01;  1.6078529E+04;
  1.0409119E+00;  9.9999998E-03;  2.0039108E-02;2657;  3.2371363E-01;  0.0000000E+00;  6.6847377E-03;  1.0096339E+03;  4.0417928E-01;  7.8813647E+03;3;  7.7833778E+01;  0.0000000E+00; -9.8968196E-01;0;  1.1474110E-01;  1.0022680E+04;  0.0000000E+00; -2.3639798E-06;  1.0000000E+04;  0.0000000E+00;  9.9613184E+03; -2.1680589E-01;  0.0000000E+00;  3.3154699E-01;  1.6047013E+04;
  1.0409188E+00;  9.9999998E-03;  4.0077340E-02;2658;  3.2497674E-01;  0.0000000E+00;  1.3272375E-02;  1.0096290E+03;  4.0417933E-01;  7.8773564E+03;3;  7.7697052E+01;  0.0000000E+00; -1.7474433E+00;0;  1.2147494E-01;  1.0022379E+04;  0.0000000E+00; -2.3882262E-06;  1.0000000E+04;  0.0000000E+00;  9.9615166E+03; -2.0987366E-01;  0.0000000E+00;  3.3134860E-01;  1.5961827E+04;
  1.0409303E+00;  9.9999998E-03;  6.0114559E-02;2659;  3.2705435E-01;  0.0000000E+00;  1.9781891E-02;  1.0096165E+03;  4.0417925E-01;  7.8670996E+03;3;  7.7600471E+01;  0.0000000E+00; -2.2665477E+00;0;  1.3363859E-01;  1.0021865E+04;  0.0000000E+00;  9.2272130E-06;  1.0000000E+04;  0.0000000E+00;  9.9617881E+03; -1.9841918E-01;  0.0000000E+00;  3.3205777E-01;  1.5840511E+04;
  1.0409459E+00;  9.9999998E-03;  8.0151364E-02;2660;  3.2995868E-01;  0.0000000E+00;  2.6179213E-02;  1.0095948E+03;  4.0417913E-01;  7.8493276E+03;3;  7.7627365E+01;  0.0000000E+00; -2.8229887E+00;0;  1.5170078E-01;  1.0021094E+04;  0.0000000E+00;  1.9976436E-05;  1.0000000E+04;  0.0000000E+00;  9.9621260E+03; -1.8255813E-01;  0.0000000E+00;  3.3425891E-01;  1.5687795E+04;
  1.0409659E+00;  9.9999998E-03;  1.0018916E-01;2661;  3.3373556E-01;  0.0000000E+00;  3.2707896E-02;  1.0095631E+03;  4.0417901E-01;  7.8233569E+03;3;  7.7705894E+01;  0.0000000E+00; -3.4315188E+00;0;  1.7459385E-01;  1.0020010E+04;  0.0000000E+00; -1.5373495E-05;  1.0000000E+04;  0.0000000E+00;  9.9625859E+03; -1.6237064E-01;  0.0000000E+00;  3.3696449E-01;  1.5480987E+04;
  1.0409912E+00;  9.9999998E-03;  1.2022834E-01;2662;  3.3854964E-01;  0.0000000E+00;  3.9664667E-02;  1.0095236E+03;  4.0417877E-01;  7.7909429E+03;3;  7.7826080E+01;  0.0000000E+00; -3.8568232E+00;0;  1.9899984E-01;  1.0018516E+04;  0.0000000E+00; -1.4596185E-04;  1.0000000E+04;  0.0000000E+00;  9.9632910E+03; -1.3766156E-01;  0.0000000E+00;  3.3666140E-01;  1.5170712E+04;
  1.0410229E+00;  9.9999998E-03;  1.4026788E-01;2663;  3.4464830E-01;  0.0000000E+00;  4.7214016E-02;  1.0094747E+03;  4.0417862E-01;  7.7510107E+03;3;  7.7937469E+01;  0.0000000E+00; -4.1421175E+00;0;  2.2079596E-01;  1.0016478E+04;  0.0000000E+00; -3.5046588E-04;  1.0000000E+04;  0.0000000E+00;  9.9643652E+03; -1.0723942E-01;  0.0000000E+00;  3.2803538E-01;  1.4710964E+04;
  1.0608824E+00;  9.9999998E-03;  5.2795854E-11;2687;  3.1772566E-01;  0.0000000E+00;  2.7217828E-09;  1.0085112E+03;  4.0360868E-01;  6.9330352E+03;3;  7.8283363E+01;  0.0000000E+00; -1.5982027E-05;0;  4.5771897E-02;  1.0025685E+04;  0.0000000E+00;  9.0336835E-15;  1.0000000E+04;  0.0000000E+00;  9.9642920E+03; -2.7600327E-01;  0.0000000E+00;  3.2177517E-01;  1.4114978E+04;
  1.0608848E+00;  9.9999998E-03;  2.0035461E-02;2688;  3.1813875E-01;  0.0000000E+00;  6.4395298E-03;  1.0085090E+03;  4.0360871E-01;  6.9312837E+03;3;  7.8204964E+01;  0.0000000E+00; -5.8095938E-01;0;  4.7792375E-02;  1.0025582E+04;  0.0000000E+00;  2.2416407E-06;  1.0000000E+04;  0.0000000E+00;  9.9643525E+03; -2.7374673E-01;  0.0000000E+00;  3.2153910E-01;  1.4089725E+04;
  1.0608921E+00;  9.9999998E-03;  4.0070627E-02;2689;  3.1952515E-01;  0.0000000E+00;  1.2880495E-02;  1.0085021E+03;  4.0360874E-01;  6.9256392E+03;3;  7.8151871E+01;  0.0000000E+00; -1.2391713E+00;0;  5.4057688E-02;  1.0025269E+04;  0.0000000E+00;  1.3627422E-05;  1.0000000E+04;  0.0000000E+00;  9.9645303E+03; -2.6694518E-01;  0.0000000E+00;  3.2100287E-01;  1.4016526E+04;
  1.0609038E+00;  9.9999998E-03;  6.0105391E-02;2690;  3.2184553E-01;  0.0000000E+00;  1.9223860E-02;  1.0084877E+03;  4.0360868E-01;  6.9138687E+03;3;  7.8088379E+01;  0.0000000E+00; -1.8402464E+00;0;  6.5006852E-02;  1.0024700E+04;  0.0000000E+00;  3.3967430E-05;  1.0000000E+04;  0.0000000E+00;  9.9648125E+03; -2.5551236E-01;  0.0000000E+00;  3.2051921E-01;  1.3898236E+04;
  1.0609199E+00;  9.9999998E-03;  8.0140322E-02;2691;  3.2503417E-01;  0.0000000E+00;  2.5572883E-02;  1.0084641E+03;  4.0360859E-01;  6.8946147E+03;3;  7.8069389E+01;  0.0000000E+00; -2.3828733E+00;0;  8.0777794E-02;  1.0023827E+04;  0.0000000E+00;  3.1146403E-05;  1.0000000E+04;  0.0000000E+00;  9.9652158E+03; -2.3935664E-01;  0.0000000E+00;  3.2013443E-01;  1.3729236E+04;
  1.0609407E+00;  9.9999998E-03;  1.0017592E-01;2692;  3.2915133E-01;  0.0000000E+00;  3.2108728E-02;  1.0084301E+03;  4.0360841E-01;  6.8668081E+03;3;  7.8075378E+01;  0.0000000E+00; -2.7984080E+00;0;  1.0031365E-01;  1.0022580E+04;  0.0000000E+00; -6.1357401E-05;  1.0000000E+04;  0.0000000E+00;  9.9657852E+03; -2.1847616E-01;  0.0000000E+00;  3.1878981E-01;  1.3490648E+04;
  1.0609672E+00;  9.9999998E-03;  1.2021212E-01;2693;  3.3429334E-01;  0.0000000E+00;  3.8820855E-02;  1.0083851E+03;  4.0360841E-01;  6.8302520E+03;3;  7.8132614E+01;  0.0000000E+00; -3.0942073E+00;0;  1.2079920E-01;  1.0020874E+04;  0.0000000E+00; -3.0030977E-04;  1.0000000E+04;  0.0000000E+00;  9.9665977E+03; -1.9294719E-01;  0.0000000E+00;  3.1374639E-01;  1.3153491E+04;
  1.0610003E+00;  9.9999998E-03;  1.4024720E-01;2694;  3.4081686E-01;  0.0000000E+00;  4.5793209E-02;  1.0083270E+03;  4.0360826E-01;  6.7828096E+03;3;  7.8263840E+01;  0.0000000E+00; -3.0413723E+00;0;  1.3872230E-01;  1.0018602E+04;  0.0000000E+00; -9.1113435E-04;  1.0000000E+04;  0.0000000E+00;  9.9677139E+03; -1.6246590E-01;  0.0000000E+00;  3.0118820E-01;  1.2698831E+04;
  1.0808527E+00;  9.9999998E-03;  2.0876755E-11;2718;  3.1096718E-01;  0.0000000E+00;  3.2342569E-09;  1.0075162E+03;  4.0311891E-01;  6.0876509E+03;3;  7.8368362E+01;  0.0000000E+00; -2.1248779E-06;0; -5.0269365E-03;  1.0027304E+04;  0.0000000E+00; -1.0173214E-14;  1.0000000E+04;  0.0000000E+00;  9.9672070E+03; -3.1453341E-01;  0.0000000E+00;  3.0950648E-01;  1.2206598E+04;
  1.0808553E+00;  9.9999998E-03;  2.0032413E-02;2719;  3.1147972E-01;  0.0000000E+00;  6.1757648E-03;  1.0075135E+03;  4.0311879E-01;  6.0855215E+03;3;  7.8348076E+01;  0.0000000E+00; -5.2314967E-01;0; -3.0496120E-03;  1.0027187E+04;  0.0000000E+00;  7.2880575E-06;  1.0000000E+04;  0.0000000E+00;  9.9672705E+03; -3.1213772E-01;  0.0000000E+00;  3.0908811E-01;  1.2181794E+04;
  1.0808625E+00;  9.9999998E-03;  4.0064778E-02;2720;  3.1299782E-01;  0.0000000E+00;  1.2303585E-02;  1.0075046E+03;  4.0311888E-01;  6.0782651E+03;3;  7.8276711E+01;  0.0000000E+00; -1.0420841E+00;0;  2.9718280E-03;  1.0026814E+04;  0.0000000E+00;  2.6931188E-05;  1.0000000E+04;  0.0000000E+00;  9.9674678E+03; -3.0486271E-01;  0.0000000E+00;  3.0783454E-01;  1.2106121E+04;
  1.0808747E+00;  9.9999998E-03;  6.0097322E-02;2721;  3.1551814E-01;  0.0000000E+00;  1.8505603E-02;  1.0074874E+03;  4.0311861E-01;  6.0643379E+03;3;  7.8221542E+01;  0.0000000E+00; -1.4973824E+00;0;  1.3192266E-02;  1.0026142E+04;  0.0000000E+00;  3.9443192E-05;  1.0000000E+04;  0.0000000E+00;  9.9678018E+03; -2.9247886E-01;  0.0000000E+00;  3.0567113E-01;  1.1975199E+04;
  1.0808914E+00;  9.9999998E-03;  8.0130219E-02;2722;  3.1901285E-01;  0.0000000E+00;  2.4830934E-02;  1.0074600E+03;  4.0311870E-01;  6.0420977E+03;3;  7.8211411E+01;  0.0000000E+00; -1.8553535E+00;0;  2.7460515E-02;  1.0025102E+04;  0.0000000E+00; -9.6280382E-06;  1.0000000E+04;  0.0000000E+00;  9.9682979E+03; -2.7476925E-01;  0.0000000E+00;  3.0222976E-01;  1.1781427E+04;
  1.0809133E+00;  9.9999998E-03;  1.0016332E-01;2723;  3.2349774E-01;  0.0000000E+00;  3.1224899E-02;  1.0074189E+03;  4.0311846E-01;  6.0087441E+03;3;  7.8229553E+01;  0.0000000E+00; -2.1009781E+00;0;  4.4703871E-02;  1.0023602E+04;  0.0000000E+00; -1.9281326E-04;  1.0000000E+04;  0.0000000E+00;  9.9689795E+03; -2.5177956E-01;  0.0000000E+00;  2.9648343E-01;  1.1515296E+04;
  1.0809412E+00;  9.9999998E-03;  1.2019602E-01;2724;  3.2914457E-01;  0.0000000E+00;  3.7676249E-02;  1.0073619E+03;  4.0311852E-01;  5.9625381E+03;3;  7.8268417E+01;  0.0000000E+00; -2.1429749E+00;0;  6.2624589E-02;  1.0021579E+04;  0.0000000E+00; -5.3773599E-04;  1.0000000E+04;  0.0000000E+00;  9.9698672E+03; -2.2396539E-01;  0.0000000E+00;  2.8658998E-01;  1.1169615E+04;
  1.0809760E+00;  9.9999998E-03;  1.4022650E-01;2725;  3.3615893E-01;  0.0000000E+00;  4.3957289E-02;  1.0072877E+03;  4.0311849E-01;  5.9024170E+03;3;  7.8365372E+01;  0.0000000E+00; -2.0710521E+00;0;  7.8297153E-02;  1.0019021E+04;  0.0000000E+00; -5.9219911E-03;  1.0000000E+04;  0.0000000E+00;  9.9709395E+03; -1.9227915E-01;  0.0000000E+00;  2.7057630E-01;  1.0755885E+04;
  1.1008217E+00;  9.9999998E-03; -4.4475591E-12;2748;  3.0346352E-01;  0.0000000E+00;  8.7231655E-10;  1.0066559E+03;  4.0270755E-01;  5.3504189E+03;3;  7.8138092E+01;  0.0000000E+00; -3.7370955E-06;0; -4.3971568E-02;  1.0027760E+04;  0.0000000E+00;  2.2112039E-15;  1.0000000E+04;  0.0000000E+00;  9.9700635E+03; -3.3836192E-01;  0.0000000E+00;  2.9439035E-01;  1.0357044E+04;
  1.1008244E+00;  9.9999998E-03;  2.0029608E-02;2749;  3.0400589E-01;  0.0000000E+00;  5.8498089E-03;  1.0066525E+03;  4.0270787E-01;  5.3476338E+03;3;  7.8131042E+01;  0.0000000E+00; -3.2058397E-01;0; -4.2044014E-02;  1.0027613E+04;  0.0000000E+00;  6.6125717E-06;  1.0000000E+04;  0.0000000E+00;  9.9701367E+03; -3.3568162E-01;  0.0000000E+00;  2.9363760E-01;  1.0329388E+04;
  1.1008317E+00;  9.9999998E-03;  4.0059496E-02;2750;  3.0558899E-01;  0.0000000E+00;  1.1691854E-02;  1.0066414E+03;  4.0270776E-01;  5.3387051E+03;3;  7.8066788E+01;  0.0000000E+00; -7.5163871E-01;0; -3.6216915E-02;  1.0027151E+04;  0.0000000E+00;  1.3729387E-05;  1.0000000E+04;  0.0000000E+00;  9.9703721E+03; -3.2750764E-01;  0.0000000E+00;  2.9129073E-01;  1.0244507E+04;
  1.1008443E+00;  9.9999998E-03;  6.0089909E-02;2751;  3.0830523E-01;  0.0000000E+00;  1.7791968E-02;  1.0066198E+03;  4.0270761E-01;  5.3212354E+03;3;  7.7998344E+01;  0.0000000E+00; -1.0860753E+00;0; -2.6482970E-02;  1.0026323E+04;  0.0000000E+00; -2.0113866E-05;  1.0000000E+04;  0.0000000E+00;  9.9707744E+03; -3.1352887E-01;  0.0000000E+00;  2.8704590E-01;  1.0098201E+04;
  1.1008618E+00;  9.9999998E-03;  8.0120526E-02;2752;  3.1213525E-01;  0.0000000E+00;  2.4031727E-02;  1.0065841E+03;  4.0270770E-01;  5.2925435E+03;3;  7.8015587E+01;  0.0000000E+00; -1.2634031E+00;0; -1.3180137E-02;  1.0025027E+04;  0.0000000E+00; -1.5903237E-04;  1.0000000E+04;  0.0000000E+00;  9.9713584E+03; -2.9353106E-01;  0.0000000E+00;  2.8035092E-01;  9.8879434E+03;
  1.1008850E+00;  9.9999998E-03;  1.0015098E-01;2753;  3.1709614E-01;  0.0000000E+00;  3.0272678E-02;  1.0065298E+03;  4.0270746E-01;  5.2488901E+03;3;  7.8052956E+01;  0.0000000E+00; -1.3230039E+00;0;  2.6444495E-03;  1.0023201E+04;  0.0000000E+00; -4.4970372E-04;  1.0000000E+04;  0.0000000E+00;  9.9720986E+03; -2.6777479E-01;  0.0000000E+00;  2.7041924E-01;  9.6168154E+03;
  1.1009145E+00;  9.9999998E-03;  1.2017927E-01;2754;  3.2333338E-01;  0.0000000E+00;  3.6182359E-02;  1.0064545E+03;  4.0270746E-01;  5.1883589E+03;3;  7.8161812E+01;  0.0000000E+00; -1.2723001E+00;0;  1.9096449E-02;  1.0020827E+04;  0.0000000E+00; -2.6431906E-03;  1.0000000E+04;  0.0000000E+00;  9.9729727E+03; -2.3737060E-01;  0.0000000E+00;  2.5646704E-01;  9.2983516E+03;
  1.1009521E+00;  9.9999998E-03;  1.4020544E-01;2755;  3.3116502E-01;  0.0000000E+00;  4.1563679E-02;  1.0063627E+03;  4.0270752E-01;  5.1143955E+03;3;  7.8327896E+01;  0.0000000E+00; -1.1159524E+00;0;  3.3288583E-02;  1.0018117E+04;  0.0000000E+00; -3.4174599E-02;  1.0000000E+04;  0.0000000E+00;  9.9738506E+03; -2.0545068E-01;  0.0000000E+00;  2.3873927E-01;  8.9770264E+03;
  1.1207910E+00;  9.9999998E-03; -1.5212586E-11;2777;  2.9545051E-01;  0.0000000E+00;  2.8377294E-09;  1.0059188E+03;  4.0237078E-01;  4.7109575E+03;3;  7.7570732E+01;  0.0000000E+00; -2.1674068E-06;0; -7.1333736E-02;  1.0026992E+04;  0.0000000E+00;  3.2098278E-15;  1.0000000E+04;  0.0000000E+00;  9.9729033E+03; -3.4707221E-01;  0.0000000E+00;  2.7573848E-01;  8.5860781E+03;
  1.1207936E+00;  9.9999998E-03;  2.0027209E-02;2778;  2.9603410E-01;  0.0000000E+00;  5.6368513E-03;  1.0059138E+03;  4.0237072E-01;  4.7070610E+03;3;  7.7562157E+01;  0.0000000E+00; -1.6169602E-01;0; -6.9445014E-02;  1.0026807E+04;  0.0000000E+00; -7.1837107E-06;  1.0000000E+04;  0.0000000E+00;  9.9729932E+03; -3.4400791E-01;  0.0000000E+00;  2.7456290E-01;  8.5562588E+03;
  1.1208012E+00;  9.9999998E-03;  4.0054742E-02;2779;  2.9774240E-01;  0.0000000E+00;  1.1269442E-02;  1.0058977E+03;  4.0237078E-01;  4.6942314E+03;3;  7.7578293E+01;  0.0000000E+00; -3.2322744E-01;0; -6.3739121E-02;  1.0026214E+04;  0.0000000E+00; -4.7875285E-05;  1.0000000E+04;  0.0000000E+00;  9.9732637E+03; -3.3467713E-01;  0.0000000E+00;  2.7093801E-01;  8.4662959E+03;
  1.1208142E+00;  9.9999998E-03;  6.0082749E-02;2780;  3.0064178E-01;  0.0000000E+00;  1.7087288E-02;  1.0058670E+03;  4.0237090E-01;  4.6697173E+03;3;  7.7495018E+01;  0.0000000E+00; -6.8172717E-01;0; -5.4261506E-02;  1.0025153E+04;  0.0000000E+00; -1.6993917E-04;  1.0000000E+04;  0.0000000E+00;  9.9737090E+03; -3.1880948E-01;  0.0000000E+00;  2.6454797E-01;  8.3165449E+03;
  1.1208328E+00;  9.9999998E-03;  8.0110893E-02;2781;  3.0484751E-01;  0.0000000E+00;  2.3099108E-02;  1.0058169E+03;  4.0237084E-01;  4.6298184E+03;3;  7.7519051E+01;  0.0000000E+00; -6.9976586E-01;0; -4.1439801E-02;  1.0023548E+04;  0.0000000E+00; -4.1718929E-04;  1.0000000E+04;  0.0000000E+00;  9.9743105E+03; -2.9638016E-01;  0.0000000E+00;  2.5494036E-01;  8.1128682E+03;
  1.1208574E+00;  9.9999998E-03;  1.0013729E-01;2782;  3.1042355E-01;  0.0000000E+00;  2.8874004E-02;  1.0057432E+03;  4.0237069E-01;  4.5710229E+03;3;  7.7652702E+01;  0.0000000E+00; -6.3849753E-01;0; -2.6351094E-02;  1.0021372E+04;  0.0000000E+00; -2.4061564E-03;  1.0000000E+04;  0.0000000E+00;  9.9750117E+03; -2.6820457E-01;  0.0000000E+00;  2.4185348E-01;  7.8716587E+03;
  1.1208893E+00;  9.9999998E-03;  1.2016121E-01;2783;  3.1736419E-01;  0.0000000E+00;  3.3860892E-02;  1.0056491E+03;  4.0237081E-01;  4.4960820E+03;3;  7.7798706E+01;  0.0000000E+00; -4.9930775E-01;0; -1.1167362E-02;  1.0018792E+04;  0.0000000E+00; -2.5055517E-02;  1.0000000E+04;  0.0000000E+00;  9.9757168E+03; -2.3706412E-01;  0.0000000E+00;  2.2589676E-01;  7.6278145E+03;
  1.1209294E+00;  9.9999998E-03;  1.4018135E-01;2784;  3.2623893E-01;  0.0000000E+00;  3.8050368E-02;  1.0055502E+03;  4.0237054E-01;  4.4173281E+03;3;  7.8281242E+01;  0.0000000E+00; -4.0502036E-01;0;  8.7270141E-04;  1.0016289E+04;  0.0000000E+00; -1.3513941E-01;  1.0000000E+04;  0.0000000E+00;  9.9762500E+03; -2.0819092E-01;  0.0000000E+00;  2.0906362E-01;  7.4496689E+03;
  1.1407617E+00;  9.9999998E-03;  1.2483674E-11;2805;  2.8734869E-01;  0.0000000E+00;  3.4287293E-09;  1.0052778E+03;  4.0210056E-01;  4.1470249E+03;3;  7.6779266E+01;  0.0000000E+00;  2.4979272E-06;0; -8.6661994E-02;  1.0024850E+04;  0.0000000E+00; -1.2028505E-14;  1.0000000E+04;  0.0000000E+00;  9.9757217E+03; -3.3963168E-01;  0.0000000E+00;  2.5296968E-01;  6.9351802E+03;
  1.1407644E+00;  9.9999998E-03;  2.0024927E-02;2806;  2.8796664E-01;  0.0000000E+00;  5.4092011E-03;  1.0052698E+03;  4.0210044E-01;  4.1407407E+03;3;  7.6779900E+01;  0.0000000E+00; -3.5662033E-02;0; -8.4760547E-02;  1.0024601E+04;  0.0000000E+00; -3.3515698E-05;  1.0000000E+04;  0.0000000E+00;  9.9758154E+03; -3.3616695E-01;  0.0000000E+00;  2.5140640E-01;  6.9069658E+03;
  1.1407723E+00;  9.9999998E-03;  4.0049974E-02;2807;  2.8985232E-01;  0.0000000E+00;  1.0828737E-02;  1.0052453E+03;  4.0210053E-01;  4.1215146E+03;3;  7.6837677E+01;  0.0000000E+00; -3.9180063E-02;0; -7.9028130E-02;  1.0023846E+04;  0.0000000E+00; -1.4795996E-04;  1.0000000E+04;  0.0000000E+00;  9.9760820E+03; -3.2569566E-01;  0.0000000E+00;  2.4666753E-01;  6.8237197E+03;
  1.1407859E+00;  9.9999998E-03;  6.0075302E-02;2808;  2.9297069E-01;  0.0000000E+00;  1.6217861E-02;  1.0052003E+03;  4.0210050E-01;  4.0860671E+03;3;  7.6813568E+01;  0.0000000E+00; -2.0256208E-01;0; -6.9555998E-02;  1.0022521E+04;  0.0000000E+00; -5.3970562E-04;  1.0000000E+04;  0.0000000E+00;  9.9765020E+03; -3.0818152E-01;  0.0000000E+00;  2.3862553E-01;  6.6911953E+03;
  1.1408055E+00;  9.9999998E-03;  8.0099702E-02;2809;  2.9768342E-01;  0.0000000E+00;  2.1725636E-02;  1.0051319E+03;  4.0210056E-01;  4.0322441E+03;3;  7.6876999E+01;  0.0000000E+00; -2.1052881E-01;0; -5.7019830E-02;  1.0020635E+04;  0.0000000E+00; -4.4507603E-03;  1.0000000E+04;  0.0000000E+00;  9.9770176E+03; -2.8428739E-01;  0.0000000E+00;  2.2726756E-01;  6.5247178E+03;
  1.1408321E+00;  9.9999998E-03;  1.0012195E-01;2810;  3.0384189E-01;  0.0000000E+00;  2.6560647E-02;  1.0050417E+03;  4.0210044E-01;  3.9613555E+03;3;  7.7082985E+01;  0.0000000E+00; -2.9272463E-02;0; -4.3112114E-02;  1.0018322E+04;  0.0000000E+00; -2.9747318E-02;  1.0000000E+04;  0.0000000E+00;  9.9775313E+03; -2.5633311E-01;  0.0000000E+00;  2.1322100E-01;  6.3541685E+03;
  1.1408664E+00;  9.9999998E-03;  1.2014031E-01;2811;  3.1193352E-01;  0.0000000E+00;  3.0537598E-02;  1.0049423E+03;  4.0210053E-01;  3.8831416E+03;3;  7.7596382E+01;  0.0000000E+00;  6.4754114E-02;0; -3.0514300E-02;  1.0015963E+04;  0.0000000E+00; -1.2940343E-01;  1.0000000E+04;  0.0000000E+00;  9.9779063E+03; -2.2872230E-01;  0.0000000E+00;  1.9820800E-01;  6.2310405E+03;
  1.1409098E+00;  9.9999998E-03;  1.4015576E-01;2812;  3.2148981E-01;  0.0000000E+00;  3.3313826E-02;  1.0048564E+03;  4.0210044E-01;  3.8155837E+03;3;  7.8533051E+01;  0.0000000E+00;  2.5723806E-01;0; -2.2601485E-02;  1.0014114E+04;  0.0000000E+00; -3.9732558E-01;  1.0000000E+04;  0.0000000E+00;  9.9780430E+03; -2.0709839E-01;  0.0000000E+00;  1.8449691E-01;  6.2711265E+03;
  1.1607350E+00;  9.9999998E-03;  1.7763267E-11;2832;  2.7963084E-01;  0.0000000E+00;  3.6433188E-09;  1.0047014E+03;  4.0188852E-01;  3.6334700E+03;3;  7.5908585E+01;  0.0000000E+00; -5.1752249E-06;0; -9.0677917E-02;  1.0021201E+04;  0.0000000E+00; -1.3987753E-15;  1.0000000E+04;  0.0000000E+00;  9.9784297E+03; -3.1660244E-01;  0.0000000E+00;  2.2592452E-01;  5.4573350E+03;
  1.1607378E+00;  9.9999998E-03;  2.0022389E-02;2833;  2.8030738E-01;  0.0000000E+00;  5.0938008E-03;  1.0046901E+03;  4.0188846E-01;  3.6248005E+03;3;  7.5925491E+01;  0.0000000E+00;  9.2739232E-02;0; -8.8733763E-02;  1.0020907E+04;  0.0000000E+00; -1.1797127E-04;  1.0000000E+04;  0.0000000E+00;  9.9785000E+03; -3.1289563E-01;  0.0000000E+00;  2.2416186E-01;  5.4352124E+03;
  1.1607460E+00;  9.9999998E-03;  4.0044580E-02;2834;  2.8233671E-01;  0.0000000E+00;  1.0118390E-02;  1.0046557E+03;  4.0188846E-01;  3.5981470E+03;3;  7.6002472E+01;  0.0000000E+00;  2.2291571E-01;0; -8.3002776E-02;  1.0020015E+04;  0.0000000E+00; -1.6860808E-03;  1.0000000E+04;  0.0000000E+00;  9.9787090E+03; -3.0196291E-01;  0.0000000E+00;  2.1896014E-01;  5.3722139E+03;
  1.1607603E+00;  9.9999998E-03;  6.0066365E-02;2835;  2.8585875E-01;  0.0000000E+00;  1.4961099E-02;  1.0045983E+03;  4.0188846E-01;  3.5537852E+03;3;  7.6122177E+01;  0.0000000E+00;  1.8466949E-01;0; -7.3944524E-02;  1.0018568E+04;  0.0000000E+00; -1.0712306E-02;  1.0000000E+04;  0.0000000E+00;  9.9790000E+03; -2.8454557E-01;  0.0000000E+00;  2.1060105E-01;  5.2797505E+03;
  1.1607815E+00;  9.9999998E-03;  8.0086805E-02;2836;  2.9100212E-01;  0.0000000E+00;  1.9442014E-02;  1.0045199E+03;  4.0188855E-01;  3.4930947E+03;3;  7.6254257E+01;  0.0000000E+00;  1.8537739E-01;0; -6.2869817E-02;  1.0016711E+04;  0.0000000E+00; -4.7509141E-02;  1.0000000E+04;  0.0000000E+00;  9.9792920E+03; -2.6262075E-01;  0.0000000E+00;  1.9975093E-01;  5.1815947E+03;
  1.1608101E+00;  9.9999998E-03;  1.0010375E-01;2837;  2.9815039E-01;  0.0000000E+00;  2.3279585E-02;  1.0044303E+03;  4.0188849E-01;  3.4237234E+03;3;  7.6805946E+01;  0.0000000E+00;  3.5446143E-01;0; -5.1972941E-02;  1.0014731E+04;  0.0000000E+00; -1.5744843E-01;  1.0000000E+04;  0.0000000E+00;  9.9794873E+03; -2.3958857E-01;  0.0000000E+00;  1.8761563E-01;  5.1194414E+03;
  1.1608473E+00;  9.9999998E-03;  1.2011776E-01;2838;  3.0680412E-01;  0.0000000E+00;  2.5926229E-02;  1.0043483E+03;  4.0188855E-01;  3.3602251E+03;3;  7.7872910E+01;  0.0000000E+00;  5.6205648E-01;0; -4.4306010E-02;  1.0013093E+04;  0.0000000E+00; -4.1996014E-01;  1.0000000E+04;  0.0000000E+00;  9.9794951E+03; -2.2023460E-01;  0.0000000E+00;  1.7592859E-01;  5.1907070E+03;
  1.1608952E+00;  9.9999998E-03;  1.4013177E-01;2839;  3.1773826E-01;  0.0000000E+00;  2.8172208E-02;  1.0042980E+03;  4.0188864E-01;  3.3212009E+03;3;  7.9724792E+01;  0.0000000E+00;  6.9732475E-01;0; -4.2310834E-02;  1.0012283E+04;  0.0000000E+00; -9.1755241E-01;  1.0000000E+04;  0.0000000E+00;  9.9793008E+03; -2.0870925E-01;  0.0000000E+00;  1.6639842E-01;  5.6299478E+03;
  1.1807117E+00;  9.9999998E-03;  1.6245909E-11;2858;  2.7285990E-01;  0.0000000E+00;  1.0209397E-08;  1.0041729E+03;  4.0172553E-01;  3.1581011E+03;3;  7.5226067E+01;  0.0000000E+00;  2.2579552E-06;0; -8.7461233E-02;  1.0016348E+04;  0.0000000E+00; -1.1921761E-14;  1.0000000E+04;  0.0000000E+00;  9.9808555E+03; -2.8269720E-01;  0.0000000E+00;  1.9523597E-01;  4.2013125E+03;
  1.1807146E+00;  9.9999998E-03;  2.0019228E-02;2859;  2.7357200E-01;  0.0000000E+00;  4.5851329E-03;  1.0041599E+03;  4.0172562E-01;  3.1482568E+03;3;  7.5213554E+01;  0.0000000E+00;  2.0703617E-01;0; -8.5657552E-02;  1.0016053E+04;  0.0000000E+00; -2.4498126E-03;  1.0000000E+04;  0.0000000E+00;  9.9808877E+03; -2.7936020E-01;  0.0000000E+00;  1.9370265E-01;  4.1893320E+03;
  1.1807233E+00;  9.9999998E-03;  4.0038127E-02;2860;  2.7582279E-01;  0.0000000E+00;  8.9981658E-03;  1.0041218E+03;  4.0172571E-01;  3.1193552E+03;3;  7.5407616E+01;  0.0000000E+00;  3.9822590E-01;0; -8.0590874E-02;  1.0015217E+04;  0.0000000E+00; -1.7844634E-02;  1.0000000E+04;  0.0000000E+00;  9.9809668E+03; -2.6992214E-01;  0.0000000E+00;  1.8933126E-01;  4.1580898E+03;
  1.1807386E+00;  9.9999998E-03;  6.0055938E-02;2861;  2.7964064E-01;  0.0000000E+00;  1.2913641E-02;  1.0040639E+03;  4.0172556E-01;  3.0754546E+03;3;  7.5666634E+01;  0.0000000E+00;  4.5405552E-01;0; -7.3293909E-02;  1.0013986E+04;  0.0000000E+00; -7.0435949E-02;  1.0000000E+04;  0.0000000E+00;  9.9810410E+03; -2.5607029E-01;  0.0000000E+00;  1.8277638E-01;  4.1234873E+03;
  1.1807612E+00;  9.9999998E-03;  8.0071442E-02;2862;  2.8549901E-01;  0.0000000E+00;  1.6321151E-02;  1.0039950E+03;  4.0172568E-01;  3.0232292E+03;3;  7.6289886E+01;  0.0000000E+00;  5.3339970E-01;0; -6.5622762E-02;  1.0012616E+04;  0.0000000E+00; -2.0603609E-01;  1.0000000E+04;  0.0000000E+00;  9.9810352E+03; -2.4060060E-01;  0.0000000E+00;  1.7497784E-01;  4.1218379E+03;
  1.1807925E+00;  9.9999998E-03;  1.0008459E-01;2863;  2.9302555E-01;  0.0000000E+00;  1.8870592E-02;  1.0039307E+03;  4.0172565E-01;  2.9744954E+03;3;  7.7293549E+01;  0.0000000E+00;  6.7344743E-01;0; -6.0203850E-02;  1.0011476E+04;  0.0000000E+00; -4.8988938E-01;  1.0000000E+04;  0.0000000E+00;  9.9808936E+03; -2.2708885E-01;  0.0000000E+00;  1.6688500E-01;  4.2420933E+03;
  1.1808336E+00;  9.9999998E-03;  1.2009754E-01;2864;  3.0282336E-01;  0.0000000E+00;  2.1133870E-02;  1.0038910E+03;  4.0172568E-01;  2.9443130E+03;3;  7.9296883E+01;  0.0000000E+00;  7.9634678E-01;0; -5.9236720E-02;  1.0010972E+04;  0.0000000E+00; -9.9136269E-01;  1.0000000E+04;  0.0000000E+00;  9.9806064E+03; -2.1894625E-01;  0.0000000E+00;  1.5970953E-01;  4.6813784E+03;
  1.1808866E+00;  9.9999998E-03;  1.4011261E-01;2865;  3.1485102E-01;  0.0000000E+00;  2.3195585E-02;  1.0038896E+03;  4.0172562E-01;  2.9430474E+03;3;  8.2913040E+01;  0.0000000E+00;  1.0534128E+00;0; -6.2982023E-02;  1.0011331E+04;  0.0000000E+00; -1.7292582E+00;  1.0000000E+04;  0.0000000E+00;  9.9802266E+03; -2.1709599E-01;  0.0000000E+00;  1.5411396E-01;  5.6646206E+03;
  1.2006924E+00;  9.9999998E-03;  2.1028929E-11;2882;  2.6730382E-01;  0.0000000E+00;  1.0874088E-08;  1.0037047E+03;  4.0160295E-01;  2.7315264E+03;3;  7.5091644E+01;  0.0000000E+00;  1.0330652E-05;0; -8.4510103E-02;  1.0011157E+04;  0.0000000E+00; -2.1357151E-14;  1.0000000E+04;  0.0000000E+00;  9.9828066E+03; -2.4738519E-01;  0.0000000E+00;  1.6287509E-01;  3.1984446E+03;
  1.2006955E+00;  9.9999998E-03;  2.0015649E-02;2883;  2.6806214E-01;  0.0000000E+00;  3.7990781E-03;  1.0036935E+03;  4.0160301E-01;  2.7233403E+03;3;  7.5251228E+01;  0.0000000E+00;  2.9376638E-01;0; -8.3166763E-02;  1.0010959E+04;  0.0000000E+00; -1.3507471E-02;  1.0000000E+04;  0.0000000E+00;  9.9827900E+03; -2.4527627E-01;  0.0000000E+00;  1.6210951E-01;  3.1980505E+03;
  1.2007048E+00;  9.9999998E-03;  4.0030710E-02;2884;  2.7045920E-01;  0.0000000E+00;  7.2588199E-03;  1.0036625E+03;  4.0160298E-01;  2.7004512E+03;3;  7.5465164E+01;  0.0000000E+00;  4.9012870E-01;0; -7.9629436E-02;  1.0010416E+04;  0.0000000E+00; -7.2212994E-02;  1.0000000E+04;  0.0000000E+00;  9.9827109E+03; -2.3963964E-01;  0.0000000E+00;  1.6001020E-01;  3.2027571E+03;
  1.2007213E+00;  9.9999998E-03;  6.0044348E-02;2885;  2.7466682E-01;  0.0000000E+00;  1.0060400E-02;  1.0036218E+03;  4.0160310E-01;  2.6703279E+03;3;  7.6327377E+01;  0.0000000E+00;  6.1469328E-01;0; -7.5568080E-02;  1.0009759E+04;  0.0000000E+00; -2.2554234E-01;  1.0000000E+04;  0.0000000E+00;  9.9825508E+03; -2.3267736E-01;  0.0000000E+00;  1.5710928E-01;  3.2402349E+03;
  1.2007462E+00;  9.9999998E-03;  8.0056481E-02;2886;  2.8069001E-01;  0.0000000E+00;  1.2301397E-02;  1.0035855E+03;  4.0160307E-01;  2.6434260E+03;3;  7.7330589E+01;  0.0000000E+00;  6.2326813E-01;0; -7.3362008E-02;  1.0009301E+04;  0.0000000E+00; -5.3805083E-01;  1.0000000E+04;  0.0000000E+00;  9.9822832E+03; -2.2724715E-01;  0.0000000E+00;  1.5388514E-01;  3.3929622E+03;
  1.2007806E+00;  9.9999998E-03;  1.0006884E-01;2887;  2.8919864E-01;  0.0000000E+00;  1.4586525E-02;  1.0035698E+03;  4.0160304E-01;  2.6316938E+03;3;  7.9431198E+01;  0.0000000E+00;  7.3595262E-01;0; -7.4533895E-02;  1.0009364E+04;  0.0000000E+00; -1.0637904E+00;  1.0000000E+04;  0.0000000E+00;  9.9819121E+03; -2.2540362E-01;  0.0000000E+00;  1.5086973E-01;  3.8294263E+03;
  1.2008270E+00;  9.9999998E-03;  1.2008388E-01;2888;  2.9972956E-01;  0.0000000E+00;  1.6634140E-02;  1.0035825E+03;  4.0160295E-01;  2.6409204E+03;3;  8.3015106E+01;  0.0000000E+00;  8.2349104E-01;0; -7.9557404E-02;  1.0010084E+04;  0.0000000E+00; -1.8116877E+00;  1.0000000E+04;  0.0000000E+00;  9.9814541E+03; -2.2761703E-01;  0.0000000E+00;  1.4805962E-01;  4.7153174E+03;
  1.2008892E+00;  9.9999998E-03;  1.4010429E-01;2889;  3.1264597E-01;  0.0000000E+00;  1.9036118E-02;  1.0035944E+03;  4.0160289E-01;  2.6494700E+03;3;  8.9017647E+01;  0.0000000E+00;  9.9696761E-01;0; -8.2771569E-02;  1.0010944E+04;  0.0000000E+00; -2.7143190E+00;  1.0000000E+04;  0.0000000E+00;  9.9808457E+03; -2.2883984E-01;  0.0000000E+00;  1.4606827E-01;  6.0198721E+03;
  1.2206775E+00;  9.9999998E-03;  2.1802308E-11;2905;  2.6259604E-01;  0.0000000E+00;  1.4096303E-08;  1.0033257E+03;  4.0151268E-01;  2.3755894E+03;3;  7.6504074E+01;  0.0000000E+00;  1.8098937E-05;0; -8.9008436E-02;  1.0006736E+04;  0.0000000E+00; -1.0171992E-14;  1.0000000E+04;  0.0000000E+00;  9.9841699E+03; -2.2053115E-01;  0.0000000E+00;  1.3152272E-01;  2.4491221E+03;
  1.2206810E+00;  9.9999998E-03;  2.0012408E-02;2906;  2.6347733E-01;  0.0000000E+00;  2.6830395E-03;  1.0033204E+03;  4.0151277E-01;  2.3718289E+03;3;  7.6716301E+01;  0.0000000E+00;  2.7392542E-01;0; -8.8339761E-02;  1.0006695E+04;  0.0000000E+00; -3.6554195E-02;  1.0000000E+04;  0.0000000E+00;  9.9841045E+03; -2.2017495E-01;  0.0000000E+00;  1.3183519E-01;  2.4586438E+03;
  1.2206914E+00;  9.9999998E-03;  4.0024035E-02;2907;  2.6598918E-01;  0.0000000E+00;  4.9577425E-03;  1.0033084E+03;  4.0151277E-01;  2.3631853E+03;3;  7.7338173E+01;  0.0000000E+00;  4.1079569E-01;0; -8.7177515E-02;  1.0006658E+04;  0.0000000E+00; -1.7260776E-01;  1.0000000E+04;  0.0000000E+00;  9.9839063E+03; -2.1992762E-01;  0.0000000E+00;  1.3275011E-01;  2.4990374E+03;
  1.2207099E+00;  9.9999998E-03;  6.0034767E-02;2908;  2.7041179E-01;  0.0000000E+00;  6.7595383E-03;  1.0033021E+03;  4.0151268E-01;  2.3585969E+03;3;  7.8426399E+01;  0.0000000E+00;  4.7215533E-01;0; -8.7469473E-02;  1.0006847E+04;  0.0000000E+00; -4.7145697E-01;  1.0000000E+04;  0.0000000E+00;  9.9835898E+03; -2.2161986E-01;  0.0000000E+00;  1.3415039E-01;  2.6281506E+03;
  1.2207381E+00;  9.9999998E-03;  8.0046967E-02;2909;  2.7707416E-01;  0.0000000E+00;  8.7424414E-03;  1.0033137E+03;  4.0151268E-01;  2.3668259E+03;3;  8.0701019E+01;  0.0000000E+00;  4.8991105E-01;0; -9.0769380E-02;  1.0007503E+04;  0.0000000E+00; -9.9436510E-01;  1.0000000E+04;  0.0000000E+00;  9.9831709E+03; -2.2675392E-01;  0.0000000E+00;  1.3598454E-01;  2.9879028E+03;
  1.2207788E+00;  9.9999998E-03;  1.0006307E-01;2910;  2.8622365E-01;  0.0000000E+00;  1.0939018E-02;  1.0033397E+03;  4.0151274E-01;  2.3851338E+03;3;  8.4612122E+01;  0.0000000E+00;  4.5998889E-01;0; -9.5911041E-02;  1.0008582E+04;  0.0000000E+00; -1.7514397E+00;  1.0000000E+04;  0.0000000E+00;  9.9826182E+03; -2.3383965E-01;  0.0000000E+00;  1.3792861E-01;  3.7281570E+03;
  1.2208364E+00;  9.9999998E-03;  1.2008476E-01;2911;  2.9760900E-01;  0.0000000E+00;  1.3409839E-02;  1.0033340E+03;  4.0151262E-01;  2.3808950E+03;3;  8.9973175E+01;  0.0000000E+00;  3.2990766E-01;0; -9.7032100E-02;  1.0009285E+04;  0.0000000E+00; -2.6767192E+00;  1.0000000E+04;  0.0000000E+00;  9.9818135E+03; -2.3686235E-01;  0.0000000E+00;  1.3983025E-01;  4.8302988E+03;
  1.2209088E+00;  9.9999998E-03;  1.4010951E-01;2912;  3.1109753E-01;  0.0000000E+00;  1.6051779E-02;  1.0032320E+03;  4.0151253E-01;  2.3077346E+03;3;  9.7733521E+01;  0.0000000E+00;  2.6233259E-01;0; -8.2974717E-02;  1.0008354E+04;  0.0000000E+00; -3.5730026E+00;  1.0000000E+04;  0.0000000E+00;  9.9807207E+03; -2.2412264E-01;  0.0000000E+00;  1.4114793E-01;  6.0020352E+03;
  1.2406700E+00;  9.9999998E-03;  2.9710789E-11;2926;  2.5844249E-01;  0.0000000E+00;  1.5804332E-08;  1.0030714E+03;  4.0144759E-01;  2.1132627E+03;3;  8.0509621E+01;  0.0000000E+00;  1.8303399E-05;0; -1.0432646E-01;  1.0004128E+04;  0.0000000E+00;  5.2497659E-14;  1.0000000E+04;  0.0000000E+00;  9.9849551E+03; -2.0757756E-01;  0.0000000E+00;  1.0325109E-01;  1.9294340E+03;
  1.2406741E+00;  9.9999998E-03;  2.0010883E-02;2927;  2.5934184E-01;  0.0000000E+00;  1.4538659E-03;  1.0030731E+03;  4.0144756E-01;  2.1143933E+03;3;  8.0648087E+01;  0.0000000E+00;  9.1997162E-02;0; -1.0424078E-01;  1.0004257E+04;  0.0000000E+00; -6.3729301E-02;  1.0000000E+04;  0.0000000E+00;  9.9848584E+03; -2.0882799E-01;  0.0000000E+00;  1.0458721E-01;  1.9456257E+03;
  1.2406869E+00;  9.9999998E-03;  4.0021546E-02;2928;  2.6221696E-01;  0.0000000E+00;  2.8043846E-03;  1.0030811E+03;  4.0144742E-01;  2.1198337E+03;3;  8.1844643E+01;  0.0000000E+00;  1.7240289E-01;0; -1.0519087E-01;  1.0004692E+04;  0.0000000E+00; -2.8241447E-01;  1.0000000E+04;  0.0000000E+00;  9.9845898E+03; -2.1349481E-01;  0.0000000E+00;  1.0830394E-01;  2.0144716E+03;
  1.2407103E+00;  9.9999998E-03;  6.0034480E-02;2929;  2.6708776E-01;  0.0000000E+00;  4.3627536E-03;  1.0030977E+03;  4.0144745E-01;  2.1311345E+03;3;  8.3837662E+01;  0.0000000E+00;  4.0416092E-02;0; -1.0786407E-01;  1.0005454E+04;  0.0000000E+00; -7.1761167E-01;  1.0000000E+04;  0.0000000E+00;  9.9841611E+03; -2.2174925E-01;  0.0000000E+00;  1.1388518E-01;  2.2213008E+03;
  1.2407471E+00;  9.9999998E-03;  8.0052115E-02;2930;  2.7419534E-01;  0.0000000E+00;  6.3303551E-03;  1.0031022E+03;  4.0144745E-01;  2.1340923E+03;3;  8.7267128E+01;  0.0000000E+00; -2.3652221E-01;0; -1.1054748E-01;  1.0006214E+04;  0.0000000E+00; -1.4148079E+00;  1.0000000E+04;  0.0000000E+00;  9.9834990E+03; -2.3125124E-01;  0.0000000E+00;  1.2070376E-01;  2.7138721E+03;
  1.2407991E+00;  9.9999998E-03;  1.0007358E-01;2931;  2.8418624E-01;  0.0000000E+00;  8.9304829E-03;  1.0030505E+03;  4.0144753E-01;  2.0982808E+03;3;  9.2743576E+01;  0.0000000E+00; -3.7955970E-01;0; -1.0493964E-01;  1.0006163E+04;  0.0000000E+00; -2.3209009E+00;  1.0000000E+04;  0.0000000E+00;  9.9825293E+03; -2.3318438E-01;  0.0000000E+00;  1.2824474E-01;  3.5306658E+03;
  1.2408608E+00;  9.9999998E-03;  1.2009488E-01;2932;  2.9548219E-01;  0.0000000E+00;  1.1102187E-02;  1.0029260E+03;  4.0144756E-01;  2.0124229E+03;3;  1.0014337E+02;  0.0000000E+00; -5.5991709E-01;0; -8.9410648E-02;  1.0004794E+04;  0.0000000E+00; -3.1594718E+00;  1.0000000E+04;  0.0000000E+00;  9.9814199E+03; -2.2221319E-01;  0.0000000E+00;  1.3280255E-01;  4.3786025E+03;
  1.2409240E+00;  9.9999998E-03;  1.4011435E-01;2933;  3.0753812E-01;  0.0000000E+00;  1.3480120E-02;  1.0027487E+03;  4.0144762E-01;  1.8902640E+03;3;  1.1072469E+02;  0.0000000E+00;  1.8132955E-02;0; -5.5987298E-02;  1.0002196E+04;  0.0000000E+00; -3.4009635E+00;  1.0000000E+04;  0.0000000E+00;  9.9804883E+03; -1.8948549E-01;  0.0000000E+00;  1.3349819E-01;  4.6439067E+03;
  1.2606879E+00;  9.9999998E-03;  2.3179163E-11;2944;  2.5441673E-01;  0.0000000E+00;  1.3180367E-08;  1.0028138E+03;  4.0140140E-01;  1.8546813E+03;3;  8.8086830E+01;  0.0000000E+00;  1.7487328E-05;0; -1.2404520E-01;  1.0000946E+04;  0.0000000E+00; -6.4154559E-15;  1.0000000E+04;  0.0000000E+00;  9.9853027E+03; -2.0301417E-01;  0.0000000E+00;  7.8968965E-02;  1.5202263E+03;
  1.2606934E+00;  9.9999998E-03;  2.0013466E-02;2945;  2.5544319E-01;  0.0000000E+00;  6.0588418E-04;  1.0028094E+03;  4.0140143E-01;  1.8517512E+03;3;  8.8560776E+01;  0.0000000E+00; -2.1400340E-01;0; -1.2411258E-01;  1.0000994E+04;  0.0000000E+00; -7.9472288E-02;  1.0000000E+04;  0.0000000E+00;  9.9851738E+03; -2.0514016E-01;  0.0000000E+00;  8.1027575E-02;  1.5359310E+03;
  1.2607095E+00;  9.9999998E-03;  4.0028393E-02;2946;  2.5853243E-01;  0.0000000E+00;  1.6665867E-03;  1.0027970E+03;  4.0140155E-01;  1.8435121E+03;3;  9.0105606E+01;  0.0000000E+00; -5.3427541E-01;0; -1.2379143E-01;  1.0001133E+04;  0.0000000E+00; -3.4431773E-01;  1.0000000E+04;  0.0000000E+00;  9.9847793E+03; -2.1087511E-01;  0.0000000E+00;  8.7083682E-02;  1.6082024E+03;
  1.2607368E+00;  9.9999998E-03;  6.0045768E-02;2947;  2.6368171E-01;  0.0000000E+00;  3.0009903E-03;  1.0027665E+03;  4.0140149E-01;  1.8232853E+03;3;  9.2773476E+01;  0.0000000E+00; -1.0658488E+00;0; -1.2189851E-01;  1.0001215E+04;  0.0000000E+00; -8.3876097E-01;  1.0000000E+04;  0.0000000E+00;  9.9841025E+03; -2.1812689E-01;  0.0000000E+00;  9.6228383E-02;  1.8185254E+03;
  1.2607733E+00;  9.9999998E-03;  8.0063634E-02;2948;  2.7084008E-01;  0.0000000E+00;  4.6019438E-03;  1.0027166E+03;  4.0140134E-01;  1.7902181E+03;3;  9.7762878E+01;  0.0000000E+00; -1.1491833E+00;0; -1.1643565E-01;  1.0001141E+04;  0.0000000E+00; -1.5129726E+00;  1.0000000E+04;  0.0000000E+00;  9.9831895E+03; -2.2277111E-01;  0.0000000E+00;  1.0633545E-01;  2.2257288E+03;
  1.2608176E+00;  9.9999998E-03;  1.0008126E-01;2949;  2.8027263E-01;  0.0000000E+00;  6.8111201E-03;  1.0026326E+03;  4.0140149E-01;  1.7347379E+03;3;  1.0517487E+02;  0.0000000E+00; -8.2823586E-01;0; -9.4712682E-02;  1.0000450E+04;  0.0000000E+00; -2.1141360E+00;  1.0000000E+04;  0.0000000E+00;  9.9822061E+03; -2.1067004E-01;  0.0000000E+00;  1.1595736E-01;  2.6627434E+03;
  1.2608644E+00;  9.9999998E-03;  1.2009550E-01;2950;  2.9001859E-01;  0.0000000E+00;  8.3985655E-03;  1.0025645E+03;  4.0140149E-01;  1.6897054E+03;3;  1.1493866E+02;  0.0000000E+00; -3.5505193E-01;0; -7.5153947E-02;  9.9996270E+03;  0.0000000E+00; -2.1404040E+00;  1.0000000E+04;  0.0000000E+00;  9.9816689E+03; -1.9286920E-01;  0.0000000E+00;  1.1771525E-01;  2.7031111E+03;
  1.2609121E+00;  9.9999998E-03;  1.4011110E-01;2951;  3.0004704E-01;  0.0000000E+00;  1.1321759E-02;  1.0024791E+03;  4.0140149E-01;  1.6332135E+03;3;  1.2705022E+02;  0.0000000E+00;  8.8515198E-01;0; -3.8660496E-02;  9.9982988E+03;  0.0000000E+00; -1.1820084E+00;  1.0000000E+04;  0.0000000E+00;  9.9813008E+03; -1.5985286E-01;  0.0000000E+00;  1.2119237E-01;  2.1493271E+03;
  1.2807062E+00;  9.9999998E-03;  2.4208913E-11;2959;  2.4923322E-01;  0.0000000E+00;  8.6663112E-09;  1.0024979E+03;  4.0136954E-01;  1.5703793E+03;3;  1.0042037E+02;  0.0000000E+00;  1.1276279E-05;0; -1.4634925E-01;  9.9961553E+03;  0.0000000E+00; -8.4408061E-15;  1.0000000E+04;  0.0000000E+00;  9.9854004E+03; -2.0511982E-01;  0.0000000E+00;  5.8770571E-02;  1.1433231E+03;
  1.2807101E+00;  9.9999998E-03;  2.0013791E-02;2960;  2.5009519E-01;  0.0000000E+00; -2.7119659E-04;  1.0025045E+03;  4.0136951E-01;  1.5744860E+03;3;  1.0102402E+02;  0.0000000E+00; -3.4561169E-01;0; -1.4692844E-01;  9.9964141E+03;  0.0000000E+00; -5.3768802E-02;  1.0000000E+04;  0.0000000E+00;  9.9852637E+03; -2.0794442E-01;  0.0000000E+00;  6.1015978E-02;  1.1625757E+03;
  1.2807224E+00;  9.9999998E-03;  4.0029645E-02;2961;  2.5294349E-01;  0.0000000E+00; -7.1643444E-05;  1.0025175E+03;  4.0136951E-01;  1.5826071E+03;3;  1.0260392E+02;  0.0000000E+00; -1.2866744E+00;0; -1.4532211E-01;  9.9971064E+03;  0.0000000E+00; -2.2081295E-01;  1.0000000E+04;  0.0000000E+00;  9.9848438E+03; -2.1275356E-01;  0.0000000E+00;  6.7431442E-02;  1.2269474E+03;
  1.2807426E+00;  9.9999998E-03;  6.0046535E-02;2962;  2.5789678E-01;  0.0000000E+00;  8.1809406E-04;  1.0025309E+03;  4.0136948E-01;  1.5909963E+03;3;  1.0615954E+02;  0.0000000E+00; -1.4685781E+00;0; -1.3975757E-01;  9.9980576E+03;  0.0000000E+00; -4.7341943E-01;  1.0000000E+04;  0.0000000E+00;  9.9841602E+03; -2.1649078E-01;  0.0000000E+00;  7.6733209E-02;  1.3456266E+03;
  1.2807697E+00;  9.9999998E-03;  8.0062345E-02;2963;  2.6420254E-01;  0.0000000E+00;  1.9066249E-03;  1.0025501E+03;  4.0136939E-01;  1.6029554E+03;3;  1.1189342E+02;  0.0000000E+00; -1.3178881E+00;0; -1.3287595E-01;  9.9991943E+03;  0.0000000E+00; -6.5594602E-01;  1.0000000E+04;  0.0000000E+00;  9.9834023E+03; -2.1863949E-01;  0.0000000E+00;  8.5763551E-02;  1.4761896E+03;
  1.2808044E+00;  9.9999998E-03;  1.0007802E-01;2964;  2.7227268E-01;  0.0000000E+00;  4.1306601E-03;  1.0025272E+03;  4.0136942E-01;  1.5883584E+03;3;  1.2027670E+02;  0.0000000E+00; -6.3909638E-01;0; -1.0910650E-01;  9.9994287E+03;  0.0000000E+00; -4.6519262E-01;  1.0000000E+04;  0.0000000E+00;  9.9827178E+03; -2.0469745E-01;  0.0000000E+00;  9.5590942E-02;  1.5018916E+03;
  1.2808386E+00;  9.9999998E-03;  1.2008952E-01;2965;  2.7963749E-01;  0.0000000E+00;  6.0223630E-03;  1.0026000E+03;  4.0136939E-01;  1.6340015E+03;3;  1.3015320E+02;  0.0000000E+00;  6.2894821E-02;0; -1.0532124E-01;  1.0000795E+04;  0.0000000E+00;  3.9781773E-01;  1.0000000E+04;  0.0000000E+00;  9.9828076E+03; -2.0371014E-01;  0.0000000E+00;  9.8388895E-02;  1.5224196E+03;
  1.3006881E+00;  9.9999998E-03;  2.0161877E-11;2970;  2.4251564E-01;  0.0000000E+00;  8.9738723E-09;  1.0027024E+03;  4.0134764E-01;  1.6160852E+03;3;  1.1567774E+02;  0.0000000E+00;  2.1652380E-05;0; -1.8541695E-01;  1.0001322E+04;  0.0000000E+00;  4.4363368E-15;  1.0000000E+04;  0.0000000E+00;  9.9853955E+03; -2.2789019E-01;  0.0000000E+00;  4.2473242E-02;  1.1078749E+03;
  1.3006915E+00;  9.9999998E-03;  2.0011727E-02;2971;  2.4325453E-01;  0.0000000E+00; -8.2603574E-04;  1.0027139E+03;  4.0134761E-01;  1.6229867E+03;3;  1.1632774E+02;  0.0000000E+00; -3.3657902E-01;0; -1.8622077E-01;  1.0001642E+04;  0.0000000E+00;  9.5479582E-03;  1.0000000E+04;  0.0000000E+00;  9.9853047E+03; -2.3073906E-01;  0.0000000E+00;  4.4518284E-02;  1.1236222E+03;
  1.3007016E+00;  9.9999998E-03;  4.0025264E-02;2972;  2.4542043E-01;  0.0000000E+00; -1.5550498E-03;  1.0027412E+03;  4.0134767E-01;  1.6392703E+03;3;  1.1831492E+02;  0.0000000E+00; -6.5786207E-01;0; -1.8920258E-01;  1.0002476E+04;  0.0000000E+00;  6.2225729E-02;  1.0000000E+04;  0.0000000E+00;  9.9850215E+03; -2.3874654E-01;  0.0000000E+00;  4.9543966E-02;  1.1680564E+03;
  1.3007185E+00;  9.9999998E-03;  6.0040932E-02;2973;  2.4888678E-01;  0.0000000E+00; -1.9028295E-03;  1.0027706E+03;  4.0134749E-01;  1.6568070E+03;3;  1.2163560E+02;  0.0000000E+00; -1.3312553E+00;0; -1.9515502E-01;  1.0003553E+04;  0.0000000E+00;  2.3904552E-01;  1.0000000E+04;  0.0000000E+00;  9.9845332E+03; -2.5014138E-01;  0.0000000E+00;  5.4986358E-02;  1.2411493E+03;
  1.3007411E+00;  9.9999998E-03;  8.0057628E-02;2974;  2.5376752E-01;  0.0000000E+00; -4.8024693E-04;  1.0028018E+03;  4.0134740E-01;  1.6753167E+03;3;  1.2689845E+02;  0.0000000E+00; -1.5102528E+00;0; -1.9723782E-01;  1.0004847E+04;  0.0000000E+00;  6.7926049E-01;  1.0000000E+04;  0.0000000E+00;  9.9838574E+03; -2.6063398E-01;  0.0000000E+00;  6.3396156E-02;  1.3740643E+03;
 -1.0871800E-05;  9.9999998E-03;  1.6000098E-01;1053; -5.8588930E-03;  0.0000000E+00;  5.8555225E-04;  1.0002234E+03;  4.0000001E-01;  1.8508116E+02;3; -3.4020805E+00;  0.0000000E+00;  3.8389015E-01;0; -1.1124866E-01;  1.0004639E+04;  0.0000000E+00; -5.0848001E-08;  1.0000000E+04;  0.0000000E+00;  9.9998330E+03; -1.1528709E-01;  0.0000000E+00;  4.0384200E-03;  9.6165276E+01;
 -1.0565280E-05;  9.9999998E-03;  1.8000124E-01;1054; -5.6794458E-03;  0.0000000E+00;  7.1890262E-04;  1.0002160E+03;  4.0000001E-01;  1.7895787E+02;3; -3.2882938E+00;  0.0000000E+00;  4.5610452E-01;0; -1.0745612E-01;  1.0004491E+04;  0.0000000E+00; -5.5237564E-08;  1.0000000E+04;  0.0000000E+00;  9.9998281E+03; -1.1143760E-01;  0.0000000E+00;  3.9814855E-03;  9.6656212E+01;
 -1.0101614E-05;  9.9999998E-03;  2.0000152E-01;1055; -5.4157418E-03;  0.0000000E+00;  8.5759244E-04;  1.0002062E+03;  4.0000001E-01;  1.7085934E+02;3; -3.1350918E+00;  0.0000000E+00;  5.3036070E-01;0; -1.0236499E-01;  1.0004276E+04;  0.0000000E+00;  1.3184038E-08;  1.0000000E+04;  0.0000000E+00;  9.9998506E+03; -1.0578648E-01;  0.0000000E+00;  3.4214957E-03;  8.6933472E+01;
 -9.4365323E-06;  9.9999998E-03;  2.2000182E-01;1056; -5.0446950E-03;  0.0000000E+00;  1.0020139E-03;  1.0001933E+03;  4.0000001E-01;  1.6019298E+02;3; -2.9395361E+00;  0.0000000E+00;  6.1141682E-01;0; -9.5707707E-02;  1.0003967E+04;  0.0000000E+00;  5.1294222E-08;  1.0000000E+04;  0.0000000E+00;  9.9998994E+03; -9.7846612E-02;  0.0000000E+00;  2.1389062E-03;  6.2564152E+01;
 -8.5385682E-06;  9.9999998E-03;  2.4000208E-01;1057; -4.5480751E-03;  0.0000000E+00;  1.1369784E-03;  1.0001765E+03;  4.0000001E-01;  1.4626744E+02;3; -2.6988726E+00;  0.0000000E+00;  6.9788742E-01;0; -8.7185338E-02;  1.0003548E+04;  0.0000000E+00; -2.5517846E-07;  1.0000000E+04;  0.0000000E+00;  9.9999844E+03; -8.7256595E-02;  0.0000000E+00;  7.1256654E-05;  2.2203291E+01;
 -7.3980950E-06;  9.9999998E-03;  2.6000229E-01;1058; -3.9259130E-03;  0.0000000E+00;  1.2370233E-03;  1.0001552E+03;  4.0000001E-01;  1.2858894E+02;3; -2.4120865E+00;  0.0000000E+00;  7.7935076E-01;0; -7.6578356E-02;  1.0003019E+04;  0.0000000E+00; -1.3007580E-06;  1.0000000E+04;  0.0000000E+00;  1.0000091E+04; -7.4022211E-02;  0.0000000E+00; -2.5561424E-03;  2.9832060E+01;
 -6.0564330E-06;  9.9999998E-03;  2.8000236E-01;1059; -3.1998283E-03;  0.0000000E+00;  1.2735013E-03;  1.0001298E+03;  4.0000001E-01;  1.0755250E+02;3; -2.0688801E+00;  0.0000000E+00;  8.4200430E-01;0; -6.3905381E-02;  1.0002399E+04;  0.0000000E+00; -3.0769393E-06;  1.0000000E+04;  0.0000000E+00;  1.0000198E+04; -5.8780573E-02;  0.0000000E+00; -5.1248064E-03;  8.1595032E+01;
  1.9984618E-02;  9.9999998E-03;  1.6000132E-01;1083; -8.2189441E-03;  0.0000000E+00;  7.8853860E-04;  1.0002618E+03;  4.0000001E-01;  2.1688272E+02;3; -4.1519222E+00;  0.0000000E+00;  4.6329510E-01;0; -1.2866940E-01;  1.0005459E+04;  0.0000000E+00;  2.2373547E-07;  1.0000000E+04;  0.0000000E+00;  9.9997803E+03; -1.3386098E-01;  0.0000000E+00;  5.1915855E-03;  1.2350723E+02;
  1.9985015E-02;  9.9999998E-03;  1.8000166E-01;1084; -7.9857381E-03;  0.0000000E+00;  9.5649267E-04;  1.0002540E+03;  4.0000001E-01;  2.1036440E+02;3; -4.0190048E+00;  0.0000000E+00;  5.4056960E-01;0; -1.2463441E-01;  1.0005306E+04;  0.0000000E+00;  4.5824530E-07;  1.0000000E+04;  0.0000000E+00;  9.9997793E+03; -1.2973547E-01;  0.0000000E+00;  5.1010638E-03;  1.2431606E+02;
  1.9985642E-02;  9.9999998E-03;  2.0000203E-01;1085; -7.6284469E-03;  0.0000000E+00;  1.1366094E-03;  1.0002435E+03;  4.0000001E-01;  2.0167328E+02;3; -3.8391705E+00;  0.0000000E+00;  6.2366652E-01;0; -1.1918305E-01;  1.0005069E+04;  0.0000000E+00;  8.8160874E-07;  1.0000000E+04;  0.0000000E+00;  9.9998018E+03; -1.2357151E-01;  0.0000000E+00;  4.3884590E-03;  1.1223259E+02;
  1.9986570E-02;  9.9999998E-03;  2.2000238E-01;1086; -7.1144225E-03;  0.0000000E+00;  1.3072998E-03;  1.0002292E+03;  4.0000001E-01;  1.8992053E+02;3; -3.6147194E+00;  0.0000000E+00;  7.0553088E-01;0; -1.1198528E-01;  1.0004721E+04;  0.0000000E+00;  1.3842080E-06;  1.0000000E+04;  0.0000000E+00;  9.9998652E+03; -1.1476552E-01;  0.0000000E+00;  2.7802433E-03;  8.1566895E+01;
  1.9987861E-02;  9.9999998E-03;  2.4000268E-01;1087; -6.4080553E-03;  0.0000000E+00;  1.4487556E-03;  1.0002106E+03;  4.0000001E-01;  1.7441479E+02;3; -3.3416033E+00;  0.0000000E+00;  7.8841019E-01;0; -1.0265325E-01;  1.0004240E+04;  0.0000000E+00;  1.5275582E-06;  1.0000000E+04;  0.0000000E+00;  9.9999727E+03; -1.0284247E-01;  0.0000000E+00;  1.8922309E-04;  3.0387911E+01;
  1.9989556E-02;  9.9999998E-03;  2.6000285E-01;1088; -5.4907566E-03;  0.0000000E+00;  1.5288207E-03;  1.0001868E+03;  4.0000001E-01;  1.5476103E+02;3; -3.0062342E+00;  0.0000000E+00;  8.6185074E-01;0; -9.0883851E-02;  1.0003628E+04;  0.0000000E+00;  6.9823960E-07;  1.0000000E+04;  0.0000000E+00;  1.0000110E+04; -8.7753609E-02;  0.0000000E+00; -3.1302436E-03;  3.6324554E+01;
  1.9991646E-02;  9.9999998E-03;  2.8000286E-01;1089; -4.3689292E-03;  0.0000000E+00;  1.5244992E-03;  1.0001580E+03;  4.0000001E-01;  1.3086047E+02;3; -2.5665789E+00;  0.0000000E+00;  9.1673279E-01;0; -7.6652348E-02;  1.0002907E+04;  0.0000000E+00; -1.2390122E-06;  1.0000000E+04;  0.0000000E+00;  1.0000248E+04; -7.0198804E-02;  0.0000000E+00; -6.4535448E-03;  1.0421899E+02;
  1.9994078E-02;  9.9999998E-03;  3.0000308E-01;1090; -3.0725354E-03;  0.0000000E+00;  1.6458174E-03;  1.0001245E+03;  4.0000001E-01;  1.0310818E+02;3; -1.9601545E+00;  0.0000000E+00;  1.0812912E+00;0; -6.0383223E-02;  1.0002146E+04;  0.0000000E+00; -3.3825108E-06;  1.0000000E+04;  0.0000000E+00;  1.0000346E+04; -5.1773056E-02;  0.0000000E+00; -8.6101666E-03;  1.5056277E+02;
  3.9978880E-02;  9.9999998E-03;  1.6000155E-01;1114; -1.1197235E-02;  0.0000000E+00;  9.1558625E-04;  1.0002938E+03;  4.0000001E-01;  2.4335110E+02;3; -5.0131321E+00;  0.0000000E+00;  4.9016333E-01;0; -1.4192566E-01;  1.0006141E+04;  0.0000000E+00;  4.4350801E-07;  1.0000000E+04;  0.0000000E+00;  9.9997383E+03; -1.4795490E-01;  0.0000000E+00;  6.0292310E-03;  1.4568987E+02;
  3.9979376E-02;  9.9999998E-03;  1.8000191E-01;1115; -1.0902374E-02;  0.0000000E+00;  1.0960944E-03;  1.0002861E+03;  4.0000001E-01;  2.3703030E+02;3; -4.8575459E+00;  0.0000000E+00;  5.6153864E-01;0; -1.3796651E-01;  1.0005991E+04;  0.0000000E+00;  8.0116376E-07;  1.0000000E+04;  0.0000000E+00;  9.9997363E+03; -1.4386740E-01;  0.0000000E+00;  5.9008840E-03;  1.4691902E+02;
  3.9980188E-02;  9.9999998E-03;  2.0000230E-01;1116; -1.0440331E-02;  0.0000000E+00;  1.2800882E-03;  1.0002755E+03;  4.0000001E-01;  2.2824042E+02;3; -4.6504984E+00;  0.0000000E+00;  6.3213867E-01;0; -1.3251181E-01;  1.0005747E+04;  0.0000000E+00;  1.3366730E-06;  1.0000000E+04;  0.0000000E+00;  9.9997627E+03; -1.3759679E-01;  0.0000000E+00;  5.0849770E-03;  1.3342816E+02;
  3.9981432E-02;  9.9999998E-03;  2.2000268E-01;1117; -9.7548515E-03;  0.0000000E+00;  1.4550147E-03;  1.0002606E+03;  4.0000001E-01;  2.1589510E+02;3; -4.3960667E+00;  0.0000000E+00;  7.0330286E-01;0; -1.2515113E-01;  1.0005382E+04;  0.0000000E+00;  1.8871405E-06;  1.0000000E+04;  0.0000000E+00;  9.9998350E+03; -1.2841487E-01;  0.0000000E+00;  3.2637343E-03;  9.8356995E+01;
  3.9983187E-02;  9.9999998E-03;  2.4000297E-01;1118; -8.8002561E-03;  0.0000000E+00;  1.5803622E-03;  1.0002410E+03;  4.0000001E-01;  1.9959926E+02;3; -4.0980139E+00;  0.0000000E+00;  7.6930833E-01;0; -1.1538126E-01;  1.0004861E+04;  0.0000000E+00;  1.9679840E-06;  1.0000000E+04;  0.0000000E+00;  9.9999600E+03; -1.1569974E-01;  0.0000000E+00;  3.1847740E-04;  3.9010643E+01;
  3.9985538E-02;  9.9999998E-03;  2.6000318E-01;1119; -7.5382604E-03;  0.0000000E+00;  1.6575508E-03;  1.0002151E+03;  4.0000001E-01;  1.7816777E+02;3; -3.7320604E+00;  0.0000000E+00;  8.4201574E-01;0; -1.0278080E-01;  1.0004181E+04;  0.0000000E+00;  1.0254386E-06;  1.0000000E+04;  0.0000000E+00;  1.0000120E+04; -9.9285081E-02;  0.0000000E+00; -3.4957165E-03;  3.9460228E+01;
  3.9988425E-02;  9.9999998E-03;  2.8000322E-01;1120; -6.0019991E-03;  0.0000000E+00;  1.6728895E-03;  1.0001829E+03;  4.0000001E-01;  1.5150186E+02;3; -3.2459526E+00;  0.0000000E+00;  9.2136908E-01;0; -8.7259017E-02;  1.0003367E+04;  0.0000000E+00; -8.9256429E-07;  1.0000000E+04;  0.0000000E+00;  1.0000291E+04; -7.9849645E-02;  0.0000000E+00; -7.4093705E-03;  1.2126020E+02;
  3.9991774E-02;  9.9999998E-03;  3.0000338E-01;1121; -4.2311801E-03;  0.0000000E+00;  1.7596212E-03;  1.0001456E+03;  4.0000001E-01;  1.2068793E+02;3; -2.5356293E+00;  0.0000000E+00;  1.0830269E+00;0; -6.9341250E-02;  1.0002499E+04;  0.0000000E+00; -2.6437742E-06;  1.0000000E+04;  0.0000000E+00;  1.0000415E+04; -5.9168946E-02;  0.0000000E+00; -1.0172302E-02;  1.8128355E+02;
  5.9972379E-02;  9.9999998E-03;  1.6000165E-01;1145; -1.4503375E-02;  0.0000000E+00;  9.7544992E-04;  1.0003246E+03;  4.0000001E-01;  2.6893063E+02;3; -5.9369726E+00;  0.0000000E+00;  4.9179843E-01;0; -1.5355751E-01;  1.0006785E+04;  0.0000000E+00;  4.9496913E-07;  1.0000000E+04;  0.0000000E+00;  9.9997119E+03; -1.6000471E-01;  0.0000000E+00;  6.4472021E-03;  1.6120618E+02;
  5.9972964E-02;  9.9999998E-03;  1.8000203E-01;1146; -1.4150064E-02;  0.0000000E+00;  1.1539269E-03;  1.0003176E+03;  4.0000001E-01;  2.6310364E+02;3; -5.7576427E+00;  0.0000000E+00;  5.5309767E-01;0; -1.4988601E-01;  1.0006645E+04;  0.0000000E+00;  7.4258742E-07;  1.0000000E+04;  0.0000000E+00;  9.9997080E+03; -1.5616763E-01;  0.0000000E+00;  6.2816101E-03;  1.6298497E+02;
  5.9973963E-02;  9.9999998E-03;  2.0000243E-01;1147; -1.3584408E-02;  0.0000000E+00;  1.3355961E-03;  1.0003070E+03;  4.0000001E-01;  2.5431375E+02;3; -5.5224800E+00;  0.0000000E+00;  6.1069119E-01;0; -1.4462896E-01;  1.0006410E+04;  0.0000000E+00;  8.5699213E-07;  1.0000000E+04;  0.0000000E+00;  9.9997344E+03; -1.5006001E-01;  0.0000000E+00;  5.4310607E-03;  1.4933690E+02;
  5.9975516E-02;  9.9999998E-03;  2.2000283E-01;1148; -1.2730061E-02;  0.0000000E+00;  1.5033882E-03;  1.0002922E+03;  4.0000001E-01;  2.4206718E+02;3; -5.2402115E+00;  0.0000000E+00;  6.6876411E-01;0; -1.3727720E-01;  1.0006034E+04;  0.0000000E+00;  5.8969613E-07;  1.0000000E+04;  0.0000000E+00;  9.9998115E+03; -1.4081813E-01;  0.0000000E+00;  3.5409373E-03;  1.1228101E+02;
  5.9977755E-02;  9.9999998E-03;  2.4000312E-01;1149; -1.1523599E-02;  0.0000000E+00;  1.6156875E-03;  1.0002712E+03;  4.0000001E-01;  2.2468497E+02;3; -4.9258537E+00;  0.0000000E+00;  7.1909857E-01;0; -1.2719244E-01;  1.0005482E+04;  0.0000000E+00; -4.4339129E-07;  1.0000000E+04;  0.0000000E+00;  9.9999473E+03; -1.2764007E-01;  0.0000000E+00;  4.4763088E-04;  4.8056904E+01;
  5.9980772E-02;  9.9999998E-03;  2.6000330E-01;1150; -9.9208048E-03;  0.0000000E+00;  1.6764408E-03;  1.0002433E+03;  4.0000001E-01;  2.0157451E+02;3; -4.5515881E+00;  0.0000000E+00;  7.8023386E-01;0; -1.1381968E-01;  1.0004742E+04;  0.0000000E+00; -2.3582859E-06;  1.0000000E+04;  0.0000000E+00;  1.0000126E+04; -1.1019084E-01;  0.0000000E+00; -3.6288439E-03;  3.8647991E+01;
  5.9984513E-02;  9.9999998E-03;  2.8000334E-01;1151; -7.9542669E-03;  0.0000000E+00;  1.6784599E-03;  1.0002080E+03;  4.0000001E-01;  1.7234077E+02;3; -4.0434160E+00;  0.0000000E+00;  8.5467052E-01;0; -9.7021945E-02;  1.0003842E+04;  0.0000000E+00; -1.0725933E-05;  1.0000000E+04;  0.0000000E+00;  1.0000314E+04; -8.9097187E-02;  0.0000000E+00; -7.9247598E-03;  1.3137405E+02;
  5.9988927E-02;  9.9999998E-03;  3.0000353E-01;1152; -5.6449953E-03;  0.0000000E+00;  1.7926686E-03;  1.0001662E+03;  4.0000001E-01;  1.3767509E+02;3; -3.2316589E+00;  0.0000000E+00;  1.0409842E+00;0; -7.7442199E-02;  1.0002861E+04;  0.0000000E+00; -2.9579056E-05;  1.0000000E+04;  0.0000000E+00;  1.0000463E+04; -6.6317260E-02;  0.0000000E+00; -1.1124942E-02;  2.0263808E+02;
  7.9965308E-02;  9.9999998E-03;  1.6000168E-01;1176; -1.8005619E-02;  0.0000000E+00;  9.7827159E-04;  1.0003586E+03;  4.0000001E-01;  2.9717673E+02;3; -6.9596357E+00;  0.0000000E+00;  4.7927773E-01;0; -1.6581683E-01;  1.0007477E+04;  0.0000000E+00;  3.7155840E-07;  1.0000000E+04;  0.0000000E+00;  9.9996992E+03; -1.7228258E-01;  0.0000000E+00;  6.4657521E-03;  1.7073947E+02;
  7.9965957E-02;  9.9999998E-03;  1.8000205E-01;1177; -1.7603327E-02;  0.0000000E+00;  1.1487779E-03;  1.0003524E+03;  4.0000001E-01;  2.9194232E+02;3; -6.7567291E+00;  0.0000000E+00;  5.2986455E-01;0; -1.6255865E-01;  1.0007357E+04;  0.0000000E+00;  2.1945071E-07;  1.0000000E+04;  0.0000000E+00;  9.9996904E+03; -1.6881774E-01;  0.0000000E+00;  6.2591014E-03;  1.7307019E+02;
  7.9967111E-02;  9.9999998E-03;  2.0000246E-01;1178; -1.6948618E-02;  0.0000000E+00;  1.3186831E-03;  1.0003423E+03;  4.0000001E-01;  2.8354749E+02;3; -6.4931760E+00;  0.0000000E+00;  5.7584876E-01;0; -1.5759143E-01;  1.0007130E+04;  0.0000000E+00; -6.9723791E-07;  1.0000000E+04;  0.0000000E+00;  9.9997207E+03; -1.6302581E-01;  0.0000000E+00;  5.4343832E-03;  1.6033727E+02;
  7.9968952E-02;  9.9999998E-03;  2.2000284E-01;1179; -1.5943307E-02;  0.0000000E+00;  1.4717594E-03;  1.0003277E+03;  4.0000001E-01;  2.7149844E+02;3; -6.1858582E+00;  0.0000000E+00;  6.1793292E-01;0; -1.5029079E-01;  1.0006757E+04;  0.0000000E+00; -2.9766481E-06;  1.0000000E+04;  0.0000000E+00;  9.9997949E+03; -1.5389849E-01;  0.0000000E+00;  3.6077006E-03;  1.2349965E+02;
  7.9971649E-02;  9.9999998E-03;  2.4000312E-01;1180; -1.4506682E-02;  0.0000000E+00;  1.5639360E-03;  1.0003056E+03;  4.0000001E-01;  2.5322737E+02;3; -5.8584228E+00;  0.0000000E+00;  6.5155602E-01;0; -1.3987383E-01;  1.0006182E+04;  0.0000000E+00; -6.1923602E-05;  1.0000000E+04;  0.0000000E+00;  9.9999326E+03; -1.4043413E-01;  0.0000000E+00;  5.6029158E-04;  5.7488228E+01;
  7.9975337E-02;  9.9999998E-03;  2.6000330E-01;1181; -1.2570178E-02;  0.0000000E+00;  1.6112218E-03;  1.0002753E+03;  4.0000001E-01;  2.2814166E+02;3; -5.4808788E+00;  0.0000000E+00;  6.9886827E-01;0; -1.2570633E-01;  1.0005387E+04;  0.0000000E+00; -5.2501174E-04;  1.0000000E+04;  0.0000000E+00;  1.0000119E+04; -1.2215167E-01;  0.0000000E+00; -3.5546618E-03;  3.4154537E+01;
  7.9979986E-02;  9.9999998E-03;  2.8000337E-01;1182; -1.0160314E-02;  0.0000000E+00;  1.6127843E-03;  1.0002364E+03;  4.0000001E-01;  1.9584628E+02;3; -4.9540086E+00;  0.0000000E+00;  7.6808262E-01;0; -1.0762380E-01;  1.0004402E+04;  0.0000000E+00; -1.4988360E-03;  1.0000000E+04;  0.0000000E+00;  1.0000329E+04; -9.9598110E-02;  0.0000000E+00; -8.0256891E-03;  1.3493639E+02;
  7.9985589E-02;  9.9999998E-03;  3.0000371E-01;1183; -7.2717168E-03;  0.0000000E+00;  1.8027576E-03;  1.0001901E+03;  4.0000001E-01;  1.5742763E+02;3; -4.0373249E+00;  0.0000000E+00;  9.9629211E-01;0; -8.6304389E-02;  1.0003306E+04;  0.0000000E+00; -2.6659197E-03;  1.0000000E+04;  0.0000000E+00;  1.0000492E+04; -7.4801594E-02;  0.0000000E+00; -1.1502798E-02;  2.1542516E+02;
  9.9957623E-02;  9.9999998E-03;  1.6000164E-01;1207; -2.1699362E-02;  0.0000000E+00;  9.4881066E-04;  1.0003993E+03;  4.0000001E-01;  3.3085480E+02;3; -8.1086597E+00;  0.0000000E+00;  4.5986691E-01;0; -1.8015863E-01;  1.0008295E+04;  0.0000000E+00;  9.9214169E-08;  1.0000000E+04;  0.0000000E+00;  9.9996943E+03; -1.8636398E-01;  0.0000000E+00;  6.2053506E-03;  1.7672878E+02;
  9.9958315E-02;  9.9999998E-03;  1.8000200E-01;1208; -2.1260321E-02;  0.0000000E+00;  1.1056245E-03;  1.0003942E+03;  4.0000001E-01;  3.2650925E+02;3; -7.8823586E+00;  0.0000000E+00;  5.0160170E-01;0; -1.7740795E-01;  1.0008199E+04;  0.0000000E+00; -6.9274307E-07;  1.0000000E+04;  0.0000000E+00;  9.9996885E+03; -1.8334179E-01;  0.0000000E+00;  5.9338403E-03;  1.7923933E+02;
  9.9959582E-02;  9.9999998E-03;  2.0000239E-01;1209; -2.0533955E-02;  0.0000000E+00;  1.2527710E-03;  1.0003849E+03;  4.0000001E-01;  3.1890451E+02;3; -7.5919113E+00;  0.0000000E+00;  5.3342134E-01;0; -1.7280050E-01;  1.0007990E+04;  0.0000000E+00; -3.3128051E-06;  1.0000000E+04;  0.0000000E+00;  9.9997119E+03; -1.7795962E-01;  0.0000000E+00;  5.1591252E-03;  1.6785030E+02;
  9.9961668E-02;  9.9999998E-03;  2.2000276E-01;1210; -1.9400736E-02;  0.0000000E+00;  1.3799059E-03;  1.0003702E+03;  4.0000001E-01;  3.0665796E+02;3; -7.2614880E+00;  0.0000000E+00;  5.5656564E-01;0; -1.6561447E-01;  1.0007616E+04;  0.0000000E+00; -2.1852909E-04;  1.0000000E+04;  0.0000000E+00;  9.9997842E+03; -1.6909982E-01;  0.0000000E+00;  3.4853478E-03;  1.3272568E+02;
  9.9964790E-02;  9.9999998E-03;  2.4000302E-01;1211; -1.7755102E-02;  0.0000000E+00;  1.4445076E-03;  1.0003475E+03;  4.0000001E-01;  2.8789304E+02;3; -6.9233170E+00;  0.0000000E+00;  5.7009983E-01;0; -1.5508662E-01;  1.0007037E+04;  0.0000000E+00; -1.9063737E-03;  1.0000000E+04;  0.0000000E+00;  9.9999199E+03; -1.5572099E-01;  0.0000000E+00;  6.3437689E-04;  6.8116608E+01;
  9.9969149E-02;  9.9999998E-03;  2.6000321E-01;1212; -1.5501716E-02;  0.0000000E+00;  1.4814923E-03;  1.0003161E+03;  4.0000001E-01;  2.6191849E+02;3; -6.5467429E+00;  0.0000000E+00;  6.0307789E-01;0; -1.4057223E-01;  1.0006213E+04;  0.0000000E+00; -6.8859900E-03;  1.0000000E+04;  0.0000000E+00;  1.0000110E+04; -1.3722584E-01;  0.0000000E+00; -3.3463961E-03;  4.4991219E+01;
  9.9974737E-02;  9.9999998E-03;  2.8000334E-01;1213; -1.2646486E-02;  0.0000000E+00;  1.5061478E-03;  1.0002745E+03;  4.0000001E-01;  2.2745032E+02;3; -6.0045810E+00;  0.0000000E+00;  6.7376328E-01;0; -1.2172836E-01;  1.0005156E+04;  0.0000000E+00; -1.4905377E-02;  1.0000000E+04;  0.0000000E+00;  1.0000331E+04; -1.1387957E-01;  0.0000000E+00; -7.8487881E-03;  1.5466960E+02;
  9.9981658E-02;  9.9999998E-03;  3.0000392E-01;1214; -9.1362372E-03;  0.0000000E+00;  1.8283875E-03;  1.0002232E+03;  4.0000001E-01;  1.8488364E+02;3; -4.9715023E+00;  0.0000000E+00;  9.7060013E-01;0; -9.8903775E-02;  1.0003956E+04;  0.0000000E+00; -2.3518424E-02;  1.0000000E+04;  0.0000000E+00;  1.0000509E+04; -8.7416336E-02;  0.0000000E+00; -1.1487441E-02;  2.5356161E+02;
  1.1994914E-01;  9.9999998E-03;  1.6000162E-01;1238; -2.5663696E-02;  0.0000000E+00;  9.2081068E-04;  1.0004479E+03;  4.0000001E-01;  3.7114993E+02;3; -9.3835697E+00;  0.0000000E+00;  4.4366771E-01;0; -1.9708087E-01;  1.0009271E+04;  0.0000000E+00; -2.3719113E-07;  1.0000000E+04;  0.0000000E+00;  9.9996885E+03; -2.0293583E-01;  0.0000000E+00;  5.8549675E-03;  1.8287886E+02;
  1.1994983E-01;  9.9999998E-03;  1.8000196E-01;1239; -2.5201390E-02;  0.0000000E+00;  1.0549983E-03;  1.0004443E+03;  4.0000001E-01;  3.6808829E+02;3; -9.1355610E+00;  0.0000000E+00;  4.7280645E-01;0; -1.9494252E-01;  1.0009199E+04;  0.0000000E+00; -1.9433744E-06;  1.0000000E+04;  0.0000000E+00;  9.9996865E+03; -2.0041429E-01;  0.0000000E+00;  5.4717590E-03;  1.8484331E+02;
  1.1995119E-01;  9.9999998E-03;  2.0000230E-01;1240; -2.4418890E-02;  0.0000000E+00;  1.1684349E-03;  1.0004362E+03;  4.0000001E-01;  3.6137244E+02;3; -8.8205843E+00;  0.0000000E+00;  4.8762161E-01;0; -1.9084629E-01;  1.0009016E+04;  0.0000000E+00; -1.7379611E-04;  1.0000000E+04;  0.0000000E+00;  9.9997070E+03; -1.9558281E-01;  0.0000000E+00;  4.7365194E-03;  1.7473885E+02;
  1.1995349E-01;  9.9999998E-03;  2.2000264E-01;1241; -2.3174290E-02;  0.0000000E+00;  1.2579436E-03;  1.0004221E+03;  4.0000001E-01;  3.4961969E+02;3; -8.4705067E+00;  0.0000000E+00;  4.8851418E-01;0; -1.8419500E-01;  1.0008673E+04;  0.0000000E+00; -2.3931516E-03;  1.0000000E+04;  0.0000000E+00;  9.9997725E+03; -1.8745823E-01;  0.0000000E+00;  3.2632423E-03;  1.4288686E+02;
  1.1995701E-01;  9.9999998E-03;  2.4000286E-01;1242; -2.1332702E-02;  0.0000000E+00;  1.2947877E-03;  1.0004011E+03;  4.0000001E-01;  3.3233624E+02;3; -8.1249018E+00;  0.0000000E+00;  4.8322868E-01;0; -1.7447318E-01;  1.0008119E+04;  0.0000000E+00; -1.1887243E-02;  1.0000000E+04;  0.0000000E+00;  9.9999033E+03; -1.7515810E-01;  0.0000000E+00;  6.8491185E-04;  1.0108540E+02;
  1.1996203E-01;  9.9999998E-03;  2.6000306E-01;1243; -1.8776404E-02;  0.0000000E+00;  1.3295803E-03;  1.0003715E+03;  4.0000001E-01;  3.0774432E+02;3; -7.7549057E+00;  0.0000000E+00;  5.0798225E-01;0; -1.6104405E-01;  1.0007328E+04;  0.0000000E+00; -3.4081675E-02;  1.0000000E+04;  0.0000000E+00;  1.0000097E+04; -1.5793914E-01;  0.0000000E+00; -3.1049140E-03;  1.8143222E+02;
  1.1996860E-01;  9.9999998E-03;  2.8000334E-01;1244; -1.5477348E-02;  0.0000000E+00;  1.4139077E-03;  1.0003304E+03;  4.0000001E-01;  2.7367123E+02;3; -7.2122860E+00;  0.0000000E+00;  5.9793758E-01;0; -1.4308687E-01;  1.0006280E+04;  0.0000000E+00; -6.7639217E-02;  1.0000000E+04;  0.0000000E+00;  1.0000328E+04; -1.3546713E-01;  0.0000000E+00; -7.6197376E-03;  3.8120169E+02;
  1.1997697E-01;  9.9999998E-03;  3.0000430E-01;1245; -1.1294911E-02;  0.0000000E+00;  1.9404721E-03;  1.0002764E+03;  4.0000001E-01;  2.2903052E+02;3; -6.0535603E+00;  0.0000000E+00;  1.0070591E+00;0; -1.1955446E-01;  1.0005007E+04;  0.0000000E+00; -9.8693371E-02;  1.0000000E+04;  0.0000000E+00;  1.0000522E+04; -1.0821921E-01;  0.0000000E+00; -1.1335254E-02;  5.6928583E+02;
  1.3993962E-01;  9.9999998E-03;  1.6000168E-01;1269; -2.9997185E-02;  0.0000000E+00;  9.3318621E-04;  1.0005044E+03;  4.0000001E-01;  4.1786465E+02;3; -1.0769221E+01;  0.0000000E+00;  4.4121936E-01;0; -2.1629681E-01;  1.0010415E+04;  0.0000000E+00; -5.4701013E-07;  1.0000000E+04;  0.0000000E+00;  9.9996748E+03; -2.2195940E-01;  0.0000000E+00;  5.6625865E-03;  1.9416096E+02;
  1.3994029E-01;  9.9999998E-03;  1.8000199E-01;1270; -2.9524185E-02;  0.0000000E+00;  1.0391193E-03;  1.0005025E+03;  4.0000001E-01;  4.1628445E+02;3; -1.0500632E+01;  0.0000000E+00;  4.5599627E-01;0; -2.1488008E-01;  1.0010377E+04;  0.0000000E+00; -3.2173968E-05;  1.0000000E+04;  0.0000000E+00;  9.9996758E+03; -2.2000930E-01;  0.0000000E+00;  5.1292148E-03;  1.9523810E+02;
  1.3994169E-01;  9.9999998E-03;  2.0000228E-01;1271; -2.8698210E-02;  0.0000000E+00;  1.1136545E-03;  1.0004962E+03;  4.0000001E-01;  4.1105005E+02;3; -1.0163569E+01;  0.0000000E+00;  4.5189798E-01;0; -2.1164785E-01;  1.0010233E+04;  0.0000000E+00; -1.2990952E-03;  1.0000000E+04;  0.0000000E+00;  9.9996943E+03; -2.1607615E-01;  0.0000000E+00;  4.4282912E-03;  1.8701295E+02;
  1.3994417E-01;  9.9999998E-03;  2.2000256E-01;1272; -2.7352707E-02;  0.0000000E+00;  1.1638991E-03;  1.0004855E+03;  4.0000001E-01;  4.0216141E+02;3; -9.7984390E+00;  0.0000000E+00;  4.3071413E-01;0; -2.0643905E-01;  1.0009955E+04;  0.0000000E+00; -1.0100726E-02;  1.0000000E+04;  0.0000000E+00;  9.9997529E+03; -2.0959590E-01;  0.0000000E+00;  3.1568524E-03;  1.6674298E+02;
  1.3994807E-01;  9.9999998E-03;  2.4000275E-01;1273; -2.5329605E-02;  0.0000000E+00;  1.1710122E-03;  1.0004697E+03;  4.0000001E-01;  3.8912473E+02;3; -9.4532690E+00;  0.0000000E+00;  4.1409636E-01;0; -1.9926913E-01;  1.0009516E+04;  0.0000000E+00; -4.0307295E-02;  1.0000000E+04;  0.0000000E+00;  9.9998799E+03; -2.0006835E-01;  0.0000000E+00;  7.9922006E-04;  2.3449231E+02;
  1.3995378E-01;  9.9999998E-03;  2.6000306E-01;1274; -2.2465393E-02;  0.0000000E+00;  1.2293948E-03;  1.0004475E+03;  4.0000001E-01;  3.7075488E+02;3; -9.1127605E+00;  0.0000000E+00;  4.3263912E-01;0; -1.8963686E-01;  1.0008872E+04;  0.0000000E+00; -1.0572495E-01;  1.0000000E+04;  0.0000000E+00;  1.0000083E+04; -1.8670109E-01;  0.0000000E+00; -2.9357641E-03;  5.6119067E+02;
  1.3996135E-01;  9.9999998E-03;  2.8000349E-01;1275; -1.8731242E-02;  0.0000000E+00;  1.4066820E-03;  1.0004150E+03;  4.0000001E-01;  3.4379269E+02;3; -8.5917206E+00;  0.0000000E+00;  5.7011890E-01;0; -1.7579654E-01;  1.0007963E+04;  0.0000000E+00; -2.0174970E-01;  1.0000000E+04;  0.0000000E+00;  1.0000338E+04; -1.6817062E-01;  0.0000000E+00; -7.6259230E-03;  1.0784817E+03;
  1.3997130E-01;  9.9999998E-03;  3.0000496E-01;1276; -1.3835005E-02;  0.0000000E+00;  2.2104878E-03;  1.0003624E+03;  4.0000001E-01;  3.0023837E+02;3; -7.3132992E+00;  0.0000000E+00;  1.1439953E+00;0; -1.5352300E-01;  1.0006704E+04;  0.0000000E+00; -2.8662941E-01;  1.0000000E+04;  0.0000000E+00;  1.0000544E+04; -1.4223129E-01;  0.0000000E+00; -1.1291717E-02;  1.5386379E+03;
  1.5992887E-01;  9.9999998E-03;  1.6000190E-01;1300; -3.4766082E-02;  0.0000000E+00;  1.0363508E-03;  1.0005680E+03;  4.0000001E-01;  4.7060391E+02;3; -1.2250424E+01;  0.0000000E+00;  4.7056520E-01;0; -2.3717642E-01;  1.0011721E+04;  0.0000000E+00; -7.8496299E-07;  1.0000000E+04;  0.0000000E+00;  9.9996396E+03; -2.4313980E-01;  0.0000000E+00;  5.9633795E-03;  2.1757071E+02;
  1.5992947E-01;  9.9999998E-03;  1.8000220E-01;1301; -3.4293979E-02;  0.0000000E+00;  1.1170738E-03;  1.0005678E+03;  4.0000001E-01;  4.7040637E+02;3; -1.1962149E+01;  0.0000000E+00;  4.7217387E-01;0; -2.3659241E-01;  1.0011722E+04;  0.0000000E+00; -2.5896955E-04;  1.0000000E+04;  0.0000000E+00;  9.9996406E+03; -2.4188785E-01;  0.0000000E+00;  5.2954345E-03;  2.1895485E+02;
  1.5993088E-01;  9.9999998E-03;  2.0000246E-01;1302; -3.3437543E-02;  0.0000000E+00;  1.1586307E-03;  1.0005649E+03;  4.0000001E-01;  4.6803607E+02;3; -1.1605784E+01;  0.0000000E+00;  4.5026493E-01;0; -2.3467112E-01;  1.0011648E+04;  0.0000000E+00; -4.3583014E-03;  1.0000000E+04;  0.0000000E+00;  9.9996475E+03; -2.3932841E-01;  0.0000000E+00;  4.6572946E-03;  2.1544104E+02;
  1.5993352E-01;  9.9999998E-03;  2.2000271E-01;1303; -3.1999614E-02;  0.0000000E+00;  1.1797923E-03;  1.0005597E+03;  4.0000001E-01;  4.6369052E+02;3; -1.1227399E+01;  0.0000000E+00;  4.1652060E-01;0; -2.3203254E-01;  1.0011496E+04;  0.0000000E+00; -2.6369760E-02;  1.0000000E+04;  0.0000000E+00;  9.9996992E+03; -2.3557276E-01;  0.0000000E+00;  3.5402218E-03;  2.3533113E+02;
  1.5993780E-01;  9.9999998E-03;  2.4000289E-01;1304; -2.9794678E-02;  0.0000000E+00;  1.1581210E-03;  1.0005544E+03;  4.0000001E-01;  4.5934497E+02;3; -1.0893621E+01;  0.0000000E+00;  3.8613653E-01;0; -2.2960533E-01;  1.0011256E+04;  0.0000000E+00; -9.4900645E-02;  1.0000000E+04;  0.0000000E+00;  9.9998320E+03; -2.3079497E-01;  0.0000000E+00;  1.1896372E-03;  5.1948944E+02;
  1.5994419E-01;  9.9999998E-03;  2.6000324E-01;1305; -2.6615035E-02;  0.0000000E+00;  1.2614008E-03;  1.0005484E+03;  4.0000001E-01;  4.5430807E+02;3; -1.0580154E+01;  0.0000000E+00;  4.3611908E-01;0; -2.2735205E-01;  1.0010911E+04;  0.0000000E+00; -2.4019428E-01;  1.0000000E+04;  0.0000000E+00;  1.0000061E+04; -2.2448348E-01;  0.0000000E+00; -2.8685802E-03;  1.2764058E+03;
  1.5995274E-01;  9.9999998E-03;  2.8000385E-01;1306; -2.2475453E-02;  0.0000000E+00;  1.5110741E-03;  1.0005353E+03;  4.0000001E-01;  4.4344418E+02;3; -1.0131314E+01;  0.0000000E+00;  6.1154938E-01;0; -2.2249538E-01;  1.0010345E+04;  0.0000000E+00; -4.5491365E-01;  1.0000000E+04;  0.0000000E+00;  1.0000358E+04; -2.1433415E-01;  0.0000000E+00; -8.1612356E-03;  2.4212847E+03;
  1.5996422E-01;  9.9999998E-03;  3.0000576E-01;1307; -1.6941968E-02;  0.0000000E+00;  2.5278537E-03;  1.0004937E+03;  4.0000001E-01;  4.0897601E+02;3; -8.8387604E+00;  0.0000000E+00;  1.3038158E+00;0; -2.0567781E-01;  1.0009294E+04;  0.0000000E+00; -6.5127361E-01;  1.0000000E+04;  0.0000000E+00;  1.0000583E+04; -1.9397256E-01;  0.0000000E+00; -1.1705242E-02;  3.4696995E+03;
  1.7991675E-01;  9.9999998E-03;  1.6000243E-01;1331; -3.9996117E-02;  0.0000000E+00;  1.2900617E-03;  1.0006381E+03;  4.0000001E-01;  5.2857758E+02;3; -1.3815430E+01;  0.0000000E+00;  5.5270535E-01;0; -2.5923669E-01;  1.0013204E+04;  0.0000000E+00; -3.4769703E-06;  1.0000000E+04;  0.0000000E+00;  9.9995576E+03; -2.6642993E-01;  0.0000000E+00;  7.1932268E-03;  2.6260846E+02;
  1.7991725E-01;  9.9999998E-03;  1.8000273E-01;1332; -3.9534718E-02;  0.0000000E+00;  1.3625405E-03;  1.0006403E+03;  4.0000001E-01;  5.3045404E+02;3; -1.3508301E+01;  0.0000000E+00;  5.4445946E-01;0; -2.5950831E-01;  1.0013259E+04;  0.0000000E+00; -7.6967600E-04;  1.0000000E+04;  0.0000000E+00;  9.9995508E+03; -2.6599896E-01;  0.0000000E+00;  6.4906594E-03;  2.6788416E+02;
  1.7991862E-01;  9.9999998E-03;  2.0000300E-01;1333; -3.8663752E-02;  0.0000000E+00;  1.3815813E-03;  1.0006408E+03;  4.0000001E-01;  5.3084912E+02;3; -1.3135462E+01;  0.0000000E+00;  5.0696230E-01;0; -2.5917661E-01;  1.0013273E+04;  0.0000000E+00; -9.2646070E-03;  1.0000000E+04;  0.0000000E+00;  9.9995449E+03; -2.6516739E-01;  0.0000000E+00;  5.9907632E-03;  2.7479947E+02;
  1.7992136E-01;  9.9999998E-03;  2.2000322E-01;1334; -3.7151173E-02;  0.0000000E+00;  1.3699795E-03;  1.0006432E+03;  4.0000001E-01;  5.3282434E+02;3; -1.2746418E+01;  0.0000000E+00;  4.7020793E-01;0; -2.5986585E-01;  1.0013283E+04;  0.0000000E+00; -4.9488228E-02;  1.0000000E+04;  0.0000000E+00;  9.9995889E+03; -2.6483378E-01;  0.0000000E+00;  4.9679377E-03;  3.6314764E+02;
  1.7992602E-01;  9.9999998E-03;  2.4000336E-01;1335; -3.4765910E-02;  0.0000000E+00;  1.3172347E-03;  1.0006522E+03;  4.0000001E-01;  5.4033032E+02;3; -1.2439618E+01;  0.0000000E+00;  4.2980194E-01;0; -2.6379925E-01;  1.0013315E+04;  0.0000000E+00; -1.6949843E-01;  1.0000000E+04;  0.0000000E+00;  9.9997305E+03; -2.6608995E-01;  0.0000000E+00;  2.2906880E-03;  9.1907733E+02;
  1.7993304E-01;  9.9999998E-03;  2.6000369E-01;1336; -3.1304009E-02;  0.0000000E+00;  1.3993471E-03;  1.0006700E+03;  4.0000001E-01;  5.5514471E+02;3; -1.2191294E+01;  0.0000000E+00;  4.7703266E-01;0; -2.7197680E-01;  1.0013389E+04;  0.0000000E+00; -4.2477569E-01;  1.0000000E+04;  0.0000000E+00;  1.0000020E+04; -2.6918894E-01;  0.0000000E+00; -2.7878727E-03;  2.2601570E+03;
  1.7994247E-01;  9.9999998E-03;  2.8000429E-01;1337; -2.6824549E-02;  0.0000000E+00;  1.6220188E-03;  1.0006887E+03;  4.0000001E-01;  5.7055170E+02;3; -1.1890637E+01;  0.0000000E+00;  6.3337708E-01;0; -2.8131258E-01;  1.0013372E+04;  0.0000000E+00; -8.1317115E-01;  1.0000000E+04;  0.0000000E+00;  1.0000409E+04; -2.7162260E-01;  0.0000000E+00; -9.6899774E-03;  4.3298218E+03;
  1.7995495E-01;  9.9999998E-03;  3.0000597E-01;1338; -2.1005483E-02;  0.0000000E+00;  2.4452223E-03;  1.0006761E+03;  4.0000001E-01;  5.6018158E+02;3; -1.0849716E+01;  0.0000000E+00;  1.1962147E+00;0; -2.7779326E-01;  1.0012814E+04;  0.0000000E+00; -1.1872877E+00;  1.0000000E+04;  0.0000000E+00;  1.0000711E+04; -2.6343405E-01;  0.0000000E+00; -1.4359212E-02;  6.3255571E+03;
  1.9990312E-01;  9.9999998E-03;  1.6000336E-01;1362; -4.5705449E-02;  0.0000000E+00;  1.7519357E-03;  1.0007144E+03;  4.0000001E-01;  5.9178564E+02;3; -1.5452258E+01;  0.0000000E+00;  7.0623183E-01;0; -2.8206918E-01;  1.0014886E+04;  0.0000000E+00; -1.2392696E-05;  1.0000000E+04;  0.0000000E+00;  9.9994082E+03; -2.9190007E-01;  0.0000000E+00;  9.8308874E-03;  3.4020255E+02;
  1.9990347E-01;  9.9999998E-03;  1.8000375E-01;1363; -4.5261659E-02;  0.0000000E+00;  1.8362046E-03;  1.0007186E+03;  4.0000001E-01;  5.9534113E+02;3; -1.5124392E+01;  0.0000000E+00;  6.9099259E-01;0; -2.8302419E-01;  1.0014997E+04;  0.0000000E+00; -1.3454154E-03;  1.0000000E+04;  0.0000000E+00;  9.9993789E+03; -2.9230651E-01;  0.0000000E+00;  9.2823124E-03;  3.5547882E+02;
  1.9990475E-01;  9.9999998E-03;  2.0000403E-01;1364; -4.4391416E-02;  0.0000000E+00;  1.8408981E-03;  1.0007224E+03;  4.0000001E-01;  5.9850153E+02;3; -1.4743217E+01;  0.0000000E+00;  6.4196265E-01;0; -2.8411931E-01;  1.0015105E+04;  0.0000000E+00; -1.4063096E-02;  1.0000000E+04;  0.0000000E+00;  9.9993467E+03; -2.9319325E-01;  0.0000000E+00;  9.0739429E-03;  3.7876794E+02;
  1.9990754E-01;  9.9999998E-03;  2.2000422E-01;1365; -4.2840738E-02;  0.0000000E+00;  1.7852110E-03;  1.0007318E+03;  4.0000001E-01;  6.0630377E+02;3; -1.4373078E+01;  0.0000000E+00;  5.9126353E-01;0; -2.8795609E-01;  1.0015273E+04;  0.0000000E+00; -7.0793465E-02;  1.0000000E+04;  0.0000000E+00;  9.9993701E+03; -2.9611358E-01;  0.0000000E+00;  8.1575019E-03;  5.2122046E+02;
  1.9991247E-01;  9.9999998E-03;  2.4000424E-01;1366; -4.0312950E-02;  0.0000000E+00;  1.6758231E-03;  1.0007554E+03;  4.0000001E-01;  6.2585876E+02;3; -1.4099843E+01;  0.0000000E+00;  5.4781008E-01;0; -2.9816931E-01;  1.0015577E+04;  0.0000000E+00; -2.3740166E-01;  1.0000000E+04;  0.0000000E+00;  9.9995439E+03; -3.0298841E-01;  0.0000000E+00;  4.8190830E-03;  1.2941853E+03;
  1.9991998E-01;  9.9999998E-03;  2.6000434E-01;1367; -3.6654323E-02;  0.0000000E+00;  1.6093004E-03;  1.0007992E+03;  4.0000001E-01;  6.6210461E+02;3; -1.3975929E+01;  0.0000000E+00;  5.5158997E-01;0; -3.1748584E-01;  1.0016064E+04;  0.0000000E+00; -5.9596169E-01;  1.0000000E+04;  0.0000000E+00;  9.9999287E+03; -3.1505048E-01;  0.0000000E+00; -2.4353629E-03;  3.1757051E+03;
  1.9993004E-01;  9.9999998E-03;  2.8000471E-01;1368; -3.1995330E-02;  0.0000000E+00;  1.6741201E-03;  1.0008570E+03;  4.0000001E-01;  7.1000452E+02;3; -1.3936567E+01;  0.0000000E+00;  6.1980629E-01;0; -3.4367993E-01;  1.0016638E+04;  0.0000000E+00; -1.1565651E+00;  1.0000000E+04;  0.0000000E+00;  1.0000513E+04; -3.3058763E-01;  0.0000000E+00; -1.3092318E-02;  6.1663105E+03;
  1.9994278E-01;  9.9999998E-03;  3.0000553E-01;1369; -2.6345368E-02;  0.0000000E+00;  1.9187551E-03;  1.0008911E+03;  4.0000001E-01;  7.3825061E+02;3; -1.3517040E+01;  0.0000000E+00;  8.0027008E-01;0; -3.6214358E-01;  1.0016776E+04;  0.0000000E+00; -1.7043409E+00;  1.0000000E+04;  0.0000000E+00;  1.0001049E+04; -3.3923274E-01;  0.0000000E+00; -2.2910826E-02;  9.0979580E+03;
  2.1988779E-01;  9.9999998E-03;  1.6000476E-01;1393; -5.1924221E-02;  0.0000000E+00;  2.4591042E-03;  1.0007966E+03;  4.0000001E-01;  6.6003064E+02;3; -1.7153954E+01;  0.0000000E+00;  9.4731814E-01;0; -3.0528149E-01;  1.0016772E+04;  0.0000000E+00; -1.3964579E-05;  1.0000000E+04;  0.0000000E+00;  9.9991680E+03; -3.1954461E-01;  0.0000000E+00;  1.4263126E-02;  4.5997827E+02;
  2.1988799E-01;  9.9999998E-03;  1.8000530E-01;1394; -5.1502906E-02;  0.0000000E+00;  2.5751768E-03;  1.0008019E+03;  4.0000001E-01;  6.6437616E+02;3; -1.6807264E+01;  0.0000000E+00;  9.2515540E-01;0; -3.0653870E-01;  1.0016940E+04;  0.0000000E+00; -1.5400876E-03;  1.0000000E+04;  0.0000000E+00;  9.9991074E+03; -3.2065225E-01;  0.0000000E+00;  1.4113541E-02;  4.9305759E+02;
  2.1988913E-01;  9.9999998E-03;  2.0000567E-01;1395; -5.0638348E-02;  0.0000000E+00;  2.6099598E-03;  1.0008079E+03;  4.0000001E-01;  6.6931433E+02;3; -1.6408970E+01;  0.0000000E+00;  8.9137775E-01;0; -3.0839044E-01;  1.0017137E+04;  0.0000000E+00; -1.5823966E-02;  1.0000000E+04;  0.0000000E+00;  9.9990293E+03; -3.2283163E-01;  0.0000000E+00;  1.4441205E-02;  5.3753021E+02;
  2.1989186E-01;  9.9999998E-03;  2.2000583E-01;1396; -4.9092855E-02;  0.0000000E+00;  2.5016917E-03;  1.0008218E+03;  4.0000001E-01;  6.8086951E+02;3; -1.6068495E+01;  0.0000000E+00;  8.2429242E-01;0; -3.1411704E-01;  1.0017426E+04;  0.0000000E+00; -7.8663647E-02;  1.0000000E+04;  0.0000000E+00;  9.9990176E+03; -3.2792738E-01;  0.0000000E+00;  1.3810342E-02;  6.8112860E+02;
  2.1989694E-01;  9.9999998E-03;  2.4000581E-01;1397; -4.6475235E-02;  0.0000000E+00;  2.3519567E-03;  1.0008549E+03;  4.0000001E-01;  7.0832556E+02;3; -1.5878654E+01;  0.0000000E+00;  7.5942469E-01;0; -3.2846403E-01;  1.0017904E+04;  0.0000000E+00; -2.6332891E-01;  1.0000000E+04;  0.0000000E+00;  9.9992051E+03; -3.3820134E-01;  0.0000000E+00;  9.7373147E-03;  1.4734087E+03;
  2.1990483E-01;  9.9999998E-03;  2.6000589E-01;1398; -4.2707156E-02;  0.0000000E+00;  2.2210239E-03;  1.0009178E+03;  4.0000001E-01;  7.6037341E+02;3; -1.5943787E+01;  0.0000000E+00;  7.6718426E-01;0; -3.5580331E-01;  1.0018636E+04;  0.0000000E+00; -6.6606659E-01;  1.0000000E+04;  0.0000000E+00;  9.9997236E+03; -3.5535249E-01;  0.0000000E+00; -4.5080762E-04;  3.5582959E+03;
  2.1991527E-01;  9.9999998E-03;  2.8000647E-01;1399; -3.7992276E-02;  0.0000000E+00;  2.3418874E-03;  1.0010043E+03;  4.0000001E-01;  8.3197632E+02;3; -1.6265688E+01;  0.0000000E+00;  8.9686012E-01;0; -3.9418316E-01;  1.0019555E+04;  0.0000000E+00; -1.3059675E+00;  1.0000000E+04;  0.0000000E+00;  1.0000537E+04; -3.7830201E-01;  0.0000000E+00; -1.5881147E-02;  6.9735332E+03;
  2.1992904E-01;  9.9999998E-03;  3.0000833E-01;1400; -3.2154884E-02;  0.0000000E+00;  2.8735669E-03;  1.0010602E+03;  4.0000001E-01;  8.7839478E+02;3; -1.6318077E+01;  0.0000000E+00;  1.2090874E+00;0; -4.2401183E-01;  1.0020038E+04;  0.0000000E+00; -1.9463161E+00;  1.0000000E+04;  0.0000000E+00;  1.0001173E+04; -3.9577112E-01;  0.0000000E+00; -2.8240707E-02;  1.0411313E+04;
  2.3987058E-01;  9.9999998E-03;  1.6000670E-01;1424; -5.8698159E-02;  0.0000000E+00;  3.4170053E-03;  1.0008850E+03;  4.0000001E-01;  7.3321375E+02;3; -1.8925743E+01;  0.0000000E+00;  1.2637193E+00;0; -3.2868636E-01;  1.0018880E+04;  0.0000000E+00; -3.9969477E-06;  1.0000000E+04;  0.0000000E+00;  9.9988330E+03; -3.4931472E-01;  0.0000000E+00;  2.0628354E-02;  6.2706763E+02;
  2.3987056E-01;  9.9999998E-03;  1.8000747E-01;1425; -5.8292627E-02;  0.0000000E+00;  3.6422235E-03;  1.0008904E+03;  4.0000001E-01;  7.3775677E+02;3; -1.8543892E+01;  0.0000000E+00;  1.3018825E+00;0; -3.2976785E-01;  1.0019103E+04;  0.0000000E+00; -1.1426893E-03;  1.0000000E+04;  0.0000000E+00;  9.9987119E+03; -3.5086101E-01;  0.0000000E+00;  2.1093162E-02;  6.8544775E+02;
  2.3987153E-01;  9.9999998E-03;  2.0000814E-01;1426; -5.7452329E-02;  0.0000000E+00;  3.7797736E-03;  1.0008962E+03;  4.0000001E-01;  7.4249744E+02;3; -1.8146614E+01;  0.0000000E+00;  1.2671130E+00;0; -3.3144665E-01;  1.0019363E+04;  0.0000000E+00; -1.3122872E-02;  1.0000000E+04;  0.0000000E+00;  9.9985732E+03; -3.5366771E-01;  0.0000000E+00;  2.2221062E-02;  7.5762335E+02;
  2.3987408E-01;  9.9999998E-03;  2.2000855E-01;1427; -5.5941097E-02;  0.0000000E+00;  3.7572556E-03;  1.0009103E+03;  4.0000001E-01;  7.5415137E+02;3; -1.7834843E+01;  0.0000000E+00;  1.2421570E+00;0; -3.3710411E-01;  1.0019716E+04;  0.0000000E+00; -6.7650512E-02;  1.0000000E+04;  0.0000000E+00;  9.9985029E+03; -3.5944486E-01;  0.0000000E+00;  2.2340732E-02;  8.6983435E+02;
  2.3987906E-01;  9.9999998E-03;  2.4000905E-01;1428; -5.3358931E-02;  0.0000000E+00;  3.8183043E-03;  1.0009442E+03;  4.0000001E-01;  7.8220001E+02;3; -1.7747681E+01;  0.0000000E+00;  1.2925820E+00;0; -3.5161352E-01;  1.0020243E+04;  0.0000000E+00; -2.3069908E-01;  1.0000000E+04;  0.0000000E+00;  9.9986484E+03; -3.7023634E-01;  0.0000000E+00;  1.8622812E-02;  1.4278706E+03;
  2.3988707E-01;  9.9999998E-03;  2.6001048E-01;1429; -4.9584836E-02;  0.0000000E+00;  4.2401832E-03;  1.0010059E+03;  4.0000001E-01;  8.3335901E+02;3; -1.8101715E+01;  0.0000000E+00;  1.5202208E+00;0; -3.7844861E-01;  1.0021006E+04;  0.0000000E+00; -5.9343880E-01;  1.0000000E+04;  0.0000000E+00;  9.9991270E+03; -3.8751179E-01;  0.0000000E+00;  9.0631880E-03;  3.2086357E+03;
  2.3989789E-01;  9.9999998E-03;  2.8001413E-01;1430; -4.4717241E-02;  0.0000000E+00;  5.7664081E-03;  1.0010756E+03;  4.0000001E-01;  8.9113513E+02;3; -1.8726444E+01;  0.0000000E+00;  2.4281101E+00;0; -4.0796199E-01;  1.0021909E+04;  0.0000000E+00; -1.1876040E+00;  1.0000000E+04;  0.0000000E+00;  9.9996143E+03; -4.0986156E-01;  0.0000000E+00;  1.8995795E-03;  6.3553901E+03;
  2.3991251E-01;  9.9999998E-03;  3.0002043E-01;1431; -3.8598515E-02;  0.0000000E+00;  7.9941107E-03;  1.0010806E+03;  4.0000001E-01;  8.9528320E+02;3; -1.9173901E+01;  0.0000000E+00;  3.7067928E+00;0; -4.1755331E-01;  1.0022360E+04;  0.0000000E+00; -1.8241874E+00;  1.0000000E+04;  0.0000000E+00;  9.9992705E+03; -4.2659357E-01;  0.0000000E+00;  9.0402663E-03;  9.7755625E+03;
  2.5985122E-01;  9.9999998E-03;  1.6000919E-01;1455; -6.6082098E-02;  0.0000000E+00;  4.6366509E-03;  1.0009804E+03;  4.0000001E-01;  8.1222375E+02;3; -2.0764315E+01;  0.0000000E+00;  1.6626059E+00;0; -3.5241279E-01;  1.0021219E+04;  0.0000000E+00;  5.4737728E-07;  1.0000000E+04;  0.0000000E+00;  9.9984004E+03; -3.8113245E-01;  0.0000000E+00;  2.8719660E-02;  8.4004175E+02;
  2.5985098E-01;  9.9999998E-03;  1.8001041E-01;1456; -6.5688014E-02;  0.0000000E+00;  5.0551868E-03;  1.0009851E+03;  4.0000001E-01;  8.1617426E+02;3; -2.0347002E+01;  0.0000000E+00;  1.7577901E+00;0; -3.5292313E-01;  1.0021488E+04;  0.0000000E+00; -4.7982807E-04;  1.0000000E+04;  0.0000000E+00;  9.9982227E+03; -3.8278693E-01;  0.0000000E+00;  2.9863808E-02;  9.2818616E+02;
  2.5985169E-01;  9.9999998E-03;  2.0001161E-01;1457; -6.4887889E-02;  0.0000000E+00;  5.4008542E-03;  1.0009891E+03;  4.0000001E-01;  8.1943341E+02;3; -1.9932642E+01;  0.0000000E+00;  1.8141176E+00;0; -3.5366407E-01;  1.0021790E+04;  0.0000000E+00; -7.6364288E-03;  1.0000000E+04;  0.0000000E+00;  9.9980029E+03; -3.8555822E-01;  0.0000000E+00;  3.1894136E-02;  1.0343765E+03;
  2.5985393E-01;  9.9999998E-03;  2.2001281E-01;1458; -6.3447081E-02;  0.0000000E+00;  5.7229102E-03;  1.0009989E+03;  4.0000001E-01;  8.2753198E+02;3; -1.9671944E+01;  0.0000000E+00;  1.9012237E+00;0; -3.5740772E-01;  1.0022159E+04;  0.0000000E+00; -4.3859977E-02;  1.0000000E+04;  0.0000000E+00;  9.9978359E+03; -3.9074004E-01;  0.0000000E+00;  3.3332326E-02;  1.1406448E+03;
  2.5985846E-01;  9.9999998E-03;  2.4001446E-01;1459; -6.1040930E-02;  0.0000000E+00;  6.2710023E-03;  1.0010240E+03;  4.0000001E-01;  8.4837085E+02;3; -1.9775772E+01;  0.0000000E+00;  2.1682143E+00;0; -3.6789969E-01;  1.0022646E+04;  0.0000000E+00; -1.5689710E-01;  1.0000000E+04;  0.0000000E+00;  9.9978477E+03; -3.9986539E-01;  0.0000000E+00;  3.1965714E-02;  1.3927570E+03;
  2.5986606E-01;  9.9999998E-03;  2.6001790E-01;1460; -5.7431236E-02;  0.0000000E+00;  7.5553954E-03;  1.0010656E+03;  4.0000001E-01;  8.8274030E+02;3; -2.0432007E+01;  0.0000000E+00;  2.7889137E+00;0; -3.8528341E-01;  1.0023288E+04;  0.0000000E+00; -4.1532242E-01;  1.0000000E+04;  0.0000000E+00;  9.9980342E+03; -4.1397080E-01;  0.0000000E+00;  2.8687380E-02;  2.4465676E+03;
  2.5987664E-01;  9.9999998E-03;  2.8002414E-01;1461; -5.2698862E-02;  0.0000000E+00;  9.9415733E-03;  1.0010923E+03;  4.0000001E-01;  9.0496185E+02;3; -2.1553402E+01;  0.0000000E+00;  4.1345377E+00;0; -3.9706892E-01;  1.0024010E+04;  0.0000000E+00; -8.4707189E-01;  1.0000000E+04;  0.0000000E+00;  9.9978506E+03; -4.3192002E-01;  0.0000000E+00;  3.4851104E-02;  4.6713276E+03;
  2.5989079E-01;  9.9999998E-03;  3.0003169E-01;1462; -4.6797428E-02;  0.0000000E+00;  1.2294256E-02;  1.0010624E+03;  4.0000001E-01;  8.8017242E+02;3; -2.2682219E+01;  0.0000000E+00;  5.6507587E+00;0; -3.9547166E-01;  1.0024398E+04;  0.0000000E+00; -1.3144251E+00;  1.0000000E+04;  0.0000000E+00;  9.9968682E+03; -4.4657779E-01;  0.0000000E+00;  5.1106133E-02;  7.2260610E+03;
  2.7982947E-01;  9.9999998E-03;  1.6001225E-01;1486; -7.4124999E-02;  0.0000000E+00;  6.1193635E-03;  1.0010844E+03;  4.0000001E-01;  8.9844354E+02;3; -2.2665531E+01;  0.0000000E+00;  2.1490431E+00;0; -3.7689388E-01;  1.0023809E+04;  0.0000000E+00;  7.1095354E-07;  1.0000000E+04;  0.0000000E+00;  9.9978916E+03; -4.1491163E-01;  0.0000000E+00;  3.8017746E-02;  1.0913052E+03;
  2.7982894E-01;  9.9999998E-03;  1.8001406E-01;1487; -7.3748358E-02;  0.0000000E+00;  6.7846156E-03;  1.0010875E+03;  4.0000001E-01;  9.0091260E+02;3; -2.2209953E+01;  0.0000000E+00;  2.3127494E+00;0; -3.7662500E-01;  1.0024116E+04;  0.0000000E+00; -5.8630034E-05;  1.0000000E+04;  0.0000000E+00;  9.9976514E+03; -4.1630775E-01;  0.0000000E+00;  3.9682742E-02;  1.2087499E+03;
  2.7982932E-01;  9.9999998E-03;  2.0001601E-01;1488; -7.2981261E-02;  0.0000000E+00;  7.4518672E-03;  1.0010893E+03;  4.0000001E-01;  9.0249280E+02;3; -2.1770111E+01;  0.0000000E+00;  2.4861548E+00;0; -3.7609607E-01;  1.0024436E+04;  0.0000000E+00; -2.7223728E-03;  1.0000000E+04;  0.0000000E+00;  9.9973633E+03; -4.1851792E-01;  0.0000000E+00;  4.2421859E-02;  1.3486633E+03;
  2.7983117E-01;  9.9999998E-03;  2.2001827E-01;1489; -7.1633413E-02;  0.0000000E+00;  8.1968028E-03;  1.0010935E+03;  4.0000001E-01;  9.0594946E+02;3; -2.1557199E+01;  0.0000000E+00;  2.7101274E+00;0; -3.7711215E-01;  1.0024790E+04;  0.0000000E+00; -2.0087721E-02;  1.0000000E+04;  0.0000000E+00;  9.9970918E+03; -4.2233548E-01;  0.0000000E+00;  4.5223329E-02;  1.4836144E+03;
  2.7983510E-01;  9.9999998E-03;  2.4002123E-01;1490; -6.9440767E-02;  0.0000000E+00;  9.2396084E-03;  1.0011055E+03;  4.0000001E-01;  9.1582574E+02;3; -2.1862959E+01;  0.0000000E+00;  3.1673179E+00;0; -3.8174060E-01;  1.0025199E+04;  0.0000000E+00; -7.9731241E-02;  1.0000000E+04;  0.0000000E+00;  9.9969297E+03; -4.2873883E-01;  0.0000000E+00;  4.6998221E-02;  1.6168984E+03;
  2.7984184E-01;  9.9999998E-03;  2.6002595E-01;1491; -6.6190191E-02;  0.0000000E+00;  1.0920112E-02;  1.0011229E+03;  4.0000001E-01;  9.3024506E+02;3; -2.2931879E+01;  0.0000000E+00;  3.9985888E+00;0; -3.8850689E-01;  1.0025679E+04;  0.0000000E+00; -2.2194445E-01;  1.0000000E+04;  0.0000000E+00;  9.9967959E+03; -4.3843782E-01;  0.0000000E+00;  4.9930945E-02;  2.0118073E+03;
  2.7985156E-01;  9.9999998E-03;  2.8003278E-01;1492; -6.1869249E-02;  0.0000000E+00;  1.3161335E-02;  1.0011196E+03;  4.0000001E-01;  9.2757849E+02;3; -2.4732550E+01;  0.0000000E+00;  5.2912707E+00;0; -3.8989258E-01;  1.0026191E+04;  0.0000000E+00; -4.6236694E-01;  1.0000000E+04;  0.0000000E+00;  9.9962256E+03; -4.5096710E-01;  0.0000000E+00;  6.1074518E-02;  3.1202656E+03;
  2.7986464E-01;  9.9999998E-03;  3.0003989E-01;1493; -5.6394026E-02;  0.0000000E+00;  1.5146599E-02;  1.0010860E+03;  4.0000001E-01;  8.9972742E+02;3; -2.6677210E+01;  0.0000000E+00;  6.8833761E+00;0; -3.8758469E-01;  1.0026506E+04;  0.0000000E+00; -7.2272605E-01;  1.0000000E+04;  0.0000000E+00;  9.9952354E+03; -4.6271741E-01;  0.0000000E+00;  7.5132728E-02;  4.5490322E+03;
  2.9980507E-01;  9.9999998E-03;  1.6001579E-01;1517; -8.2877845E-02;  0.0000000E+00;  7.8133643E-03;  1.0011982E+03;  4.0000001E-01;  9.9276166E+02;3; -2.4633198E+01;  0.0000000E+00;  2.6770105E+00;0; -4.0275258E-01;  1.0026662E+04;  0.0000000E+00;  7.5985241E-07;  1.0000000E+04;  0.0000000E+00;  9.9973271E+03; -4.5060146E-01;  0.0000000E+00;  4.7848888E-02;  1.3699694E+03;
  2.9980418E-01;  9.9999998E-03;  1.8001828E-01;1518; -8.2514159E-02;  0.0000000E+00;  8.7359063E-03;  1.0012004E+03;  4.0000001E-01;  9.9453943E+02;3; -2.4127274E+01;  0.0000000E+00;  2.9071314E+00;0; -4.0164989E-01;  1.0026993E+04;  0.0000000E+00;  1.0111005E-05;  1.0000000E+04;  0.0000000E+00;  9.9970332E+03; -4.5134714E-01;  0.0000000E+00;  4.9697235E-02;  1.5120447E+03;
  2.9980421E-01;  9.9999998E-03;  2.0002103E-01;1519; -8.1771076E-02;  0.0000000E+00;  9.7130938E-03;  1.0011998E+03;  4.0000001E-01;  9.9394684E+02;3; -2.3649063E+01;  0.0000000E+00;  3.1910059E+00;0; -3.9994380E-01;  1.0027320E+04;  0.0000000E+00; -3.7933449E-04;  1.0000000E+04;  0.0000000E+00;  9.9966943E+03; -4.5259741E-01;  0.0000000E+00;  5.2653603E-02;  1.6775375E+03;
  2.9980564E-01;  9.9999998E-03;  2.2002426E-01;1520; -8.0476560E-02;  0.0000000E+00;  1.0828208E-02;  1.0011990E+03;  4.0000001E-01;  9.9335425E+02;3; -2.3464317E+01;  0.0000000E+00;  3.5492721E+00;0; -3.9853182E-01;  1.0027648E+04;  0.0000000E+00; -5.5197114E-03;  1.0000000E+04;  0.0000000E+00;  9.9963564E+03; -4.5471865E-01;  0.0000000E+00;  5.6186818E-02;  1.8439218E+03;
  2.9980907E-01;  9.9999998E-03;  2.4002825E-01;1521; -7.8422368E-02;  0.0000000E+00;  1.2169477E-02;  1.0012004E+03;  4.0000001E-01;  9.9453943E+02;3; -2.3953001E+01;  0.0000000E+00;  4.0840678E+00;0; -3.9824736E-01;  1.0027976E+04;  0.0000000E+00; -2.7713381E-02;  1.0000000E+04;  0.0000000E+00;  9.9960566E+03; -4.5822951E-01;  0.0000000E+00;  5.9982143E-02;  1.9919385E+03;
  2.9981509E-01;  9.9999998E-03;  2.6003358E-01;1522; -7.5434178E-02;  0.0000000E+00;  1.3892739E-02;  1.0012006E+03;  4.0000001E-01;  9.9463818E+02;3; -2.5412609E+01;  0.0000000E+00;  4.9623537E+00;0; -3.9761961E-01;  1.0028311E+04;  0.0000000E+00; -8.5796699E-02;  1.0000000E+04;  0.0000000E+00;  9.9957266E+03; -4.6355245E-01;  0.0000000E+00;  6.5932840E-02;  2.1905410E+03;
  2.9982397E-01;  9.9999998E-03;  2.8004023E-01;1523; -7.1478412E-02;  0.0000000E+00;  1.5758118E-02;  1.0011848E+03;  4.0000001E-01;  9.8150275E+02;3; -2.7878906E+01;  0.0000000E+00;  6.1539946E+00;0; -3.9463562E-01;  1.0028626E+04;  0.0000000E+00; -1.8856423E-01;  1.0000000E+04;  0.0000000E+00;  9.9950889E+03; -4.7066414E-01;  0.0000000E+00;  7.6028541E-02;  2.6466311E+03;
  2.9983586E-01;  9.9999998E-03;  3.0004686E-01;1524; -6.6566952E-02;  0.0000000E+00;  1.7392203E-02;  1.0011567E+03;  4.0000001E-01;  9.5829352E+02;3; -3.0827120E+01;  0.0000000E+00;  7.7600079E+00;0; -3.9395002E-01;  1.0028844E+04;  0.0000000E+00; -3.0127737E-01;  1.0000000E+04;  0.0000000E+00;  9.9943135E+03; -4.7830993E-01;  0.0000000E+00;  8.4359907E-02;  3.2520869E+03;
  3.1977770E-01;  9.9999998E-03;  1.6001967E-01;1548; -9.2381440E-02;  0.0000000E+00;  9.6062841E-03;  1.0013250E+03;  4.0000001E-01;  1.0977463E+03;3; -2.6657110E+01;  0.0000000E+00;  3.1906850E+00;0; -4.3061939E-01;  1.0029802E+04;  0.0000000E+00;  7.6197125E-07;  1.0000000E+04;  0.0000000E+00;  9.9967275E+03; -4.8821342E-01;  0.0000000E+00;  5.7594024E-02;  1.6658221E+03;
  3.1977645E-01;  9.9999998E-03;  1.8002287E-01;1549; -9.2019893E-02;  0.0000000E+00;  1.0789544E-02;  1.0013257E+03;  4.0000001E-01;  1.0983389E+03;3; -2.6091576E+01;  0.0000000E+00;  3.4942076E+00;0; -4.2870089E-01;  1.0030140E+04;  0.0000000E+00;  8.9054574E-06;  1.0000000E+04;  0.0000000E+00;  9.9964053E+03; -4.8793805E-01;  0.0000000E+00;  5.9237156E-02;  1.8262764E+03;
  3.1977612E-01;  9.9999998E-03;  2.0002639E-01;1550; -9.1274768E-02;  0.0000000E+00;  1.2013875E-02;  1.0013237E+03;  4.0000001E-01;  1.0966599E+03;3; -2.5569094E+01;  0.0000000E+00;  3.8395679E+00;0; -4.2601240E-01;  1.0030468E+04;  0.0000000E+00;  4.4361394E-05;  1.0000000E+04;  0.0000000E+00;  9.9960322E+03; -4.8788771E-01;  0.0000000E+00;  6.1875299E-02;  2.0070510E+03;
  3.1977719E-01;  9.9999998E-03;  2.2003038E-01;1551; -8.9970425E-02;  0.0000000E+00;  1.3359203E-02;  1.0013197E+03;  4.0000001E-01;  1.0933020E+03;3; -2.5391739E+01;  0.0000000E+00;  4.2578611E+00;0; -4.2293888E-01;  1.0030767E+04;  0.0000000E+00; -4.5485023E-04;  1.0000000E+04;  0.0000000E+00;  9.9956563E+03; -4.8819643E-01;  0.0000000E+00;  6.5257534E-02;  2.1895168E+03;
  3.1978035E-01;  9.9999998E-03;  2.4003506E-01;1552; -8.7927356E-02;  0.0000000E+00;  1.4831038E-02;  1.0013150E+03;  4.0000001E-01;  1.0894503E+03;3; -2.6012724E+01;  0.0000000E+00;  4.8398814E+00;0; -4.1971821E-01;  1.0031023E+04;  0.0000000E+00; -5.0200303E-03;  1.0000000E+04;  0.0000000E+00;  9.9953047E+03; -4.8908365E-01;  0.0000000E+00;  6.9365434E-02;  2.3577241E+03;
  3.1978604E-01;  9.9999998E-03;  2.6004067E-01;1553; -8.5012764E-02;  0.0000000E+00;  1.6472174E-02;  1.0013074E+03;  4.0000001E-01;  1.0831294E+03;3; -2.7812944E+01;  0.0000000E+00;  5.7188230E+00;0; -4.1541535E-01;  1.0031245E+04;  0.0000000E+00; -2.0521708E-02;  1.0000000E+04;  0.0000000E+00;  9.9949316E+03; -4.9076834E-01;  0.0000000E+00;  7.5352989E-02;  2.5370649E+03;
  3.1979451E-01;  9.9999998E-03;  2.8004721E-01;1554; -8.1218131E-02;  0.0000000E+00;  1.8083723E-02;  1.0012886E+03;  4.0000001E-01;  1.0675249E+03;3; -3.0879395E+01;  0.0000000E+00;  6.9098821E+00;0; -4.1050354E-01;  1.0031419E+04;  0.0000000E+00; -5.1401131E-02;  1.0000000E+04;  0.0000000E+00;  9.9943750E+03; -4.9331990E-01;  0.0000000E+00;  8.2816362E-02;  2.8143127E+03;
  3.1980583E-01;  9.9999998E-03;  3.0005372E-01;1555; -7.6622486E-02;  0.0000000E+00;  1.9531021E-02;  1.0012651E+03;  4.0000001E-01;  1.0480687E+03;3; -3.4707142E+01;  0.0000000E+00;  8.5937319E+00;0; -4.0972212E-01;  1.0031533E+04;  0.0000000E+00; -8.8704944E-02;  1.0000000E+04;  0.0000000E+00;  9.9937979E+03; -4.9648079E-01;  0.0000000E+00;  8.6758681E-02;  3.1184209E+03;
  3.3974707E-01;  9.9999998E-03;  1.6002375E-01;1579; -1.0267098E-01;  0.0000000E+00;  1.1420834E-02;  1.0014664E+03;  4.0000001E-01;  1.2148787E+03;3; -2.8729160E+01;  0.0000000E+00;  3.6714501E+00;0; -4.6096563E-01;  1.0033244E+04;  0.0000000E+00;  6.6776215E-07;  1.0000000E+04;  0.0000000E+00;  9.9961143E+03; -5.2780455E-01;  0.0000000E+00;  6.6838905E-02;  1.9722095E+03;
  3.3974540E-01;  9.9999998E-03;  1.8002765E-01;1580; -1.0229026E-01;  0.0000000E+00;  1.2822540E-02;  1.0014663E+03;  4.0000001E-01;  1.2147799E+03;3; -2.8091198E+01;  0.0000000E+00;  4.0312448E+00;0; -4.5830876E-01;  1.0033592E+04;  0.0000000E+00;  7.5448711E-06;  1.0000000E+04;  0.0000000E+00;  9.9957617E+03; -5.2625567E-01;  0.0000000E+00;  6.7946926E-02;  2.1455613E+03;
  3.3974472E-01;  9.9999998E-03;  2.0003186E-01;1581; -1.0151571E-01;  0.0000000E+00;  1.4234345E-02;  1.0014628E+03;  4.0000001E-01;  1.2119158E+03;3; -2.7513405E+01;  0.0000000E+00;  4.4023252E+00;0; -4.5473310E-01;  1.0033906E+04;  0.0000000E+00;  3.9706258E-05;  1.0000000E+04;  0.0000000E+00;  9.9953740E+03; -5.2462661E-01;  0.0000000E+00;  6.9893509E-02;  2.3344211E+03;
  3.3974552E-01;  9.9999998E-03;  2.2003648E-01;1582; -1.0015546E-01;  0.0000000E+00;  1.5714634E-02;  1.0014568E+03;  4.0000001E-01;  1.2068789E+03;3; -2.7311665E+01;  0.0000000E+00;  4.8761435E+00;0; -4.5051396E-01;  1.0034172E+04;  0.0000000E+00;  1.2744550E-04;  1.0000000E+04;  0.0000000E+00;  9.9949990E+03; -5.2303487E-01;  0.0000000E+00;  7.2520927E-02;  2.5203455E+03;
  3.3974859E-01;  9.9999998E-03;  2.4004167E-01;1583; -9.8014317E-02;  0.0000000E+00;  1.7241249E-02;  1.0014495E+03;  4.0000001E-01;  1.2008544E+03;3; -2.8055868E+01;  0.0000000E+00;  5.4582624E+00;0; -4.4574940E-01;  1.0034371E+04;  0.0000000E+00;  9.7012198E-05;  1.0000000E+04;  0.0000000E+00;  9.9946563E+03; -5.2160513E-01;  0.0000000E+00;  7.5855725E-02;  2.6872422E+03;
  3.3975437E-01;  9.9999998E-03;  2.6004753E-01;1584; -9.4995581E-02;  0.0000000E+00;  1.8804226E-02;  1.0014399E+03;  4.0000001E-01;  1.1929534E+03;3; -3.0159456E+01;  0.0000000E+00;  6.3321071E+00;0; -4.4002831E-01;  1.0034511E+04;  0.0000000E+00; -1.4570919E-03;  1.0000000E+04;  0.0000000E+00;  9.9943262E+03; -5.2047598E-01;  0.0000000E+00;  8.0447689E-02;  2.8434194E+03;
  3.3976308E-01;  9.9999998E-03;  2.8005415E-01;1585; -9.1100425E-02;  0.0000000E+00;  2.0294819E-02;  1.0014221E+03;  4.0000001E-01;  1.1781390E+03;3; -3.3743359E+01;  0.0000000E+00;  7.6057062E+00;0; -4.3444178E-01;  1.0034590E+04;  0.0000000E+00; -6.1363312E-03;  1.0000000E+04;  0.0000000E+00;  9.9938848E+03; -5.1974416E-01;  0.0000000E+00;  8.5302383E-02;  3.0547102E+03;
  3.3977473E-01;  9.9999998E-03;  3.0006087E-01;1586; -8.6437814E-02;  0.0000000E+00;  2.1644296E-02;  1.0014015E+03;  4.0000001E-01;  1.1611519E+03;3; -3.8299294E+01;  0.0000000E+00;  9.3746805E+00;0; -4.3308094E-01;  1.0034625E+04;  0.0000000E+00; -1.3105704E-02;  1.0000000E+04;  0.0000000E+00;  9.9934395E+03; -5.1943332E-01;  0.0000000E+00;  8.6352371E-02;  3.2719712E+03;
  3.5971290E-01;  9.9999998E-03;  1.6002794E-01;1610; -1.1377981E-01;  0.0000000E+00;  1.3190244E-02;  1.0016237E+03;  4.0000001E-01;  1.3452452E+03;3; -3.0836582E+01;  0.0000000E+00;  4.0928588E+00;0; -4.9402475E-01;  1.0037026E+04;  0.0000000E+00;  2.3337914E-07;  1.0000000E+04;  0.0000000E+00;  9.9954883E+03; -5.6943595E-01;  0.0000000E+00;  7.5411215E-02;  2.2866895E+03;
  3.5971078E-01;  9.9999998E-03;  1.8003249E-01;1611; -1.1335562E-01;  0.0000000E+00;  1.4770079E-02;  1.0016232E+03;  4.0000001E-01;  1.3448501E+03;3; -3.0119457E+01;  0.0000000E+00;  4.4819078E+00;0; -4.9070776E-01;  1.0037387E+04;  0.0000000E+00;  6.0855918E-06;  1.0000000E+04;  0.0000000E+00;  9.9951182E+03; -5.6650019E-01;  0.0000000E+00;  7.5792432E-02;  2.4700457E+03;
  3.5970971E-01;  9.9999998E-03;  2.0003739E-01;1612; -1.1252402E-01;  0.0000000E+00;  1.6326781E-02;  1.0016190E+03;  4.0000001E-01;  1.3412947E+03;3; -2.9471874E+01;  0.0000000E+00;  4.8571057E+00;0; -4.8631418E-01;  1.0037691E+04;  0.0000000E+00;  3.6862428E-05;  1.0000000E+04;  0.0000000E+00;  9.9947275E+03; -5.6318563E-01;  0.0000000E+00;  7.6871470E-02;  2.6640247E+03;
  3.5971028E-01;  9.9999998E-03;  2.2004260E-01;1613; -1.1108139E-01;  0.0000000E+00;  1.7887741E-02;  1.0016118E+03;  4.0000001E-01;  1.3353689E+03;3; -2.9269360E+01;  0.0000000E+00;  5.3327737E+00;0; -4.8109123E-01;  1.0037926E+04;  0.0000000E+00;  1.2577770E-04;  1.0000000E+04;  0.0000000E+00;  9.9943496E+03; -5.5963832E-01;  0.0000000E+00;  7.8547098E-02;  2.8497407E+03;
  3.5971335E-01;  9.9999998E-03;  2.4004824E-01;1614; -1.0878365E-01;  0.0000000E+00;  1.9456685E-02;  1.0016032E+03;  4.0000001E-01;  1.3282581E+03;3; -3.0103821E+01;  0.0000000E+00;  5.9578319E+00;0; -4.7528055E-01;  1.0038078E+04;  0.0000000E+00;  2.9487637E-04;  1.0000000E+04;  0.0000000E+00;  9.9940264E+03; -5.5606121E-01;  0.0000000E+00;  8.0780655E-02;  3.0068699E+03;
  3.5971943E-01;  9.9999998E-03;  2.6005438E-01;1615; -1.0555170E-01;  0.0000000E+00;  2.0990781E-02;  1.0015937E+03;  4.0000001E-01;  1.3203571E+03;3; -3.2493076E+01;  0.0000000E+00;  6.8740983E+00;0; -4.6882600E-01;  1.0038148E+04;  0.0000000E+00;  5.1076250E-04;  1.0000000E+04;  0.0000000E+00;  9.9937656E+03; -5.5265045E-01;  0.0000000E+00;  8.3824441E-02;  3.1307983E+03;
  3.5972887E-01;  9.9999998E-03;  2.8006142E-01;1616; -1.0137133E-01;  0.0000000E+00;  2.2447107E-02;  1.0015767E+03;  4.0000001E-01;  1.3062340E+03;3; -3.6567242E+01;  0.0000000E+00;  8.2244110E+00;0; -4.6276027E-01;  1.0038158E+04;  0.0000000E+00;  5.8250834E-04;  1.0000000E+04;  0.0000000E+00;  9.9934199E+03; -5.4956877E-01;  0.0000000E+00;  8.6808518E-02;  3.2964829E+03;
  3.5974163E-01;  9.9999998E-03;  3.0006859E-01;1617; -9.6320257E-02;  0.0000000E+00;  2.3780638E-02;  1.0015564E+03;  4.0000001E-01;  1.2894443E+03;3; -4.1741528E+01;  0.0000000E+00;  1.0090387E+01;0; -4.6042594E-01;  1.0038126E+04;  0.0000000E+00;  1.8369322E-04;  1.0000000E+04;  0.0000000E+00;  9.9930449E+03; -5.4697347E-01;  0.0000000E+00;  8.6547516E-02;  3.4810242E+03;
  3.7967482E-01;  9.9999998E-03;  1.6003220E-01;1641; -1.2574406E-01;  0.0000000E+00;  1.4877978E-02;  1.0017984E+03;  4.0000001E-01;  1.4899320E+03;3; -3.2974747E+01;  0.0000000E+00;  4.4302478E+00;0; -5.2980089E-01;  1.0041165E+04;  0.0000000E+00; -4.6945644E-07;  1.0000000E+04;  0.0000000E+00;  9.9948516E+03; -6.1312306E-01;  0.0000000E+00;  8.3322152E-02;  2.6098630E+03;
  3.7967226E-01;  9.9999998E-03;  1.8003741E-01;1642; -1.2524948E-01;  0.0000000E+00;  1.6608618E-02;  1.0017982E+03;  4.0000001E-01;  1.4898333E+03;3; -3.2157391E+01;  0.0000000E+00;  4.8470802E+00;0; -5.2586472E-01;  1.0041548E+04;  0.0000000E+00;  4.2938909E-06;  1.0000000E+04;  0.0000000E+00;  9.9944639E+03; -6.0879898E-01;  0.0000000E+00;  8.2934238E-02;  2.8031772E+03;
  3.7967077E-01;  9.9999998E-03;  2.0004296E-01;1643; -1.2433340E-01;  0.0000000E+00;  1.8287260E-02;  1.0017938E+03;  4.0000001E-01;  1.4860803E+03;3; -3.1437082E+01;  0.0000000E+00;  5.2088494E+00;0; -5.2070415E-01;  1.0041862E+04;  0.0000000E+00;  3.5264973E-05;  1.0000000E+04;  0.0000000E+00;  9.9940596E+03; -6.0385227E-01;  0.0000000E+00;  8.3148144E-02;  3.0034583E+03;
  3.7967113E-01;  9.9999998E-03;  2.2004879E-01;1644; -1.2277867E-01;  0.0000000E+00;  1.9918976E-02;  1.0017859E+03;  4.0000001E-01;  1.4796608E+03;3; -3.1220402E+01;  0.0000000E+00;  5.6848340E+00;0; -5.1454389E-01;  1.0042086E+04;  0.0000000E+00;  1.3106230E-04;  1.0000000E+04;  0.0000000E+00;  9.9936826E+03; -5.9845579E-01;  0.0000000E+00;  8.3911873E-02;  3.1912305E+03;
  3.7967420E-01;  9.9999998E-03;  2.4005495E-01;1645; -1.2030128E-01;  0.0000000E+00;  2.1530723E-02;  1.0017767E+03;  4.0000001E-01;  1.4719573E+03;3; -3.2160736E+01;  0.0000000E+00;  6.3465219E+00;0; -5.0773716E-01;  1.0042210E+04;  0.0000000E+00;  3.2070154E-04;  1.0000000E+04;  0.0000000E+00;  9.9933721E+03; -5.9290504E-01;  0.0000000E+00;  8.5167870E-02;  3.3418572E+03;
  3.7968069E-01;  9.9999998E-03;  2.6006153E-01;1646; -1.1680804E-01;  0.0000000E+00;  2.3073681E-02;  1.0017676E+03;  4.0000001E-01;  1.4644513E+03;3; -3.4845222E+01;  0.0000000E+00;  7.3223701E+00;0; -5.0046426E-01;  1.0042239E+04;  0.0000000E+00;  5.7297433E-04;  1.0000000E+04;  0.0000000E+00;  9.9931660E+03; -5.8750945E-01;  0.0000000E+00;  8.7045178E-02;  3.4407905E+03;
  3.7969103E-01;  9.9999998E-03;  2.8006914E-01;1647; -1.1225364E-01;  0.0000000E+00;  2.4556875E-02;  1.0017509E+03;  4.0000001E-01;  1.4506245E+03;3; -3.9428802E+01;  0.0000000E+00;  8.7330608E+00;0; -4.9335533E-01;  1.0042193E+04;  0.0000000E+00;  7.1961561E-04;  1.0000000E+04;  0.0000000E+00;  9.9928770E+03; -5.8253688E-01;  0.0000000E+00;  8.9181535E-02;  3.5791672E+03;
  3.7970525E-01;  9.9999998E-03;  3.0007693E-01;1648; -1.0669872E-01;  0.0000000E+00;  2.5906952E-02;  1.0017288E+03;  4.0000001E-01;  1.4322548E+03;3; -4.5197639E+01;  0.0000000E+00;  1.0735239E+01;0; -4.8986873E-01;  1.0042104E+04;  0.0000000E+00;  4.6446096E-04;  1.0000000E+04;  0.0000000E+00;  9.9925234E+03; -5.7822692E-01;  0.0000000E+00;  8.8358201E-02;  3.7547925E+03;
  3.9963251E-01;  9.9999998E-03;  1.6003650E-01;1672; -1.3859904E-01;  0.0000000E+00;  1.6455164E-02;  1.0019913E+03;  4.0000001E-01;  1.6497296E+03;3; -3.5130367E+01;  0.0000000E+00;  4.6714416E+00;0; -5.6814694E-01;  1.0045685E+04;  0.0000000E+00; -1.2377719E-06;  1.0000000E+04;  0.0000000E+00;  9.9941973E+03; -6.5880746E-01;  0.0000000E+00;  9.0660535E-02;  2.9434722E+03;
  3.9962944E-01;  9.9999998E-03;  1.8004239E-01;1673; -1.3800670E-01;  0.0000000E+00;  1.8321810E-02;  1.0019921E+03;  4.0000001E-01;  1.6504210E+03;3; -3.4204876E+01;  0.0000000E+00;  5.1015849E+00;0; -5.6359458E-01;  1.0046109E+04;  0.0000000E+00;  2.2305023E-06;  1.0000000E+04;  0.0000000E+00;  9.9937891E+03; -6.5316492E-01;  0.0000000E+00;  8.9570336E-02;  3.1482986E+03;
  3.9962754E-01;  9.9999998E-03;  2.0004864E-01;1674; -1.3697839E-01;  0.0000000E+00;  2.0123642E-02;  1.0019882E+03;  4.0000001E-01;  1.6471617E+03;3; -3.3400661E+01;  0.0000000E+00;  5.4593635E+00;0; -5.5768728E-01;  1.0046457E+04;  0.0000000E+00;  3.4088960E-05;  1.0000000E+04;  0.0000000E+00;  9.9933691E+03; -6.4673197E-01;  0.0000000E+00;  8.9044668E-02;  3.3589412E+03;
  3.9962763E-01;  9.9999998E-03;  2.2005516E-01;1675; -1.3528356E-01;  0.0000000E+00;  2.1836223E-02;  1.0019807E+03;  4.0000001E-01;  1.6409398E+03;3; -3.3172810E+01;  0.0000000E+00;  5.9188514E+00;0; -5.5061567E-01;  1.0046702E+04;  0.0000000E+00;  1.4098457E-04;  1.0000000E+04;  0.0000000E+00;  9.9929727E+03; -6.3970971E-01;  0.0000000E+00;  8.9094028E-02;  3.5550735E+03;
  3.9963073E-01;  9.9999998E-03;  2.4006194E-01;1676; -1.3259706E-01;  0.0000000E+00;  2.3502735E-02;  1.0019713E+03;  4.0000001E-01;  1.6331376E+03;3; -3.4215889E+01;  0.0000000E+00;  6.6283293E+00;0; -5.4281557E-01;  1.0046826E+04;  0.0000000E+00;  3.6131134E-04;  1.0000000E+04;  0.0000000E+00;  9.9926611E+03; -6.3247412E-01;  0.0000000E+00;  8.9658581E-02;  3.7079402E+03;
  3.9963770E-01;  9.9999998E-03;  2.6006910E-01;1677; -1.2880397E-01;  0.0000000E+00;  2.5075216E-02;  1.0019631E+03;  4.0000001E-01;  1.6264216E+03;3; -3.7206741E+01;  0.0000000E+00;  7.6663198E+00;0; -5.3460634E-01;  1.0046848E+04;  0.0000000E+00;  6.6355272E-04;  1.0000000E+04;  0.0000000E+00;  9.9924795E+03; -6.2543142E-01;  0.0000000E+00;  9.0825088E-02;  3.7946716E+03;
  3.9964902E-01;  9.9999998E-03;  2.8007743E-01;1678; -1.2382387E-01;  0.0000000E+00;  2.6613245E-02;  1.0019468E+03;  4.0000001E-01;  1.6128912E+03;3; -4.2297192E+01;  0.0000000E+00;  9.1649866E+00;0; -5.2625823E-01;  1.0046780E+04;  0.0000000E+00;  8.5114001E-04;  1.0000000E+04;  0.0000000E+00;  9.9922139E+03; -6.1893600E-01;  0.0000000E+00;  9.2677757E-02;  3.9209666E+03;
  3.9966485E-01;  9.9999998E-03;  3.0008599E-01;1679; -1.1773557E-01;  0.0000000E+00;  2.7979633E-02;  1.0019229E+03;  4.0000001E-01;  1.5931387E+03;3; -4.8729336E+01;  0.0000000E+00;  1.1265681E+01;0; -5.2171534E-01;  1.0046671E+04;  0.0000000E+00;  5.5794819E-04;  1.0000000E+04;  0.0000000E+00;  9.9918477E+03; -6.1328089E-01;  0.0000000E+00;  9.1565557E-02;  4.1009565E+03;
  4.1958559E-01;  9.9999998E-03;  1.6004089E-01;1703; -1.5238006E-01;  0.0000000E+00;  1.7887317E-02;  1.0022026E+03;  4.0000001E-01;  1.8248350E+03;3; -3.7301571E+01;  0.0000000E+00;  4.8037434E+00;0; -6.0882956E-01;  1.0050597E+04;  0.0000000E+00; -1.2631681E-06;  1.0000000E+04;  0.0000000E+00;  9.9935254E+03; -7.0632118E-01;  0.0000000E+00;  9.7491600E-02;  3.2891179E+03;
  4.1958198E-01;  9.9999998E-03;  1.8004748E-01;1704; -1.5166236E-01;  0.0000000E+00;  1.9891016E-02;  1.0022054E+03;  4.0000001E-01;  1.8272052E+03;3; -3.6258339E+01;  0.0000000E+00;  5.2328434E+00;0; -6.0366255E-01;  1.0051085E+04;  0.0000000E+00;  6.5005383E-07;  1.0000000E+04;  0.0000000E+00;  9.9930918E+03; -6.9947565E-01;  0.0000000E+00;  9.5813110E-02;  3.5063396E+03;
  4.1957960E-01;  9.9999998E-03;  2.0005450E-01;1705; -1.5049335E-01;  0.0000000E+00;  2.1829637E-02;  1.0022032E+03;  4.0000001E-01;  1.8253287E+03;3; -3.5354259E+01;  0.0000000E+00;  5.5989223E+00;0; -5.9703356E-01;  1.0051496E+04;  0.0000000E+00;  3.3743363E-05;  1.0000000E+04;  0.0000000E+00;  9.9926436E+03; -6.9175696E-01;  0.0000000E+00;  9.4723381E-02;  3.7319424E+03;
  4.1957939E-01;  9.9999998E-03;  2.2006179E-01;1706; -1.4862540E-01;  0.0000000E+00;  2.3646345E-02;  1.0021968E+03;  4.0000001E-01;  1.8199956E+03;3; -3.5106861E+01;  0.0000000E+00;  6.0512891E+00;0; -5.8907849E-01;  1.0051795E+04;  0.0000000E+00;  1.5496777E-04;  1.0000000E+04;  0.0000000E+00;  9.9922188E+03; -6.8339735E-01;  0.0000000E+00;  9.4318859E-02;  3.9443479E+03;
  4.1958255E-01;  9.9999998E-03;  2.4006931E-01;1707; -1.4569512E-01;  0.0000000E+00;  2.5386013E-02;  1.0021886E+03;  4.0000001E-01;  1.8131809E+03;3; -3.6251148E+01;  0.0000000E+00;  6.7993450E+00;0; -5.8027637E-01;  1.0051975E+04;  0.0000000E+00;  4.1427967E-04;  1.0000000E+04;  0.0000000E+00;  9.9918779E+03; -6.7483777E-01;  0.0000000E+00;  9.4561368E-02;  4.1106460E+03;
  4.1959000E-01;  9.9999998E-03;  2.6007721E-01;1708; -1.4155963E-01;  0.0000000E+00;  2.7002657E-02;  1.0021822E+03;  4.0000001E-01;  1.8079465E+03;3; -3.9561474E+01;  0.0000000E+00;  7.8928685E+00;0; -5.7106090E-01;  1.0052029E+04;  0.0000000E+00;  7.7810074E-04;  1.0000000E+04;  0.0000000E+00;  9.9916934E+03; -6.6655272E-01;  0.0000000E+00;  9.5491856E-02;  4.2010776E+03;
  4.1960239E-01;  9.9999998E-03;  2.8008640E-01;1709; -1.3610911E-01;  0.0000000E+00;  2.8588543E-02;  1.0021671E+03;  4.0000001E-01;  1.7954037E+03;3; -4.5185959E+01;  0.0000000E+00;  9.4641352E+00;0; -5.6160510E-01;  1.0051998E+04;  0.0000000E+00;  1.0086558E-03;  1.0000000E+04;  0.0000000E+00;  9.9914248E+03; -6.5894985E-01;  0.0000000E+00;  9.7344771E-02;  4.3295396E+03;
  4.1961992E-01;  9.9999998E-03;  3.0009592E-01;1710; -1.2943698E-01;  0.0000000E+00;  2.9969996E-02;  1.0021431E+03;  4.0000001E-01;  1.7755525E+03;3; -5.2308300E+01;  0.0000000E+00;  1.1648387E+01;0; -5.5654669E-01;  1.0051906E+04;  0.0000000E+00;  6.4588571E-04;  1.0000000E+04;  0.0000000E+00;  9.9910352E+03; -6.5235871E-01;  0.0000000E+00;  9.5812008E-02;  4.5224248E+03;
  4.3953371E-01;  9.9999998E-03;  1.6004547E-01;1734; -1.6712055E-01;  0.0000000E+00;  1.9143732E-02;  1.0024316E+03;  4.0000001E-01;  2.0145570E+03;3; -3.9473785E+01;  0.0000000E+00;  4.8079247E+00;0; -6.5145409E-01;  1.0055898E+04;  0.0000000E+00;  5.4197534E-07;  1.0000000E+04;  0.0000000E+00;  9.9928262E+03; -7.5525790E-01;  0.0000000E+00;  1.0380384E-01;  3.6486533E+03;
  4.3952945E-01;  9.9999998E-03;  1.8005282E-01;1735; -1.6625270E-01;  0.0000000E+00;  2.1290310E-02;  1.0024375E+03;  4.0000001E-01;  2.0193964E+03;3; -3.8301815E+01;  0.0000000E+00;  5.2293935E+00;0; -6.4573812E-01;  1.0056468E+04;  0.0000000E+00;  1.4663866E-06;  1.0000000E+04;  0.0000000E+00;  9.9923818E+03; -7.4736762E-01;  0.0000000E+00;  1.0162949E-01;  3.8756650E+03;
  4.3952650E-01;  9.9999998E-03;  2.0006061E-01;1736; -1.6491668E-01;  0.0000000E+00;  2.3375463E-02;  1.0024386E+03;  4.0000001E-01;  2.0202852E+03;3; -3.7286678E+01;  0.0000000E+00;  5.6080413E+00;0; -6.3848019E-01;  1.0056977E+04;  0.0000000E+00;  3.7214781E-05;  1.0000000E+04;  0.0000000E+00;  9.9918965E+03; -7.3861480E-01;  0.0000000E+00;  1.0013460E-01;  4.1185396E+03;
  4.3952596E-01;  9.9999998E-03;  2.2006872E-01;1737; -1.6283956E-01;  0.0000000E+00;  2.5317881E-02;  1.0024355E+03;  4.0000001E-01;  2.0178162E+03;3; -3.7004948E+01;  0.0000000E+00;  6.0606875E+00;0; -6.2975532E-01;  1.0057380E+04;  0.0000000E+00;  1.7689359E-04;  1.0000000E+04;  0.0000000E+00;  9.9914248E+03; -7.2927630E-01;  0.0000000E+00;  9.9520996E-02;  4.3536479E+03;
  4.3952909E-01;  9.9999998E-03;  2.4007711E-01;1738; -1.5962747E-01;  0.0000000E+00;  2.7150808E-02;  1.0024304E+03;  4.0000001E-01;  2.0134706E+03;3; -3.8256584E+01;  0.0000000E+00;  6.8324018E+00;0; -6.2001580E-01;  1.0057663E+04;  0.0000000E+00;  4.8355726E-04;  1.0000000E+04;  0.0000000E+00;  9.9910420E+03; -7.1983653E-01;  0.0000000E+00;  9.9820733E-02;  4.5428896E+03;
  4.3953705E-01;  9.9999998E-03;  2.6008597E-01;1739; -1.5509945E-01;  0.0000000E+00;  2.8838599E-02;  1.0024272E+03;  4.0000001E-01;  2.0109027E+03;3; -4.1889545E+01;  0.0000000E+00;  7.9775705E+00;0; -6.0976285E-01;  1.0057824E+04;  0.0000000E+00;  9.1879122E-04;  1.0000000E+04;  0.0000000E+00;  9.9908115E+03; -7.1080017E-01;  0.0000000E+00;  1.0103730E-01;  4.6533652E+03;
  4.3955058E-01;  9.9999998E-03;  2.8009623E-01;1740; -1.4912780E-01;  0.0000000E+00;  3.0462364E-02;  1.0024144E+03;  4.0000001E-01;  2.0002365E+03;3; -4.8065994E+01;  0.0000000E+00;  9.6014748E+00;0; -5.9951603E-01;  1.0057885E+04;  0.0000000E+00;  1.1874547E-03;  1.0000000E+04;  0.0000000E+00;  9.9904990E+03; -7.0259207E-01;  0.0000000E+00;  1.0307604E-01;  4.8043267E+03;
  4.3956995E-01;  9.9999998E-03;  3.0010685E-01;1741; -1.4180990E-01;  0.0000000E+00;  3.1858161E-02;  1.0023918E+03;  4.0000001E-01;  1.9815703E+03;3; -5.5905941E+01;  0.0000000E+00;  1.1848038E+01;0; -5.9453225E-01;  1.0057867E+04;  0.0000000E+00;  7.0174097E-04;  1.0000000E+04;  0.0000000E+00;  9.9900615E+03; -6.9555205E-01;  0.0000000E+00;  1.0101981E-01;  5.0208462E+03;
  4.5947641E-01;  9.9999998E-03;  1.6005056E-01;1765; -1.8285878E-01;  0.0000000E+00;  2.0210478E-02;  1.0026769E+03;  4.0000087E-01;  2.2178088E+03;3; -4.1636124E+01;  0.0000000E+00;  4.6547279E+00;0; -6.9512761E-01;  1.0061510E+04;  0.0000000E+00;  6.3969119E-06;  1.0000000E+04;  0.0000000E+00;  9.9920957E+03; -8.0465198E-01;  0.0000000E+00;  1.0952439E-01;  4.0267085E+03;
  4.5947137E-01;  9.9999998E-03;  1.8005860E-01;1766; -1.8182163E-01;  0.0000000E+00;  2.2493783E-02;  1.0026884E+03;  4.0000090E-01;  2.2272900E+03;3; -4.0324547E+01;  0.0000000E+00;  5.0626440E+00;0; -6.8905395E-01;  1.0062188E+04;  0.0000000E+00;  8.3673149E-06;  1.0000000E+04;  0.0000000E+00;  9.9916494E+03; -7.9591382E-01;  0.0000000E+00;  1.0685985E-01;  4.2547388E+03;
  4.5946774E-01;  9.9999998E-03;  2.0006710E-01;1767; -1.8029629E-01;  0.0000000E+00;  2.4719389E-02;  1.0026946E+03;  4.0000096E-01;  2.2324255E+03;3; -3.9189938E+01;  0.0000000E+00;  5.4548855E+00;0; -6.8139654E-01;  1.0062830E+04;  0.0000000E+00;  5.0611350E-05;  1.0000000E+04;  0.0000000E+00;  9.9911406E+03; -7.8644300E-01;  0.0000000E+00;  1.0504645E-01;  4.5121753E+03;
  4.5946670E-01;  9.9999998E-03;  2.2007602E-01;1768; -1.7797726E-01;  0.0000000E+00;  2.6789607E-02;  1.0026969E+03;  4.0000087E-01;  2.2343020E+03;3; -3.8859493E+01;  0.0000000E+00;  5.8971896E+00;0; -6.7217892E-01;  1.0063398E+04;  0.0000000E+00;  2.1646472E-04;  1.0000000E+04;  0.0000000E+00;  9.9906201E+03; -7.7657747E-01;  0.0000000E+00;  1.0439853E-01;  4.7716655E+03;
  4.5946980E-01;  9.9999998E-03;  2.4008532E-01;1769; -1.7444150E-01;  0.0000000E+00;  2.8731860E-02;  1.0026982E+03;  4.0000081E-01;  2.2353884E+03;3; -4.0213558E+01;  0.0000000E+00;  6.6868653E+00;0; -6.6178751E-01;  1.0063855E+04;  0.0000000E+00;  5.8263488E-04;  1.0000000E+04;  0.0000000E+00;  9.9901865E+03; -7.6682311E-01;  0.0000000E+00;  1.0503561E-01;  4.9867041E+03;
  4.5947820E-01;  9.9999998E-03;  2.6009542E-01;1770; -1.6946869E-01;  0.0000000E+00;  3.0534189E-02;  1.0027004E+03;  4.0000090E-01;  2.2371663E+03;3; -4.4170475E+01;  0.0000000E+00;  7.8792005E+00;0; -6.5058929E-01;  1.0064196E+04;  0.0000000E+00;  1.1003787E-03;  1.0000000E+04;  0.0000000E+00;  9.9898916E+03; -7.5767416E-01;  0.0000000E+00;  1.0708489E-01;  5.1277988E+03;
  4.5949283E-01;  9.9999998E-03;  2.8010714E-01;1771; -1.6292426E-01;  0.0000000E+00;  3.2208692E-02;  1.0026908E+03;  4.0000093E-01;  2.2292651E+03;3; -5.0918324E+01;  0.0000000E+00;  9.5386467E+00;0; -6.3983327E-01;  1.0064422E+04;  0.0000000E+00;  1.3944469E-03;  1.0000000E+04;  0.0000000E+00;  9.9894707E+03; -7.4952132E-01;  0.0000000E+00;  1.0968804E-01;  5.3316982E+03;
  4.5951417E-01;  9.9999998E-03;  3.0011913E-01;1772; -1.5489076E-01;  0.0000000E+00;  3.3629589E-02;  1.0026718E+03;  4.0000078E-01;  2.2134631E+03;3; -5.9505291E+01;  0.0000000E+00;  1.1828046E+01;0; -6.3545579E-01;  1.0064567E+04;  0.0000000E+00;  7.0008537E-04;  1.0000000E+04;  0.0000000E+00;  9.9889424E+03; -7.4268228E-01;  0.0000000E+00;  1.0722651E-01;  5.5964238E+03;
  4.7941315E-01;  9.9999998E-03;  1.6005665E-01;1796; -1.9963624E-01;  0.0000000E+00;  2.1108605E-02;  1.0029286E+03;  4.0000266E-01;  2.4262944E+03;3; -4.3778008E+01;  0.0000000E+00;  4.3134384E+00;0; -7.3781234E-01;  1.0067268E+04;  0.0000000E+00;  2.0519199E-05;  1.0000000E+04;  0.0000000E+00;  9.9913125E+03; -8.5241109E-01;  0.0000000E+00;  1.1459874E-01;  4.4349131E+03;
  4.7940722E-01;  9.9999998E-03;  1.8006530E-01;1797; -1.9841991E-01;  0.0000000E+00;  2.3500238E-02;  1.0029478E+03;  4.0000257E-01;  2.4421951E+03;3; -4.2320103E+01;  0.0000000E+00;  4.7008624E+00;0; -7.3172885E-01;  1.0068070E+04;  0.0000000E+00;  2.7253094E-05;  1.0000000E+04;  0.0000000E+00;  9.9908936E+03; -8.4304684E-01;  0.0000000E+00;  1.1131801E-01;  4.6478037E+03;
  4.7940269E-01;  9.9999998E-03;  2.0007437E-01;1798; -1.9668941E-01;  0.0000000E+00;  2.5828104E-02;  1.0029623E+03;  4.0000248E-01;  2.4541455E+03;3; -4.1053654E+01;  0.0000000E+00;  5.0860400E+00;0; -7.2407639E-01;  1.0068881E+04;  0.0000000E+00;  8.3677631E-05;  1.0000000E+04;  0.0000000E+00;  9.9903750E+03; -8.3323681E-01;  0.0000000E+00;  1.0916040E-01;  4.9105352E+03;
  4.7940105E-01;  9.9999998E-03;  2.2008388E-01;1799; -1.9410366E-01;  0.0000000E+00;  2.7998149E-02;  1.0029732E+03;  4.0000254E-01;  2.4632314E+03;3; -4.0661819E+01;  0.0000000E+00;  5.5117555E+00;0; -7.1485823E-01;  1.0069663E+04;  0.0000000E+00;  2.9026810E-04;  1.0000000E+04;  0.0000000E+00;  9.9898213E+03; -8.2339281E-01;  0.0000000E+00;  1.0853457E-01;  5.1888687E+03;
  4.7940385E-01;  9.9999998E-03;  2.4009396E-01;1800; -1.9021420E-01;  0.0000000E+00;  3.0030740E-02;  1.0029853E+03;  4.0000239E-01;  2.4732065E+03;3; -4.2114738E+01;  0.0000000E+00;  6.3020635E+00;0; -7.0446575E-01;  1.0070372E+04;  0.0000000E+00;  7.3804631E-04;  1.0000000E+04;  0.0000000E+00;  9.9893555E+03; -8.1402165E-01;  0.0000000E+00;  1.0955593E-01;  5.4194536E+03;
  4.7941259E-01;  9.9999998E-03;  2.6010552E-01;1801; -1.8475020E-01;  0.0000000E+00;  3.2009829E-02;  1.0029987E+03;  4.0000269E-01;  2.4843667E+03;3; -4.6397755E+01;  0.0000000E+00;  7.5522747E+00;0; -6.9273996E-01;  1.0070979E+04;  0.0000000E+00;  1.3580321E-03;  1.0000000E+04;  0.0000000E+00;  9.9890156E+03; -8.0555964E-01;  0.0000000E+00;  1.1281970E-01;  5.5839092E+03;
  4.7942823E-01;  9.9999998E-03;  2.8011924E-01;1802; -1.7759246E-01;  0.0000000E+00;  3.3795130E-02;  1.0029933E+03;  4.0000245E-01;  2.4799224E+03;3; -5.3738235E+01;  0.0000000E+00;  9.2361526E+00;0; -6.8161476E-01;  1.0071474E+04;  0.0000000E+00;  1.6567764E-03;  1.0000000E+04;  0.0000000E+00;  9.9884160E+03; -7.9831153E-01;  0.0000000E+00;  1.1669677E-01;  5.8755669E+03;
  4.7945145E-01;  9.9999998E-03;  3.0013302E-01;1803; -1.6878723E-01;  0.0000000E+00;  3.5273850E-02;  1.0029778E+03;  4.0000251E-01;  2.4669846E+03;3; -6.3102604E+01;  0.0000000E+00;  1.1568027E+01;0; -6.7828751E-01;  1.0071869E+04;  0.0000000E+00;  6.2548340E-04;  1.0000000E+04;  0.0000000E+00;  9.9877051E+03; -7.9251307E-01;  0.0000000E+00;  1.1422559E-01;  6.2305684E+03;
  4.9934345E-01;  9.9999998E-03;  1.6006455E-01;1827; -2.1749164E-01;  0.0000000E+00;  2.1908753E-02;  1.0031692E+03;  4.0000594E-01;  2.6255945E+03;3; -4.5890480E+01;  0.0000000E+00;  3.7607684E+00;0; -7.7554667E-01;  1.0072819E+04;  0.0000000E+00;  5.0258011E-05;  1.0000000E+04;  0.0000000E+00;  9.9904170E+03; -8.9466101E-01;  0.0000000E+00;  1.1911437E-01;  4.8968862E+03;
  4.9933648E-01;  9.9999998E-03;  1.8007372E-01;1828; -2.1608956E-01;  0.0000000E+00;  2.4357894E-02;  1.0031989E+03;  4.0000612E-01;  2.6501863E+03;3; -4.4283649E+01;  0.0000000E+00;  4.0879374E+00;0; -7.6992881E-01;  1.0073748E+04;  0.0000000E+00;  6.6278822E-05;  1.0000000E+04;  0.0000000E+00;  9.9900811E+03; -8.8490051E-01;  0.0000000E+00;  1.1497173E-01;  5.0732397E+03;
  4.9933094E-01;  9.9999998E-03;  2.0008309E-01;1829; -2.1414797E-01;  0.0000000E+00;  2.6713764E-02;  1.0032236E+03;  4.0000615E-01;  2.6707288E+03;3; -4.2880836E+01;  0.0000000E+00;  4.4415393E+00;0; -7.6281512E-01;  1.0074752E+04;  0.0000000E+00;  1.4804408E-04;  1.0000000E+04;  0.0000000E+00;  9.9895801E+03; -8.7515533E-01;  0.0000000E+00;  1.1234023E-01;  5.3272764E+03;
  4.9932837E-01;  9.9999998E-03;  2.2009280E-01;1830; -2.1128786E-01;  0.0000000E+00;  2.8910683E-02;  1.0032471E+03;  4.0000606E-01;  2.6900862E+03;3; -4.2413197E+01;  0.0000000E+00;  4.8453970E+00;0; -7.5426489E-01;  1.0075792E+04;  0.0000000E+00;  4.2243444E-04;  1.0000000E+04;  0.0000000E+00;  9.9890088E+03; -8.6592072E-01;  0.0000000E+00;  1.1165585E-01;  5.6124395E+03;
  4.9933064E-01;  9.9999998E-03;  2.4010332E-01;1831; -2.0703979E-01;  0.0000000E+00;  3.0962106E-02;  1.0032759E+03;  4.0000612E-01;  2.7139866E+03;3; -4.3964031E+01;  0.0000000E+00;  5.6234775E+00;0; -7.4489951E-01;  1.0076815E+04;  0.0000000E+00;  9.9588826E-04;  1.0000000E+04;  0.0000000E+00;  9.9885713E+03; -8.5768014E-01;  0.0000000E+00;  1.1278065E-01;  5.8314771E+03;
  4.9933934E-01;  9.9999998E-03;  2.6011640E-01;1832; -2.0106775E-01;  0.0000000E+00;  3.3163618E-02;  1.0033081E+03;  4.0000609E-01;  2.7406526E+03;3; -4.8580601E+01;  0.0000000E+00;  6.9272861E+00;0; -7.3366821E-01;  1.0077767E+04;  0.0000000E+00;  1.7593831E-03;  1.0000000E+04;  0.0000000E+00;  9.9882734E+03; -8.5077697E-01;  0.0000000E+00;  1.1710875E-01;  5.9760781E+03;
  4.9935555E-01;  9.9999998E-03;  2.8013286E-01;1833; -1.9329666E-01;  0.0000000E+00;  3.5182960E-02;  1.0033097E+03;  4.0000606E-01;  2.7420352E+03;3; -5.6548500E+01;  0.0000000E+00;  8.6573133E+00;0; -7.2222722E-01;  1.0078618E+04;  0.0000000E+00;  2.0368332E-03;  1.0000000E+04;  0.0000000E+00;  9.9874482E+03; -8.4537321E-01;  0.0000000E+00;  1.2314598E-01;  6.3761055E+03;
  4.9938014E-01;  9.9999998E-03;  3.0014905E-01;1834; -1.8373480E-01;  0.0000000E+00;  3.6788724E-02;  1.0032967E+03;  4.0000600E-01;  2.7312700E+03;3; -6.6743385E+01;  0.0000000E+00;  1.1042620E+01;0; -7.2007936E-01;  1.0079362E+04;  0.0000000E+00;  4.8736110E-04;  1.0000000E+04;  0.0000000E+00;  9.9864424E+03; -8.4153652E-01;  0.0000000E+00;  1.2145714E-01;  6.8787549E+03;
  5.1926702E-01;  9.9999998E-03;  1.6007525E-01;1858; -2.3643148E-01;  0.0000000E+00;  2.2726906E-02;  1.0033795E+03;  4.0001661E-01;  2.7998074E+03;3; -4.7960220E+01;  0.0000000E+00;  2.9720571E+00;0; -8.0189276E-01;  1.0077587E+04;  0.0000000E+00;  1.0052326E-04;  1.0000000E+04;  0.0000000E+00;  9.9893262E+03; -9.2534405E-01;  0.0000000E+00;  1.2345126E-01;  5.4536465E+03;
  5.1925886E-01;  9.9999998E-03;  1.8008496E-01;1859; -2.3483606E-01;  0.0000000E+00;  2.5180267E-02;  1.0034205E+03;  4.0001652E-01;  2.8337815E+03;3; -4.6207039E+01;  0.0000000E+00;  3.1995718E+00;0; -7.9719418E-01;  1.0078633E+04;  0.0000000E+00;  1.2731546E-04;  1.0000000E+04;  0.0000000E+00;  9.9891025E+03; -9.1538912E-01;  0.0000000E+00;  1.1819494E-01;  5.5747217E+03;
  5.1925212E-01;  9.9999998E-03;  2.0009440E-01;1860; -2.3268311E-01;  0.0000000E+00;  2.7469121E-02;  1.0034570E+03;  4.0001649E-01;  2.8640027E+03;3; -4.4662086E+01;  0.0000000E+00;  3.4756801E+00;0; -7.9109514E-01;  1.0079828E+04;  0.0000000E+00;  2.5185093E-04;  1.0000000E+04;  0.0000000E+00;  9.9886436E+03; -9.0604115E-01;  0.0000000E+00;  1.1494598E-01;  5.8084751E+03;
  5.1924843E-01;  9.9999998E-03;  2.2010390E-01;1861; -2.2956152E-01;  0.0000000E+00;  2.9572494E-02;  1.0034941E+03;  4.0001649E-01;  2.8948164E+03;3; -4.4118671E+01;  0.0000000E+00;  3.8407631E+00;0; -7.8385031E-01;  1.0081134E+04;  0.0000000E+00;  6.4809807E-04;  1.0000000E+04;  0.0000000E+00;  9.9880986E+03; -8.9788169E-01;  0.0000000E+00;  1.1403139E-01;  6.0876147E+03;
  5.1924962E-01;  9.9999998E-03;  2.4011423E-01;1862; -2.2498442E-01;  0.0000000E+00;  3.1503826E-02;  1.0035450E+03;  4.0001652E-01;  2.9368892E+03;3; -4.5770004E+01;  0.0000000E+00;  4.5917811E+00;0; -7.7679002E-01;  1.0082493E+04;  0.0000000E+00;  1.4396961E-03;  1.0000000E+04;  0.0000000E+00;  9.9877646E+03; -8.9136183E-01;  0.0000000E+00;  1.1457184E-01;  6.2537324E+03;
  5.1925766E-01;  9.9999998E-03;  2.6012847E-01;1863; -2.1854818E-01;  0.0000000E+00;  3.3922471E-02;  1.0036083E+03;  4.0001640E-01;  2.9894304E+03;3; -5.0744061E+01;  0.0000000E+00;  5.9412646E+00;0; -7.6774907E-01;  1.0083829E+04;  0.0000000E+00;  2.4313643E-03;  1.0000000E+04;  0.0000000E+00;  9.9876885E+03; -8.8671732E-01;  0.0000000E+00;  1.1896823E-01;  6.2872612E+03;
  5.1927346E-01;  9.9999998E-03;  2.8014848E-01;1864; -2.1025375E-01;  0.0000000E+00;  3.6347888E-02;  1.0036217E+03;  4.0001658E-01;  3.0004919E+03;3; -5.9396496E+01;  0.0000000E+00;  7.7559152E+00;0; -7.5613236E-01;  1.0085100E+04;  0.0000000E+00;  2.6495773E-03;  1.0000000E+04;  0.0000000E+00;  9.9866865E+03; -8.8392353E-01;  0.0000000E+00;  1.2779117E-01;  6.7725659E+03;
  5.1929802E-01;  9.9999998E-03;  3.0016786E-01;1865; -2.0010747E-01;  0.0000000E+00;  3.8195271E-02;  1.0036085E+03;  4.0001655E-01;  2.9895293E+03;3; -7.0532494E+01;  0.0000000E+00;  1.0210315E+01;0; -7.5474894E-01;  1.0086250E+04;  0.0000000E+00;  3.3264130E-04;  1.0000000E+04;  0.0000000E+00;  9.9852813E+03; -8.8278699E-01;  0.0000000E+00;  1.2803802E-01;  7.4742383E+03;
  5.3918403E-01;  9.9999998E-03;  1.6008979E-01;1889; -2.5634912E-01;  0.0000000E+00;  2.3688845E-02;  1.0035379E+03;  4.0004462E-01;  2.9310571E+03;3; -4.9963436E+01;  0.0000000E+00;  1.9108591E+00;0; -8.0788678E-01;  1.0080757E+04;  0.0000000E+00;  1.5676091E-04;  1.0000000E+04;  0.0000000E+00;  9.9878975E+03; -9.3635726E-01;  0.0000000E+00;  1.2847050E-01;  6.1702729E+03;
  5.3917480E-01;  9.9999998E-03;  1.8010031E-01;1890; -2.5453949E-01;  0.0000000E+00;  2.6127791E-02;  1.0035884E+03;  4.0004438E-01;  2.9729321E+03;3; -4.8069916E+01;  0.0000000E+00;  1.9886999E+00;0; -8.0423176E-01;  1.0081883E+04;  0.0000000E+00;  1.9074480E-04;  1.0000000E+04;  0.0000000E+00;  9.9877959E+03; -9.2629296E-01;  0.0000000E+00;  1.2206118E-01;  6.2330288E+03;
  5.3916675E-01;  9.9999998E-03;  2.0010991E-01;1891; -2.5216728E-01;  0.0000000E+00;  2.8271323E-02;  1.0036342E+03;  4.0004453E-01;  3.0108567E+03;3; -4.6388329E+01;  0.0000000E+00;  2.1380458E+00;0; -7.9924458E-01;  1.0083218E+04;  0.0000000E+00;  3.9627095E-04;  1.0000000E+04;  0.0000000E+00;  9.9873809E+03; -9.1743338E-01;  0.0000000E+00;  1.1818881E-01;  6.4477202E+03;
  5.3916156E-01;  9.9999998E-03;  2.2011884E-01;1892; -2.4882261E-01;  0.0000000E+00;  3.0123107E-02;  1.0036836E+03;  4.0004453E-01;  3.0517441E+03;3; -4.5775162E+01;  0.0000000E+00;  2.4613416E+00;0; -7.9359150E-01;  1.0084746E+04;  0.0000000E+00;  1.0289440E-03;  1.0000000E+04;  0.0000000E+00;  9.9868555E+03; -9.1043854E-01;  0.0000000E+00;  1.1684704E-01;  6.7144746E+03;
  5.3916126E-01;  9.9999998E-03;  2.4012822E-01;1893; -2.4397016E-01;  0.0000000E+00;  3.1779930E-02;  1.0037595E+03;  4.0004444E-01;  3.1146555E+03;3; -4.7545113E+01;  0.0000000E+00;  3.1519339E+00;0; -7.8987724E-01;  1.0086389E+04;  0.0000000E+00;  2.2203801E-03;  1.0000000E+04;  0.0000000E+00;  9.9867383E+03; -9.0572721E-01;  0.0000000E+00;  1.1584999E-01;  6.7776973E+03;
  5.3916752E-01;  9.9999998E-03;  2.6014289E-01;1894; -2.3721036E-01;  0.0000000E+00;  3.4309849E-02;  1.0038660E+03;  4.0004447E-01;  3.2028499E+03;3; -5.2914745E+01;  0.0000000E+00;  4.5492482E+00;0; -7.8534687E-01;  1.0088077E+04;  0.0000000E+00;  3.5888120E-03;  1.0000000E+04;  0.0000000E+00;  9.9871738E+03; -9.0344650E-01;  0.0000000E+00;  1.1809960E-01;  6.5610132E+03;
  5.3918123E-01;  9.9999998E-03;  2.8016692E-01;1895; -2.2860284E-01;  0.0000000E+00;  3.7314035E-02;  1.0039006E+03;  4.0004444E-01;  3.2314910E+03;3; -6.2325249E+01;  0.0000000E+00;  6.4817648E+00;0; -7.7394927E-01;  1.0089730E+04;  0.0000000E+00;  3.6639508E-03;  1.0000000E+04;  0.0000000E+00;  9.9862168E+03; -9.0339446E-01;  0.0000000E+00;  1.2944517E-01;  7.0238296E+03;
  5.3920305E-01;  9.9999998E-03;  3.0019036E-01;1896; -2.1827632E-01;  0.0000000E+00;  3.9548144E-02;  1.0038859E+03;  4.0004447E-01;  3.2193433E+03;3; -7.4589035E+01;  0.0000000E+00;  9.0554037E+00;0; -7.7249098E-01;  1.0091265E+04;  0.0000000E+00;  2.4376431E-04;  1.0000000E+04;  0.0000000E+00;  9.9843848E+03; -9.0507364E-01;  0.0000000E+00;  1.3258266E-01;  7.9335161E+03;
  5.5909616E-01;  9.9999998E-03;  1.6010924E-01;1920; -2.7685994E-01;  0.0000000E+00;  2.4888171E-02;  1.0036592E+03;  4.0011987E-01;  3.0314905E+03;3; -5.1843109E+01;  0.0000000E+00;  5.0757277E-01;0; -7.8242821E-01;  1.0081331E+04;  0.0000000E+00;  1.6752044E-04;  1.0000000E+04;  0.0000000E+00;  9.9859336E+03; -9.1811466E-01;  0.0000000E+00;  1.3568644E-01;  7.1396782E+03;
  5.5908591E-01;  9.9999998E-03;  1.8012106E-01;1921; -2.7477008E-01;  0.0000000E+00;  2.7357157E-02;  1.0037128E+03;  4.0011963E-01;  3.0759331E+03;3; -4.9822807E+01;  0.0000000E+00;  4.1820523E-01;0; -7.7921671E-01;  1.0082441E+04;  0.0000000E+00;  2.0839182E-04;  1.0000000E+04;  0.0000000E+00;  9.9859053E+03; -9.0771246E-01;  0.0000000E+00;  1.2849574E-01;  7.1677988E+03;
  5.5907667E-01;  9.9999998E-03;  2.0013125E-01;1922; -2.7215406E-01;  0.0000000E+00;  2.9362051E-02;  1.0037601E+03;  4.0011972E-01;  3.1151416E+03;3; -4.8012157E+01;  0.0000000E+00;  4.1088030E-01;0; -7.7471066E-01;  1.0083817E+04;  0.0000000E+00;  5.8224268E-04;  1.0000000E+04;  0.0000000E+00;  9.9854902E+03; -8.9892870E-01;  0.0000000E+00;  1.2421807E-01;  7.3831089E+03;
  5.5906999E-01;  9.9999998E-03;  2.2013982E-01;1923; -2.6860508E-01;  0.0000000E+00;  3.0887078E-02;  1.0038143E+03;  4.0011978E-01;  3.1599792E+03;3; -4.7374825E+01;  0.0000000E+00;  6.1042267E-01;0; -7.7008098E-01;  1.0085420E+04;  0.0000000E+00;  1.6648610E-03;  1.0000000E+04;  0.0000000E+00;  9.9849834E+03; -8.9243364E-01;  0.0000000E+00;  1.2235265E-01;  7.6423667E+03;
  5.5906749E-01;  9.9999998E-03;  2.4014765E-01;1924; -2.6354736E-01;  0.0000000E+00;  3.2101214E-02;  1.0039120E+03;  4.0011960E-01;  3.2410627E+03;3; -4.9252640E+01;  0.0000000E+00;  1.2275792E+00;0; -7.6986653E-01;  1.0087188E+04;  0.0000000E+00;  3.5593407E-03;  1.0000000E+04;  0.0000000E+00;  9.9851787E+03; -8.8855720E-01;  0.0000000E+00;  1.1869066E-01;  7.5533438E+03;
  5.5907065E-01;  9.9999998E-03;  2.6016188E-01;1925; -2.5669393E-01;  0.0000000E+00;  3.4514662E-02;  1.0040690E+03;  4.0011957E-01;  3.3711318E+03;3; -5.5059429E+01;  0.0000000E+00;  2.6305809E+00;0; -7.7185285E-01;  1.0089043E+04;  0.0000000E+00;  5.5234279E-03;  1.0000000E+04;  0.0000000E+00;  9.9864561E+03; -8.8743049E-01;  0.0000000E+00;  1.1557762E-01;  6.9253579E+03;
  5.5908000E-01;  9.9999998E-03;  2.8018996E-01;1926; -2.4811606E-01;  0.0000000E+00;  3.8204920E-02;  1.0041364E+03;  4.0011957E-01;  3.4268335E+03;3; -6.5304543E+01;  0.0000000E+00;  4.7872224E+00;0; -7.6134789E-01;  1.0090912E+04;  0.0000000E+00;  5.2772062E-03;  1.0000000E+04;  0.0000000E+00;  9.9859316E+03; -8.8884723E-01;  0.0000000E+00;  1.2749931E-01;  7.1725874E+03;
  5.5909526E-01;  9.9999998E-03;  3.0021805E-01;1927; -2.3822802E-01;  0.0000000E+00;  4.0962487E-02;  1.0041200E+03;  4.0011954E-01;  3.4133032E+03;3; -7.8921654E+01;  0.0000000E+00;  7.5603027E+00;0; -7.5843287E-01;  1.0092677E+04;  0.0000000E+00;  3.2890087E-04;  1.0000000E+04;  0.0000000E+00;  9.9838369E+03; -8.9214808E-01;  0.0000000E+00;  1.3371523E-01;  8.2102910E+03;
  5.7900679E-01;  9.9999998E-03;  1.6013381E-01;1951; -2.9708347E-01;  0.0000000E+00;  2.6407447E-02;  1.0038594E+03;  4.0031919E-01;  3.1973999E+03;3; -5.3461189E+01;  0.0000000E+00; -1.0659237E+00;0; -7.1180797E-01;  1.0078048E+04;  0.0000000E+00;  5.5722590E-05;  1.0000000E+04;  0.0000000E+00;  9.9831992E+03; -8.5900670E-01;  0.0000000E+00;  1.4719875E-01;  8.4736865E+03;
  5.7899594E-01;  9.9999998E-03;  1.8014795E-01;1952; -2.9462510E-01;  0.0000000E+00;  2.8968321E-02;  1.0039042E+03;  4.0031934E-01;  3.2345342E+03;3; -5.1340591E+01;  0.0000000E+00; -1.4411598E+00;0; -7.0746130E-01;  1.0079015E+04;  0.0000000E+00;  1.2048725E-04;  1.0000000E+04;  0.0000000E+00;  9.9831416E+03; -8.4739065E-01;  0.0000000E+00;  1.3992935E-01;  8.5146348E+03;
  5.7898587E-01;  9.9999998E-03;  2.0015959E-01;1953; -2.9166064E-01;  0.0000000E+00;  3.0973619E-02;  1.0039396E+03;  4.0031922E-01;  3.2638662E+03;3; -4.9417545E+01;  0.0000000E+00; -1.6938663E+00;0; -7.0172518E-01;  1.0080223E+04;  0.0000000E+00;  8.0297794E-04;  1.0000000E+04;  0.0000000E+00;  9.9826611E+03; -8.3724874E-01;  0.0000000E+00;  1.3552354E-01;  8.7605898E+03;
  5.7897782E-01;  9.9999998E-03;  2.2016856E-01;1954; -2.8779542E-01;  0.0000000E+00;  3.2302462E-02;  1.0039847E+03;  4.0031907E-01;  3.3011982E+03;3; -4.8722622E+01;  0.0000000E+00; -1.6053923E+00;0; -6.9603074E-01;  1.0081627E+04;  0.0000000E+00;  2.6480418E-03;  1.0000000E+04;  0.0000000E+00;  9.9821621E+03; -8.2897174E-01;  0.0000000E+00;  1.3294104E-01;  9.0144561E+03;
  5.7897258E-01;  9.9999998E-03;  2.4017516E-01;1955; -2.8278038E-01;  0.0000000E+00;  3.2853380E-02;  1.0040906E+03;  4.0031895E-01;  3.3889971E+03;3; -5.0772747E+01;  0.0000000E+00; -1.1924118E+00;0; -6.9744152E-01;  1.0083171E+04;  0.0000000E+00;  5.7069045E-03;  1.0000000E+04;  0.0000000E+00;  9.9827383E+03; -8.2285887E-01;  0.0000000E+00;  1.2541734E-01;  8.7391973E+03;
  5.7897168E-01;  9.9999998E-03;  2.6018894E-01;1956; -2.7606240E-01;  0.0000000E+00;  3.4967836E-02;  1.0042906E+03;  4.0031892E-01;  3.5547185E+03;3; -5.7031784E+01;  0.0000000E+00;  2.4830699E-01;0; -7.0570815E-01;  1.0084812E+04;  0.0000000E+00;  8.6184097E-03;  1.0000000E+04;  0.0000000E+00;  9.9850830E+03; -8.1937772E-01;  0.0000000E+00;  1.1366956E-01;  7.5914219E+03;
  5.7897449E-01;  9.9999998E-03;  2.8022069E-01;1957; -2.6790297E-01;  0.0000000E+00;  3.9293002E-02;  1.0043936E+03;  4.0031886E-01;  3.6399497E+03;3; -6.8194489E+01;  0.0000000E+00;  2.6462209E+00;0; -6.9639361E-01;  1.0086511E+04;  0.0000000E+00;  7.8080026E-03;  1.0000000E+04;  0.0000000E+00;  9.9854287E+03; -8.1874353E-01;  0.0000000E+00;  1.2234995E-01;  7.4074541E+03;
  5.7897902E-01;  9.9999998E-03;  3.0025327E-01;1958; -2.5912607E-01;  0.0000000E+00;  4.2676166E-02;  1.0043769E+03;  4.0031865E-01;  3.6261230E+03;3; -8.3383743E+01;  0.0000000E+00;  5.7663546E+00;0; -6.8952632E-01;  1.0088162E+04;  0.0000000E+00;  8.4249879E-04;  1.0000000E+04;  0.0000000E+00;  9.9834404E+03; -8.2048333E-01;  0.0000000E+00;  1.3095699E-01;  8.3868184E+03;
  5.9892130E-01;  9.9999998E-03;  1.6016285E-01;1982; -3.1584033E-01;  0.0000000E+00;  2.7999753E-02;  1.0044937E+03;  4.0082639E-01;  3.7228926E+03;3; -5.4767506E+01;  0.0000000E+00; -3.0805132E+00;0; -5.7516122E-01;  1.0069109E+04;  0.0000000E+00; -2.4865477E-04;  1.0000000E+04;  0.0000000E+00;  9.9794639E+03; -7.4024314E-01;  0.0000000E+00;  1.6508190E-01;  1.0271747E+04;
  5.9890974E-01;  9.9999998E-03;  1.8017951E-01;1983; -3.1292716E-01;  0.0000000E+00;  3.0780487E-02;  1.0045131E+03;  4.0082607E-01;  3.7389907E+03;3; -5.2388668E+01;  0.0000000E+00; -3.5801146E+00;0; -5.6714571E-01;  1.0069704E+04;  0.0000000E+00; -1.3447730E-04;  1.0000000E+04;  0.0000000E+00;  9.9792813E+03; -7.2542572E-01;  0.0000000E+00;  1.5828000E-01;  1.0372760E+04;
  5.9889895E-01;  9.9999998E-03;  2.0019357E-01;1984; -3.0958840E-01;  0.0000000E+00;  3.2821592E-02;  1.0045193E+03;  4.0082592E-01;  3.7441262E+03;3; -5.0374756E+01;  0.0000000E+00; -4.0201631E+00;0; -5.5729842E-01;  1.0070419E+04;  0.0000000E+00;  1.0420217E-03;  1.0000000E+04;  0.0000000E+00;  9.9787119E+03; -7.1073997E-01;  0.0000000E+00;  1.5344155E-01;  1.0660742E+04;
  5.9888965E-01;  9.9999998E-03;  2.2020449E-01;1985; -3.0551490E-01;  0.0000000E+00;  3.3963341E-02;  1.0045356E+03;  4.0082586E-01;  3.7575579E+03;3; -4.9741066E+01;  0.0000000E+00; -4.2586765E+00;0; -5.4736108E-01;  1.0071184E+04;  0.0000000E+00;  4.1103470E-03;  1.0000000E+04;  0.0000000E+00;  9.9782832E+03; -6.9626534E-01;  0.0000000E+00;  1.4890426E-01;  1.0878741E+04;
  5.9888250E-01;  9.9999998E-03;  2.4021292E-01;1986; -3.0034021E-01;  0.0000000E+00;  3.4460094E-02;  1.0046258E+03;  4.0082550E-01;  3.8323198E+03;3; -5.2032005E+01;  0.0000000E+00; -4.0971460E+00;0; -5.4604667E-01;  1.0071985E+04;  0.0000000E+00;  9.0404693E-03;  1.0000000E+04;  0.0000000E+00;  9.9792900E+03; -6.8271571E-01;  0.0000000E+00;  1.3666905E-01;  1.0392183E+04;
  5.9887755E-01;  9.9999998E-03;  2.6022956E-01;1987; -2.9379314E-01;  0.0000000E+00;  3.6547232E-02;  1.0048295E+03;  4.0082514E-01;  4.0011023E+03;3; -5.8681286E+01;  0.0000000E+00; -2.6712325E+00;0; -5.5504209E-01;  1.0072858E+04;  0.0000000E+00;  1.3478282E-02;  1.0000000E+04;  0.0000000E+00;  9.9824609E+03; -6.7138332E-01;  0.0000000E+00;  1.1634126E-01;  8.8429854E+03;
  5.9887248E-01;  9.9999998E-03;  2.8026426E-01;1988; -2.8644636E-01;  0.0000000E+00;  4.1181561E-02;  1.0049473E+03;  4.0082479E-01;  4.0986782E+03;3; -7.0742821E+01;  0.0000000E+00;  8.6700886E-02;0; -5.4568136E-01;  1.0073834E+04;  0.0000000E+00;  1.1843403E-02;  1.0000000E+04;  0.0000000E+00;  9.9838242E+03; -6.6325712E-01;  0.0000000E+00;  1.1757578E-01;  8.1587666E+03;
  5.9886414E-01;  9.9999998E-03;  3.0029997E-01;1989; -2.7927130E-01;  0.0000000E+00;  4.5138709E-02;  1.0049279E+03;  4.0082443E-01;  4.0825801E+03;3; -8.7499001E+01;  0.0000000E+00;  3.6222122E+00;0; -5.3099686E-01;  1.0074852E+04;  0.0000000E+00;  2.1590609E-03;  1.0000000E+04;  0.0000000E+00;  9.9824238E+03; -6.5828174E-01;  0.0000000E+00;  1.2728488E-01;  8.8390303E+03;
  6.1884511E-01;  9.9999998E-03;  1.6019528E-01;2013; -3.3195555E-01;  0.0000000E+00;  2.9196188E-02;  1.0062971E+03;  4.0199083E-01;  5.2169170E+03;3; -5.5596504E+01;  0.0000000E+00; -5.4529405E+00;0; -3.3946335E-01;  1.0051903E+04;  0.0000000E+00; -7.6207251E-04;  1.0000000E+04;  0.0000000E+00;  9.9746309E+03; -5.2998006E-01;  0.0000000E+00;  1.9051673E-01;  1.2573497E+04;
  6.1883247E-01;  9.9999998E-03;  1.8021458E-01;2014; -3.2874113E-01;  0.0000000E+00;  3.2176483E-02;  1.0062753E+03;  4.0199009E-01;  5.1988442E+03;3; -5.3097900E+01;  0.0000000E+00; -6.1600037E+00;0; -3.2513344E-01;  1.0051837E+04;  0.0000000E+00; -5.3007435E-04;  1.0000000E+04;  0.0000000E+00;  9.9742910E+03; -5.0905645E-01;  0.0000000E+00;  1.8392302E-01;  1.2748465E+04;
  6.1882019E-01;  9.9999998E-03;  2.0023179E-01;2015; -3.2523474E-01;  0.0000000E+00;  3.4367353E-02;  1.0062346E+03;  4.0198967E-01;  5.1650679E+03;3; -5.1005405E+01;  0.0000000E+00; -6.9107447E+00;0; -3.0849046E-01;  1.0051649E+04;  0.0000000E+00;  1.4359889E-03;  1.0000000E+04;  0.0000000E+00;  9.9737070E+03; -4.8574492E-01;  0.0000000E+00;  1.7725447E-01;  1.3043385E+04;
  6.1880964E-01;  9.9999998E-03;  2.2024763E-01;2016; -3.2094321E-01;  0.0000000E+00;  3.5896670E-02;  1.0062048E+03;  4.0198928E-01;  5.1403779E+03;3; -5.0381371E+01;  0.0000000E+00; -7.4514780E+00;0; -2.9167348E-01;  1.0051285E+04;  0.0000000E+00;  6.3594286E-03;  1.0000000E+04;  0.0000000E+00;  9.9735039E+03; -4.6018025E-01;  0.0000000E+00;  1.6850676E-01;  1.3149342E+04;
  6.1879981E-01;  9.9999998E-03;  2.4026214E-01;2017; -3.1579888E-01;  0.0000000E+00;  3.6916770E-02;  1.0062552E+03;  4.0198857E-01;  5.1822524E+03;3; -5.2875225E+01;  0.0000000E+00; -7.3301716E+00;0; -2.8435209E-01;  1.0050797E+04;  0.0000000E+00;  1.3970581E-02;  1.0000000E+04;  0.0000000E+00;  9.9750000E+03; -4.3394670E-01;  0.0000000E+00;  1.4959460E-01;  1.2422954E+04;
  6.1879176E-01;  9.9999998E-03;  2.6028779E-01;2018; -3.0939499E-01;  0.0000000E+00;  4.0009700E-02;  1.0063987E+03;  4.0198785E-01;  5.3011597E+03;3; -6.0083832E+01;  0.0000000E+00; -6.0356126E+00;0; -2.8414088E-01;  1.0050344E+04;  0.0000000E+00;  2.0386005E-02;  1.0000000E+04;  0.0000000E+00;  9.9783066E+03; -4.0934101E-01;  0.0000000E+00;  1.2520011E-01;  1.0803203E+04;
  6.1878264E-01;  9.9999998E-03;  2.8032839E-01;2019; -3.0233282E-01;  0.0000000E+00;  4.4783540E-02;  1.0064419E+03;  4.0198699E-01;  5.3369111E+03;3; -7.2991066E+01;  0.0000000E+00; -2.9357102E+00;0; -2.6846650E-01;  1.0050030E+04;  0.0000000E+00;  1.7714977E-02;  1.0000000E+04;  0.0000000E+00;  9.9794707E+03; -3.8814011E-01;  0.0000000E+00;  1.1967361E-01;  1.0219529E+04;
  6.1876363E-01;  9.9999998E-03;  3.0036405E-01;2020; -2.9638097E-01;  0.0000000E+00;  4.9113426E-02;  1.0064078E+03;  4.0198606E-01;  5.3085674E+03;3; -9.1011513E+01;  0.0000000E+00;  1.5630406E+00;0; -2.4052630E-01;  1.0049851E+04;  0.0000000E+00;  4.4256588E-03;  1.0000000E+04;  0.0000000E+00;  9.9790195E+03; -3.7075514E-01;  0.0000000E+00;  1.3022883E-01;  1.0418976E+04;
  6.3878167E-01;  9.9999998E-03;  1.6022971E-01;2044; -3.4469485E-01;  0.0000000E+00;  2.9751064E-02;  1.0099479E+03;  4.0413868E-01;  8.2413877E+03;3; -5.5967102E+01;  0.0000000E+00; -8.1697359E+00;0;  3.3150300E-02;  1.0023701E+04;  0.0000000E+00; -1.2869484E-03;  1.0000000E+04;  0.0000000E+00;  9.9688018E+03; -1.8987632E-01;  0.0000000E+00;  2.2302662E-01;  1.5314295E+04;
  6.3876826E-01;  9.9999998E-03;  1.8025284E-01;2045; -3.4123117E-01;  0.0000000E+00;  3.2968786E-02;  1.0098759E+03;  4.0413803E-01;  8.1817363E+03;3; -5.3358833E+01;  0.0000000E+00; -9.1877079E+00;0;  5.4258645E-02;  1.0022706E+04;  0.0000000E+00; -7.3799910E-04;  1.0000000E+04;  0.0000000E+00;  9.9684072E+03; -1.6083252E-01;  0.0000000E+00;  2.1509117E-01;  1.5515397E+04;
  6.3875395E-01;  9.9999998E-03;  2.0027500E-01;2046; -3.3770254E-01;  0.0000000E+00;  3.5752639E-02;  1.0097818E+03;  4.0413710E-01;  8.1038164E+03;3; -5.1278130E+01;  0.0000000E+00; -1.0195779E+01;0;  7.7287346E-02;  1.0021306E+04;  0.0000000E+00;  2.4157262E-03;  1.0000000E+04;  0.0000000E+00;  9.9680000E+03; -1.2661867E-01;  0.0000000E+00;  2.0390601E-01;  1.5722611E+04;
  6.3874084E-01;  9.9999998E-03;  2.2029948E-01;2047; -3.3366442E-01;  0.0000000E+00;  3.8452629E-02;  1.0097006E+03;  4.0413639E-01;  8.0364624E+03;3; -5.0699223E+01;  0.0000000E+00; -1.0884504E+01;0;  9.9987186E-02;  1.0019469E+04;  0.0000000E+00;  9.7107524E-03;  1.0000000E+04;  0.0000000E+00;  9.9682578E+03; -8.7744482E-02;  0.0000000E+00;  1.8773167E-01;  1.5602563E+04;
  6.3873011E-01;  9.9999998E-03;  2.4033216E-01;2048; -3.2854033E-01;  0.0000000E+00;  4.1762155E-02;  1.0096677E+03;  4.0413535E-01;  8.0093037E+03;3; -5.3434647E+01;  0.0000000E+00; -1.0968059E+01;0;  1.1775281E-01;  1.0017369E+04;  0.0000000E+00;  2.0275516E-02;  1.0000000E+04;  0.0000000E+00;  9.9697334E+03; -4.6567313E-02;  0.0000000E+00;  1.6432013E-01;  1.4885017E+04;
  6.3872164E-01;  9.9999998E-03;  2.6037562E-01;2049; -3.2201767E-01;  0.0000000E+00;  4.6764120E-02;  1.0096353E+03;  4.0413442E-01;  7.9823423E+03;3; -6.1106869E+01;  0.0000000E+00; -9.5536137E+00;0;  1.3983603E-01;  1.0015235E+04;  0.0000000E+00;  2.8304843E-02;  1.0000000E+04;  0.0000000E+00;  9.9712246E+03; -6.0942220E-03;  0.0000000E+00;  1.4593025E-01;  1.4150542E+04;
  6.3871104E-01;  9.9999998E-03;  2.8041759E-01;2050; -3.1484500E-01;  0.0000000E+00;  5.0906211E-02;  1.0095363E+03;  4.0413329E-01;  7.9003716E+03;3; -7.4618439E+01;  0.0000000E+00; -6.1063280E+00;0;  1.6764161E-01;  1.0013241E+04;  0.0000000E+00;  2.3763496E-02;  1.0000000E+04;  0.0000000E+00;  9.9712695E+03;  3.1399403E-02;  0.0000000E+00;  1.3624221E-01;  1.4119090E+04;
  6.3868970E-01;  9.9999998E-03;  3.0044967E-01;2051; -3.0875921E-01;  0.0000000E+00;  5.5328194E-02;  1.0094529E+03;  4.0413141E-01;  7.8313389E+03;3; -9.3374672E+01;  0.0000000E+00; -4.0376562E-01;0;  2.1807283E-01;  1.0011438E+04;  0.0000000E+00;  6.7139179E-03;  1.0000000E+04;  0.0000000E+00;  9.9715049E+03;  6.5116689E-02;  0.0000000E+00;  1.5295614E-01;  1.3954859E+04;
  6.5873575E-01;  9.9999998E-03;  1.6026902E-01;2075; -3.5353398E-01;  0.0000000E+00;  2.9847296E-02;  1.0143870E+03;  4.0686929E-01;  1.1918868E+04;3; -5.5964191E+01;  0.0000000E+00; -1.1357698E+01;0;  5.6485999E-01;  9.9832012E+03;  0.0000000E+00; -1.3382999E-03;  1.0000000E+04;  0.0000000E+00;  9.9623633E+03;  3.0483592E-01;  0.0000000E+00;  2.6002407E-01;  1.8304664E+04;
  6.5872246E-01;  9.9999998E-03;  1.8029857E-01;2076; -3.4980777E-01;  0.0000000E+00;  3.4008395E-02;  1.0142735E+03;  4.0686852E-01;  1.1824851E+04;3; -5.3388588E+01;  0.0000000E+00; -1.2688597E+01;0;  5.8829212E-01;  9.9812119E+03;  0.0000000E+00; -1.5251507E-04;  1.0000000E+04;  0.0000000E+00;  9.9621553E+03;  3.4044865E-01;  0.0000000E+00;  2.4784344E-01;  1.8413840E+04;
  6.5870851E-01;  9.9999998E-03;  2.0033188E-01;2077; -3.4582400E-01;  0.0000000E+00;  3.8565375E-02;  1.0141391E+03;  4.0686810E-01;  1.1713451E+04;3; -5.1228958E+01;  0.0000000E+00; -1.3951205E+01;0;  6.1181104E-01;  9.9785723E+03;  0.0000000E+00;  4.4145440E-03;  1.0000000E+04;  0.0000000E+00;  9.9621807E+03;  3.8299283E-01;  0.0000000E+00;  2.2881821E-01;  1.8408559E+04;
  6.5869677E-01;  9.9999998E-03;  2.2037713E-01;2078; -3.4114128E-01;  0.0000000E+00;  4.4543367E-02;  1.0140043E+03;  4.0686750E-01;  1.1601854E+04;3; -5.0681335E+01;  0.0000000E+00; -1.4829816E+01;0;  6.3658231E-01;  9.9753271E+03;  0.0000000E+00;  1.3852640E-02;  1.0000000E+04;  0.0000000E+00;  9.9627949E+03;  4.3172419E-01;  0.0000000E+00;  2.0485811E-01;  1.8115260E+04;
  6.5868932E-01;  9.9999998E-03;  2.4043903E-01;2079; -3.3519486E-01;  0.0000000E+00;  5.2370403E-02;  1.0138292E+03;  4.0686709E-01;  1.1456777E+04;3; -5.3499271E+01;  0.0000000E+00; -1.4787131E+01;0;  6.7143011E-01;  9.9716797E+03;  0.0000000E+00;  2.6338903E-02;  1.0000000E+04;  0.0000000E+00;  9.9629814E+03;  4.8423108E-01;  0.0000000E+00;  1.8719900E-01;  1.8021738E+04;
  6.5868163E-01;  9.9999998E-03;  2.6049292E-01;2080; -3.2838586E-01;  0.0000000E+00;  5.7518143E-02;  1.0135674E+03;  4.0686697E-01;  1.1239903E+04;3; -6.1524853E+01;  0.0000000E+00; -1.2890092E+01;0;  7.1706372E-01;  9.9679160E+03;  0.0000000E+00;  3.4178298E-02;  1.0000000E+04;  0.0000000E+00;  9.9615762E+03;  5.3755605E-01;  0.0000000E+00;  1.7950766E-01;  1.8708982E+04;
  6.5867054E-01;  9.9999998E-03;  2.8052482E-01;2081; -3.2117838E-01;  0.0000000E+00;  5.9649095E-02;  1.0133437E+03;  4.0686643E-01;  1.1054534E+04;3; -7.5475639E+01;  0.0000000E+00; -9.2864933E+00;0;  7.5597495E-01;  9.9642314E+03;  0.0000000E+00;  2.6329499E-02;  1.0000000E+04;  0.0000000E+00;  9.9608574E+03;  5.8949947E-01;  0.0000000E+00;  1.6647549E-01;  1.9053213E+04;
  6.5865237E-01;  9.9999998E-03;  3.0054957E-01;2082; -3.1349251E-01;  0.0000000E+00;  6.3302703E-02;  1.0132112E+03;  4.0686467E-01;  1.0944814E+04;3; -9.3516106E+01;  0.0000000E+00; -1.6727966E+00;0;  8.2165933E-01;  9.9607441E+03;  0.0000000E+00;  6.0297800E-03;  1.0000000E+04;  0.0000000E+00;  9.9618125E+03;  6.3838822E-01;  0.0000000E+00;  1.8327108E-01;  1.8518357E+04;
  6.7871869E-01;  9.9999998E-03;  1.6032781E-01;2106; -3.5642487E-01;  0.0000000E+00;  3.2972295E-02;  1.0169758E+03;  4.0907699E-01;  1.4063304E+04;3; -5.5705368E+01;  0.0000000E+00; -1.5267271E+01;0;  1.2367833E+00;  9.9324043E+03;  0.0000000E+00; -5.4471917E-04;  1.0000000E+04;  0.0000000E+00;  9.9559199E+03;  9.3979925E-01;  0.0000000E+00;  2.9698396E-01;  2.1252771E+04;
  6.7870659E-01;  9.9999998E-03;  1.8036716E-01;2107; -3.5208398E-01;  0.0000000E+00;  3.9131820E-02;  1.0168504E+03;  4.0907708E-01;  1.3959411E+04;3; -5.2997356E+01;  0.0000000E+00; -1.6525280E+01;0;  1.2521722E+00;  9.9296484E+03;  0.0000000E+00;  1.4273558E-03;  1.0000000E+04;  0.0000000E+00;  9.9562275E+03;  9.7507954E-01;  0.0000000E+00;  2.7709275E-01;  2.1109260E+04;
  6.7869443E-01;  9.9999998E-03;  2.0041560E-01;2108; -3.4743381E-01;  0.0000000E+00;  4.6596039E-02;  1.0167080E+03;  4.0907726E-01;  1.3841496E+04;3; -5.0703655E+01;  0.0000000E+00; -1.7642885E+01;0;  1.2646846E+00;  9.9261748E+03;  0.0000000E+00;  6.9826711E-03;  1.0000000E+04;  0.0000000E+00;  9.9569219E+03;  1.0168418E+00;  0.0000000E+00;  2.4784280E-01;  2.0782305E+04;
  6.7868716E-01;  9.9999998E-03;  2.2048491E-01;2109; -3.4143224E-01;  0.0000000E+00;  5.6829263E-02;  1.0165377E+03;  4.0907753E-01;  1.3700372E+04;3; -4.9974731E+01;  0.0000000E+00; -1.8378653E+01;0;  1.2831117E+00;  9.9220508E+03;  0.0000000E+00;  1.7074600E-02;  1.0000000E+04;  0.0000000E+00;  9.9576982E+03;  1.0647326E+00;  0.0000000E+00;  2.1837914E-01;  2.0408902E+04;
  6.7868614E-01;  9.9999998E-03;  2.4056616E-01;2110; -3.3375475E-01;  0.0000000E+00;  6.6475235E-02;  1.0162368E+03;  4.0907851E-01;  1.3451109E+04;3; -5.2488892E+01;  0.0000000E+00; -1.8433764E+01;0;  1.3251098E+00;  9.9174707E+03;  0.0000000E+00;  2.8876878E-02;  1.0000000E+04;  0.0000000E+00;  9.9563457E+03;  1.1173841E+00;  0.0000000E+00;  2.0772576E-01;  2.1071344E+04;
  6.7867947E-01;  9.9999998E-03;  2.6060864E-01;2111; -3.2662800E-01;  0.0000000E+00;  6.8372495E-02;  1.0158688E+03;  4.0907970E-01;  1.3146246E+04;3; -6.0187531E+01;  0.0000000E+00; -1.6656605E+01;0;  1.3710612E+00;  9.9126621E+03;  0.0000000E+00;  3.3513345E-02;  1.0000000E+04;  0.0000000E+00;  9.9538828E+03;  1.1728554E+00;  0.0000000E+00;  1.9820587E-01;  2.2279400E+04;
  6.7867225E-01;  9.9999998E-03;  2.8062457E-01;2112; -3.1761363E-01;  0.0000000E+00;  6.7829072E-02;  1.0156231E+03;  4.0908006E-01;  1.2942708E+04;3; -7.3573730E+01;  0.0000000E+00; -1.2249053E+01;0;  1.4058666E+00;  9.9078223E+03;  0.0000000E+00;  2.1262873E-02;  1.0000000E+04;  0.0000000E+00;  9.9538818E+03;  1.2295825E+00;  0.0000000E+00;  1.7628407E-01;  2.2271752E+04;
  6.7867565E-01;  9.9999998E-03;  3.0064067E-01;2113; -3.0331099E-01;  0.0000000E+00;  7.1217291E-02;  1.0154947E+03;  4.0907967E-01;  1.2836347E+04;3; -8.7664940E+01;  0.0000000E+00; -9.7673035E-01;0;  1.4818208E+00;  9.9032266E+03;  0.0000000E+00;  1.5159821E-03;  1.0000000E+04;  0.0000000E+00;  9.9559727E+03;  1.2839652E+00;  0.0000000E+00;  1.9785556E-01;  2.1151305E+04;
  6.9875300E-01;  9.9999998E-03;  1.6042109E-01;2137; -3.4857586E-01;  0.0000000E+00;  4.5211963E-02;  1.0169203E+03;  4.1030008E-01;  1.4017105E+04;3; -5.4571690E+01;  0.0000000E+00; -1.8948481E+01;0;  1.9716752E+00;  9.8776689E+03;  0.0000000E+00;  6.7934016E-04;  1.0000000E+04;  0.0000000E+00;  9.9501816E+03;  1.6430925E+00;  0.0000000E+00;  3.2858270E-01;  2.3835311E+04;
  6.9874531E-01;  9.9999998E-03;  1.8047410E-01;2138; -3.4230468E-01;  0.0000000E+00;  5.4953068E-02;  1.0168228E+03;  4.1030085E-01;  1.3936324E+04;3; -5.1216568E+01;  0.0000000E+00; -1.9629511E+01;0;  1.9653732E+00;  9.8746475E+03;  0.0000000E+00;  3.0475506E-03;  1.0000000E+04;  0.0000000E+00;  9.9512969E+03;  1.6666052E+00;  0.0000000E+00;  2.9876789E-01;  2.3302762E+04;
  6.9873887E-01;  9.9999998E-03;  2.0053855E-01;2139; -3.3535424E-01;  0.0000000E+00;  6.6221356E-02;  1.0167109E+03;  4.1030157E-01;  1.3843593E+04;3; -4.7990322E+01;  0.0000000E+00; -2.0209877E+01;0;  1.9542297E+00;  9.8710840E+03;  0.0000000E+00;  8.4005166E-03;  1.0000000E+04;  0.0000000E+00;  9.9526719E+03;  1.6934087E+00;  0.0000000E+00;  2.6082098E-01;  2.2645328E+04;
  6.9874024E-01;  9.9999998E-03;  2.2061898E-01;2140; -3.2645407E-01;  0.0000000E+00;  7.7218138E-02;  1.0165385E+03;  4.1030252E-01;  1.3700793E+04;3; -4.6498039E+01;  0.0000000E+00; -2.1357380E+01;0;  1.9555765E+00;  9.8670400E+03;  0.0000000E+00;  1.7028820E-02;  1.0000000E+04;  0.0000000E+00;  9.9533311E+03;  1.7240025E+00;  0.0000000E+00;  2.3157401E-01;  2.2329279E+04;
  6.9874567E-01;  9.9999998E-03;  2.4068742E-01;2141; -3.1841964E-01;  0.0000000E+00;  8.0752343E-02;  1.0162165E+03;  4.1030437E-01;  1.3434055E+04;3; -4.9275940E+01;  0.0000000E+00; -2.2335705E+01;0;  1.9774274E+00;  9.8626221E+03;  0.0000000E+00;  2.5678232E-02;  1.0000000E+04;  0.0000000E+00;  9.9514014E+03;  1.7588189E+00;  0.0000000E+00;  2.1860848E-01;  2.3281307E+04;
  6.9874072E-01;  9.9999998E-03;  2.6070273E-01;2142; -3.1088829E-01;  0.0000000E+00;  7.6522805E-02;  1.0159081E+03;  4.1030616E-01;  1.3178575E+04;3; -5.5220680E+01;  0.0000000E+00; -2.0256031E+01;0;  1.9892685E+00;  9.8579639E+03;  0.0000000E+00;  2.5630629E-02;  1.0000000E+04;  0.0000000E+00;  9.9499756E+03;  1.7977455E+00;  0.0000000E+00;  1.9152313E-01;  2.3995787E+04;
  6.9876891E-01;  9.9999998E-03;  2.8070241E-01;2143; -2.8934333E-01;  0.0000000E+00;  7.3379613E-02;  1.0157656E+03;  4.1030717E-01;  1.3060465E+04;3; -6.1323357E+01;  0.0000000E+00; -1.6167568E+01;0;  1.9978898E+00;  9.8532432E+03;  0.0000000E+00;  1.4288290E-02;  1.0000000E+04;  0.0000000E+00;  9.9518574E+03;  1.8399051E+00;  0.0000000E+00;  1.5798467E-01;  2.3059256E+04;
  6.9887984E-01;  9.9999998E-03;  3.0071399E-01;2144; -2.4484511E-01;  0.0000000E+00;  7.6271951E-02;  1.0156907E+03;  4.1030815E-01;  1.2998443E+04;3; -6.3059395E+01;  0.0000000E+00; -3.8941729E+00;0;  2.0579360E+00;  9.8489141E+03;  0.0000000E+00;  1.1834979E-02;  1.0000000E+04;  0.0000000E+00;  9.9546064E+03;  1.8796794E+00;  0.0000000E+00;  1.7825645E-01;  2.1617176E+04;
  7.1891969E-01;  9.9999998E-03;  1.6055584E-01;2168; -3.0832842E-01;  0.0000000E+00;  7.7639520E-02;  1.0155228E+03;  4.1084203E-01;  1.2859054E+04;3; -4.6232777E+01;  0.0000000E+00; -1.8814486E+01;0;  2.6407251E+00;  9.8288965E+03;  0.0000000E+00;  1.3392083E-03;  1.0000000E+04;  0.0000000E+00;  9.9457480E+03;  2.2898281E+00;  0.0000000E+00;  3.5089698E-01;  2.5803225E+04;
  7.1891475E-01;  9.9999998E-03;  1.8061671E-01;2169; -3.0024263E-01;  0.0000000E+00;  8.7868482E-02;  1.0154877E+03;  4.1084304E-01;  1.2829922E+04;3; -4.1812622E+01;  0.0000000E+00; -2.0944397E+01;0;  2.6019149E+00;  9.8262275E+03;  0.0000000E+00;  3.2958265E-03;  1.0000000E+04;  0.0000000E+00;  9.9477256E+03;  2.2894130E+00;  0.0000000E+00;  3.1250185E-01;  2.4850525E+04;
  7.1891350E-01;  9.9999998E-03;  2.0068084E-01;2170; -2.9123199E-01;  0.0000000E+00;  9.3402281E-02;  1.0154404E+03;  4.1084394E-01;  1.2790717E+04;3; -3.8199547E+01;  0.0000000E+00; -2.5426765E+01;0;  2.5564916E+00;  9.8234111E+03;  0.0000000E+00;  7.1846200E-03;  1.0000000E+04;  0.0000000E+00;  9.9496230E+03;  2.2867200E+00;  0.0000000E+00;  2.6977167E-01;  2.3941252E+04;
  7.1892059E-01;  9.9999998E-03;  2.2073661E-01;2171; -2.8149691E-01;  0.0000000E+00;  9.3172140E-02;  1.0153353E+03;  4.1084492E-01;  1.2703716E+04;3; -3.6281853E+01;  0.0000000E+00; -2.8077148E+01;0;  2.5191209E+00;  9.8205488E+03;  0.0000000E+00;  1.3064300E-02;  1.0000000E+04;  0.0000000E+00;  9.9504150E+03;  2.2827256E+00;  0.0000000E+00;  2.3639543E-01;  2.3567586E+04;
  7.1895134E-01;  9.9999998E-03;  2.4077109E-01;2172; -2.6507294E-01;  0.0000000E+00;  8.8251039E-02;  1.0151267E+03;  4.1084665E-01;  1.2530899E+04;3; -3.5128204E+01;  0.0000000E+00; -2.8036427E+01;0;  2.4918077E+00;  9.8176572E+03;  0.0000000E+00;  1.9057248E-02;  1.0000000E+04;  0.0000000E+00;  9.9491904E+03;  2.2799180E+00;  0.0000000E+00;  2.1188973E-01;  2.4188363E+04;
  7.1902043E-01;  9.9999998E-03;  2.6076442E-01;2173; -2.3482628E-01;  0.0000000E+00;  7.9984426E-02;  1.0150056E+03;  4.1084865E-01;  1.2430563E+04;3; -3.4534851E+01;  0.0000000E+00; -2.5661137E+01;0;  2.4450490E+00;  9.8147402E+03;  0.0000000E+00;  2.3406966E-02;  1.0000000E+04;  0.0000000E+00;  9.9496572E+03;  2.2799466E+00;  0.0000000E+00;  1.6510248E-01;  2.3992504E+04;
  7.1912658E-01;  9.9999998E-03;  2.8075650E-01;2174; -1.9397949E-01;  0.0000000E+00;  7.6974981E-02;  1.0150622E+03;  4.1084921E-01;  1.2477471E+04;3; -3.4249840E+01;  0.0000000E+00; -1.9373718E+01;0;  2.4090793E+00;  9.8119727E+03;  0.0000000E+00;  2.6852777E-02;  1.0000000E+04;  0.0000000E+00;  9.9534639E+03;  2.2812529E+00;  0.0000000E+00;  1.2782654E-01;  2.2110912E+04;
  7.1924716E-01;  9.9999998E-03;  3.0076829E-01;2175; -1.5416345E-01;  0.0000000E+00;  8.0036730E-02;  1.0150836E+03;  4.1084942E-01;  1.2495146E+04;3; -3.4440395E+01;  0.0000000E+00; -6.8855829E+00;0;  2.4404864E+00;  9.8097002E+03;  0.0000000E+00;  2.1506403E-02;  1.0000000E+04;  0.0000000E+00;  9.9560938E+03;  2.2800713E+00;  0.0000000E+00;  1.6041511E-01;  2.0721053E+04;
  7.3929751E-01;  9.9999998E-03;  1.6058038E-01;2199; -1.9980128E-01;  0.0000000E+00;  7.4237555E-02;  1.0142062E+03;  4.1105813E-01;  1.1767999E+04;3; -2.7568943E+01;  0.0000000E+00; -2.4538355E+01;0;  3.1038043E+00;  9.7960840E+03;  0.0000000E+00;  1.0757078E-03;  1.0000000E+04;  0.0000000E+00;  9.9428369E+03;  2.7401271E+00;  0.0000000E+00;  3.6367726E-01;  2.7080307E+04;
  7.3929745E-01;  9.9999998E-03;  1.8063995E-01;2200; -1.9272935E-01;  0.0000000E+00;  8.4691912E-02;  1.0142540E+03;  4.1105875E-01;  1.1807498E+04;3; -2.4271166E+01;  0.0000000E+00; -2.5574511E+01;0;  3.0287056E+00;  9.7942178E+03;  0.0000000E+00;  2.1045320E-03;  1.0000000E+04;  0.0000000E+00;  9.9456201E+03;  2.7097270E+00;  0.0000000E+00;  3.1897846E-01;  2.5736357E+04;
  7.3930073E-01;  9.9999998E-03;  2.0070186E-01;2201; -1.8503316E-01;  0.0000000E+00;  9.1035545E-02;  1.0143226E+03;  4.1105971E-01;  1.1864378E+04;3; -2.1299692E+01;  0.0000000E+00; -3.0390125E+01;0;  2.9383564E+00;  9.7927393E+03;  0.0000000E+00;  4.1742516E-03;  1.0000000E+04;  0.0000000E+00;  9.9484395E+03;  2.6704211E+00;  0.0000000E+00;  2.6793516E-01;  2.4385320E+04;
  7.3931497E-01;  9.9999998E-03;  2.2075179E-01;2202; -1.7467362E-01;  0.0000000E+00;  8.9615524E-02;  1.0143805E+03;  4.1106045E-01;  1.1912271E+04;3; -1.9136480E+01;  0.0000000E+00; -3.2813679E+01;0;  2.8451884E+00;  9.7917969E+03;  0.0000000E+00;  7.6978318E-03;  1.0000000E+04;  0.0000000E+00;  9.9504971E+03;  2.6232419E+00;  0.0000000E+00;  2.2194648E-01;  2.3407803E+04;
  7.3934877E-01;  9.9999998E-03;  2.4078256E-01;2203; -1.5917148E-01;  0.0000000E+00;  8.5131116E-02;  1.0144031E+03;  4.1106156E-01;  1.1931032E+04;3; -1.7952051E+01;  0.0000000E+00; -3.2110165E+01;0;  2.7521074E+00;  9.7913926E+03;  0.0000000E+00;  1.2522175E-02;  1.0000000E+04;  0.0000000E+00;  9.9512930E+03;  2.5711353E+00;  0.0000000E+00;  1.8097201E-01;  2.3051709E+04;
  7.3940247E-01;  9.9999998E-03;  2.6078433E-01;2204; -1.3821192E-01;  0.0000000E+00;  7.9755180E-02;  1.0145109E+03;  4.1106260E-01;  1.2020301E+04;3; -1.7472956E+01;  0.0000000E+00; -2.9444572E+01;0;  2.6496289E+00;  9.7913916E+03;  0.0000000E+00;  1.7592238E-02;  1.0000000E+04;  0.0000000E+00;  9.9533418E+03;  2.5176210E+00;  0.0000000E+00;  1.3200785E-01;  2.2082859E+04;
  7.3947203E-01;  9.9999998E-03;  2.8079173E-01;2205; -1.1322436E-01;  0.0000000E+00;  7.7653676E-02;  1.0146566E+03;  4.1106254E-01;  1.2141067E+04;3; -1.7540476E+01;  0.0000000E+00; -2.2279398E+01;0;  2.5556829E+00;  9.7916807E+03;  0.0000000E+00;  1.8317003E-02;  1.0000000E+04;  0.0000000E+00;  9.9558613E+03;  2.4658060E+00;  0.0000000E+00;  8.9876778E-02;  2.0864893E+04;
  7.3954862E-01;  9.9999998E-03;  3.0080625E-01;2206; -8.9427337E-02;  0.0000000E+00;  8.3621427E-02;  1.0147935E+03;  4.1106221E-01;  1.2254430E+04;3; -1.8013214E+01;  0.0000000E+00; -5.8174009E+00;0;  2.5786772E+00;  9.7921270E+03;  0.0000000E+00;  2.7784624E-03;  1.0000000E+04;  0.0000000E+00;  9.9580596E+03;  2.4191489E+00;  0.0000000E+00;  1.5952815E-01;  1.9644059E+04;
  7.5959772E-01;  9.9999998E-03;  1.6057941E-01;2230; -1.1714961E-01;  0.0000000E+00;  6.4264312E-02;  1.0136423E+03;  4.1113916E-01;  1.1300257E+04;3; -1.6764246E+01;  0.0000000E+00; -3.0206676E+01;0;  3.3017037E+00;  9.7829873E+03;  0.0000000E+00;  4.5670464E-04;  1.0000000E+04;  0.0000000E+00;  9.9412764E+03;  2.9319420E+00;  0.0000000E+00;  3.6976177E-01;  2.7770826E+04;
  7.5960207E-01;  9.9999998E-03;  1.8063377E-01;2231; -1.1140146E-01;  0.0000000E+00;  7.2983854E-02;  1.0137599E+03;  4.1113985E-01;  1.1397717E+04;3; -1.4598642E+01;  0.0000000E+00; -3.1369982E+01;0;  3.2000885E+00;  9.7820449E+03;  0.0000000E+00;  7.1535335E-04;  1.0000000E+04;  0.0000000E+00;  9.9444902E+03;  2.8758554E+00;  0.0000000E+00;  3.2423308E-01;  2.6216545E+04;
  7.5960845E-01;  9.9999998E-03;  2.0069183E-01;2232; -1.0564937E-01;  0.0000000E+00;  8.1452817E-02;  1.0139291E+03;  4.1114056E-01;  1.1537834E+04;3; -1.2813480E+01;  0.0000000E+00; -3.2980774E+01;0;  3.0752325E+00;  9.7819707E+03;  0.0000000E+00;  1.3586566E-03;  1.0000000E+04;  0.0000000E+00;  9.9478408E+03;  2.8056371E+00;  0.0000000E+00;  2.6959535E-01;  2.4610834E+04;
  7.5962096E-01;  9.9999998E-03;  2.2074379E-01;2233; -9.8717973E-02;  0.0000000E+00;  8.2906656E-02;  1.0141291E+03;  4.1114110E-01;  1.1703428E+04;3; -1.1562737E+01;  0.0000000E+00; -3.6670212E+01;0;  2.9392645E+00;  9.7829512E+03;  0.0000000E+00;  2.6358035E-03;  1.0000000E+04;  0.0000000E+00;  9.9507373E+03;  2.7221699E+00;  0.0000000E+00;  2.1709463E-01;  2.3233002E+04;
  7.5964320E-01;  9.9999998E-03;  2.4077763E-01;2234; -8.9605875E-02;  0.0000000E+00;  7.9928473E-02;  1.0143459E+03;  4.1114148E-01;  1.1883141E+04;3; -1.0943423E+01;  0.0000000E+00; -3.6840755E+01;0;  2.7941699E+00;  9.7849102E+03;  0.0000000E+00;  4.5242612E-03;  1.0000000E+04;  0.0000000E+00;  9.9529541E+03;  2.6294751E+00;  0.0000000E+00;  1.6469470E-01;  2.2195615E+04;
  7.5967485E-01;  9.9999998E-03;  2.6079181E-01;2235; -7.8205459E-02;  0.0000000E+00;  7.8440927E-02;  1.0146331E+03;  4.1114181E-01;  1.2120915E+04;3; -1.0974785E+01;  0.0000000E+00; -3.2763603E+01;0;  2.6513743E+00;  9.7875791E+03;  0.0000000E+00;  5.9802467E-03;  1.0000000E+04;  0.0000000E+00;  9.9558389E+03;  2.5335729E+00;  0.0000000E+00;  1.1780152E-01;  2.0820186E+04;
  7.5971192E-01;  9.9999998E-03;  2.8081620E-01;2236; -6.5563709E-02;  0.0000000E+00;  7.6271787E-02;  1.0148157E+03;  4.1114151E-01;  1.2272189E+04;3; -1.1548800E+01;  0.0000000E+00; -2.4968309E+01;0;  2.4977839E+00;  9.7905420E+03;  0.0000000E+00;  2.8991972E-03;  1.0000000E+04;  0.0000000E+00;  9.9563877E+03;  2.4413540E+00;  0.0000000E+00;  5.6429818E-02;  2.0621439E+04;
  7.5975382E-01;  9.9999998E-03;  3.0083376E-01;2237; -5.3155750E-02;  0.0000000E+00;  8.7501653E-02;  1.0150577E+03;  4.1114077E-01;  1.2472639E+04;3; -1.2307620E+01;  0.0000000E+00; -2.4001939E+00;0;  2.5504036E+00;  9.7933184E+03;  0.0000000E+00; -1.1467115E-02;  1.0000000E+04;  0.0000000E+00;  9.9583086E+03;  2.3607047E+00;  0.0000000E+00;  1.8969899E-01;  1.9450682E+04;
  7.7981812E-01;  9.9999998E-03;  1.6057210E-01;2261; -5.9593894E-02;  0.0000000E+00;  5.6233522E-02;  1.0137802E+03;  4.1116780E-01;  1.1413739E+04;3; -1.1248035E+01;  0.0000000E+00; -3.3833145E+01;0;  3.3075500E+00;  9.7849355E+03;  0.0000000E+00;  5.6907877E-05;  1.0000000E+04;  0.0000000E+00;  9.9406201E+03;  2.9341662E+00;  0.0000000E+00;  3.7338379E-01;  2.8065330E+04;
  7.7982312E-01;  9.9999998E-03;  1.8062252E-01;2262; -5.6225266E-02;  0.0000000E+00;  6.3768543E-02;  1.0139355E+03;  4.1116843E-01;  1.1542394E+04;3; -1.0269985E+01;  0.0000000E+00; -3.5335930E+01;0;  3.1953981E+00;  9.7846816E+03;  0.0000000E+00;  1.1260154E-05;  1.0000000E+04;  0.0000000E+00;  9.9438848E+03;  2.8643734E+00;  0.0000000E+00;  3.3102471E-01;  2.6489012E+04;
  7.7982891E-01;  9.9999998E-03;  2.0067714E-01;2263; -5.3166948E-02;  0.0000000E+00;  7.1548715E-02;  1.0141599E+03;  4.1116890E-01;  1.1728119E+04;3; -9.5461922E+00;  0.0000000E+00; -3.6973930E+01;0;  3.0546968E+00;  9.7856055E+03;  0.0000000E+00;  4.0598035E-05;  1.0000000E+04;  0.0000000E+00;  9.9472998E+03;  2.7777104E+00;  0.0000000E+00;  2.7698645E-01;  2.4853934E+04;
  7.7983689E-01;  9.9999998E-03;  2.2073217E-01;2264; -5.0000142E-02;  0.0000000E+00;  7.6437406E-02;  1.0144407E+03;  4.1116911E-01;  1.1960742E+04;3; -9.1447010E+00;  0.0000000E+00; -3.8973221E+01;0;  2.8973498E+00;  9.7878887E+03;  0.0000000E+00;  1.9878331E-04;  1.0000000E+04;  0.0000000E+00;  9.9504570E+03;  2.6748641E+00;  0.0000000E+00;  2.2248583E-01;  2.3355172E+04;
  7.7984774E-01;  9.9999998E-03;  2.4077281E-01;2265; -4.6389960E-02;  0.0000000E+00;  7.6425463E-02;  1.0147609E+03;  4.1116920E-01;  1.2225950E+04;3; -9.1375504E+00;  0.0000000E+00; -3.9860058E+01;0;  2.7283731E+00;  9.7914160E+03;  0.0000000E+00;  4.1165247E-04;  1.0000000E+04;  0.0000000E+00;  9.9531260E+03;  2.5605528E+00;  0.0000000E+00;  1.6782033E-01;  2.2102824E+04;
  7.7986044E-01;  9.9999998E-03;  2.6080042E-01;2266; -4.2319424E-02;  0.0000000E+00;  7.9247072E-02;  1.0151142E+03;  4.1116923E-01;  1.2518606E+04;3; -9.5392866E+00;  0.0000000E+00; -3.5465599E+01;0;  2.5798028E+00;  9.7957842E+03;  0.0000000E+00;  1.5648846E-04;  1.0000000E+04;  0.0000000E+00;  9.9555898E+03;  2.4422340E+00;  0.0000000E+00;  1.3756867E-01;  2.0926869E+04;
  7.7987325E-01;  9.9999998E-03;  2.8083262E-01;2267; -3.8023874E-02;  0.0000000E+00;  7.5484656E-02;  1.0153347E+03;  4.1116893E-01;  1.2701172E+04;3; -1.0263236E+01;  0.0000000E+00; -2.7384092E+01;0;  2.3808129E+00;  9.8004512E+03;  0.0000000E+00; -2.0276126E-03;  1.0000000E+04;  0.0000000E+00;  9.9551621E+03;  2.3285880E+00;  0.0000000E+00;  5.2224964E-02;  2.1254039E+04;
  7.7988875E-01;  9.9999998E-03;  3.0085272E-01;2268; -3.3268914E-02;  0.0000000E+00;  9.0109378E-02;  1.0156480E+03;  4.1116789E-01;  1.2960752E+04;3; -1.1032804E+01;  0.0000000E+00; -1.4057268E+00;0;  2.4571483E+00;  9.8047793E+03;  0.0000000E+00; -7.7887774E-03;  1.0000000E+04;  0.0000000E+00;  9.9569229E+03;  2.2288129E+00;  0.0000000E+00;  2.2833546E-01;  2.0102709E+04;
  7.9999983E-01;  9.9999998E-03;  1.6056354E-01;2292; -1.1768376E-02;  0.0000000E+00;  5.1886644E-02;  1.0142909E+03;  4.1117555E-01;  1.1835657E+04;3; -6.5946002E+00;  0.0000000E+00; -3.5063965E+01;0;  3.2295692E+00;  9.7944775E+03;  0.0000000E+00; -3.3497217E-05;  1.0000000E+04;  0.0000000E+00;  9.9404756E+03;  2.8520048E+00;  0.0000000E+00;  3.7756446E-01;  2.8126320E+04;
  8.0000424E-01;  9.9999998E-03;  1.8061231E-01;2293; -1.0709015E-02;  0.0000000E+00;  5.9175972E-02;  1.0144461E+03;  4.1117612E-01;  1.1964201E+04;3; -6.5483437E+00;  0.0000000E+00; -3.6678951E+01;0;  3.1225390E+00;  9.7944307E+03;  0.0000000E+00; -6.8262707E-05;  1.0000000E+04;  0.0000000E+00;  9.9435244E+03;  2.7832010E+00;  0.0000000E+00;  3.3933818E-01;  2.6652807E+04;
  8.0000830E-01;  9.9999998E-03;  2.0066668E-01;2294; -1.0104255E-02;  0.0000000E+00;  6.7198709E-02;  1.0146752E+03;  4.1117659E-01;  1.2153858E+04;3; -6.5884895E+00;  0.0000000E+00; -3.8410809E+01;0;  2.9849112E+00;  9.7956826E+03;  0.0000000E+00; -9.1837988E-05;  1.0000000E+04;  0.0000000E+00;  9.9467090E+03;  2.6967444E+00;  0.0000000E+00;  2.8816676E-01;  2.5134693E+04;
  8.0001146E-01;  9.9999998E-03;  2.2072692E-01;2295; -1.0023752E-02;  0.0000000E+00;  7.3883779E-02;  1.0149690E+03;  4.1117677E-01;  1.2397224E+04;3; -6.7128921E+00;  0.0000000E+00; -4.0372379E+01;0;  2.8277335E+00;  9.7984326E+03;  0.0000000E+00; -1.1039947E-04;  1.0000000E+04;  0.0000000E+00;  9.9496504E+03;  2.5925665E+00;  0.0000000E+00;  2.3516695E-01;  2.3744338E+04;
  8.0001235E-01;  9.9999998E-03;  2.4077369E-01;2296; -1.0701233E-02;  0.0000000E+00;  7.6179370E-02;  1.0153042E+03;  4.1117665E-01;  1.2674849E+04;3; -6.9453154E+00;  0.0000000E+00; -4.1035229E+01;0;  2.6599250E+00;  9.8025352E+03;  0.0000000E+00; -1.4970181E-04;  1.0000000E+04;  0.0000000E+00;  9.9520479E+03;  2.4753547E+00;  0.0000000E+00;  1.8457030E-01;  2.2626951E+04;
  8.0000955E-01;  9.9999998E-03;  2.6080734E-01;2297; -1.2179298E-02;  0.0000000E+00;  7.9602093E-02;  1.0156595E+03;  4.1117659E-01;  1.2969157E+04;3; -7.2948117E+00;  0.0000000E+00; -3.7388855E+01;0;  2.5109246E+00;  9.8075410E+03;  0.0000000E+00; -2.4821892E-04;  1.0000000E+04;  0.0000000E+00;  9.9539072E+03;  2.3530064E+00;  0.0000000E+00;  1.5791813E-01;  2.1749221E+04;
  8.0000395E-01;  9.9999998E-03;  2.8084084E-01;2298; -1.3850507E-02;  0.0000000E+00;  7.5108394E-02;  1.0159093E+03;  4.1117644E-01;  1.3175993E+04;3; -7.7405748E+00;  0.0000000E+00; -2.8498116E+01;0;  2.2938168E+00;  9.8128750E+03;  0.0000000E+00; -3.9876113E-04;  1.0000000E+04;  0.0000000E+00;  9.9533945E+03;  2.2345686E+00;  0.0000000E+00;  5.9248112E-02;  2.2138176E+04;
  7.9999846E-01;  9.9999998E-03;  3.0086255E-01;2299; -1.4820497E-02;  0.0000000E+00;  9.1191411E-02;  1.0162579E+03;  4.1117534E-01;  1.3464676E+04;3; -8.1895628E+00;  0.0000000E+00; -1.5196216E+00;0;  2.3802388E+00;  9.8178936E+03;  0.0000000E+00; -4.4685579E-04;  1.0000000E+04;  0.0000000E+00;  9.9551582E+03;  2.1288581E+00;  0.0000000E+00;  2.5138062E-01;  2.0967264E+04;
  8.2017839E-01;  9.9999998E-03;  1.6055560E-01;2323;  3.8148392E-02;  0.0000000E+00;  5.1345013E-02;  1.0148699E+03;  4.1115955E-01;  1.2313673E+04;3; -6.0078099E-02;  0.0000000E+00; -3.4143070E+01;0;  3.1401882E+00;  9.8061582E+03;  0.0000000E+00;  8.4966914E-06;  1.0000000E+04;  0.0000000E+00;  9.9406309E+03;  2.7571743E+00;  0.0000000E+00;  3.8301387E-01;  2.8032535E+04;
  8.2018334E-01;  9.9999998E-03;  1.8060473E-01;2324;  3.7848108E-02;  0.0000000E+00;  5.9089407E-02;  1.0149931E+03;  4.1116032E-01;  1.2415646E+04;3; -5.0154936E-01;  0.0000000E+00; -3.5726234E+01;0;  3.0491395E+00;  9.8057930E+03;  0.0000000E+00;  6.3569263E-05;  1.0000000E+04;  0.0000000E+00;  9.9433740E+03;  2.7017243E+00;  0.0000000E+00;  3.4741509E-01;  2.6707707E+04;
  8.2018721E-01;  9.9999998E-03;  2.0066079E-01;2325;  3.7145119E-02;  0.0000000E+00;  6.7913949E-02;  1.0151874E+03;  4.1116059E-01;  1.2576554E+04;3; -8.2486171E-01;  0.0000000E+00; -3.7450909E+01;0;  2.9273131E+00;  9.8067100E+03;  0.0000000E+00;  1.7793989E-04;  1.0000000E+04;  0.0000000E+00;  9.9462246E+03;  2.6288133E+00;  0.0000000E+00;  2.9849985E-01;  2.5353803E+04;
  8.2018745E-01;  9.9999998E-03;  2.2072871E-01;2326;  3.5374366E-02;  0.0000000E+00;  7.6641500E-02;  1.0154403E+03;  4.1116089E-01;  1.2786030E+04;3; -9.9764532E-01;  0.0000000E+00; -3.9489811E+01;0;  2.7867508E+00;  9.8091377E+03;  0.0000000E+00;  3.4112114E-04;  1.0000000E+04;  0.0000000E+00;  9.9486865E+03;  2.5369573E+00;  0.0000000E+00;  2.4979343E-01;  2.4194863E+04;
  8.2018042E-01;  9.9999998E-03;  2.4077934E-01;2327;  3.1579979E-02;  0.0000000E+00;  7.8402884E-02;  1.0157263E+03;  4.1116112E-01;  1.3022752E+04;3; -1.0246671E+00;  0.0000000E+00; -4.1394966E+01;0;  2.6337097E+00;  9.8129561E+03;  0.0000000E+00;  5.2264112E-04;  1.0000000E+04;  0.0000000E+00;  9.9504102E+03;  2.4302108E+00;  0.0000000E+00;  2.0349891E-01;  2.3409078E+04;
  8.2016492E-01;  9.9999998E-03;  2.6081043E-01;2328;  2.5603773E-02;  0.0000000E+00;  7.9098724E-02;  1.0160548E+03;  4.1116112E-01;  1.3294914E+04;3; -9.3570644E-01;  0.0000000E+00; -3.8616852E+01;0;  2.4809844E+00;  9.8177148E+03;  0.0000000E+00;  6.9129275E-04;  1.0000000E+04;  0.0000000E+00;  9.9520068E+03;  2.3164089E+00;  0.0000000E+00;  1.6457553E-01;  2.2677885E+04;
  8.2014447E-01;  9.9999998E-03;  2.8084117E-01;2329;  1.8640075E-02;  0.0000000E+00;  7.4870080E-02;  1.0163176E+03;  4.1116083E-01;  1.3512487E+04;3; -7.9545540E-01;  0.0000000E+00; -2.8745884E+01;0;  2.2688725E+00;  9.8228613E+03;  0.0000000E+00;  6.8614190E-04;  1.0000000E+04;  0.0000000E+00;  9.9519473E+03;  2.2045014E+00;  0.0000000E+00;  6.4371049E-02;  2.2842150E+04;
  8.2011956E-01;  9.9999998E-03;  3.0086353E-01;2330;  1.1950233E-02;  0.0000000E+00;  9.1263071E-02;  1.0166688E+03;  4.1115969E-01;  1.3803309E+04;3; -6.8146843E-01;  0.0000000E+00; -1.9016395E+00;0;  2.3598614E+00;  9.8278125E+03;  0.0000000E+00;  1.6270948E-04;  1.0000000E+04;  0.0000000E+00;  9.9538291E+03;  2.1026800E+00;  0.0000000E+00;  2.5718150E-01;  2.1614838E+04;
  8.4036845E-01;  9.9999998E-03;  1.6054747E-01;2354;  9.4080858E-02;  0.0000000E+00;  5.3506561E-02;  1.0150814E+03;  4.1097718E-01;  1.2486726E+04;3;  8.7949638E+00;  0.0000000E+00; -3.1698898E+01;0;  3.0506461E+00;  9.8184775E+03;  0.0000000E+00;  5.3262807E-05;  1.0000000E+04;  0.0000000E+00;  9.9410654E+03;  2.6621256E+00;  0.0000000E+00;  3.8852054E-01;  2.7782451E+04;
  8.4037602E-01;  9.9999998E-03;  1.8059768E-01;2355;  9.3663022E-02;  0.0000000E+00;  6.1919078E-02;  1.0151531E+03;  4.1097784E-01;  1.2546043E+04;3;  8.2881575E+00;  0.0000000E+00; -3.3214718E+01;0;  2.9802642E+00;  9.8173906E+03;  0.0000000E+00;  1.7767157E-04;  1.0000000E+04;  0.0000000E+00;  9.9435430E+03;  2.6272922E+00;  0.0000000E+00;  3.5297209E-01;  2.6591691E+04;
  8.4038234E-01;  9.9999998E-03;  2.0065543E-01;2356;  9.3041837E-02;  0.0000000E+00;  7.1412466E-02;  1.0152894E+03;  4.1097826E-01;  1.2658956E+04;3;  8.1126604E+00;  0.0000000E+00; -3.4979912E+01;0;  2.8796825E+00;  9.8174600E+03;  0.0000000E+00;  4.7090789E-04;  1.0000000E+04;  0.0000000E+00;  9.9461104E+03;  2.5755186E+00;  0.0000000E+00;  3.0416396E-01;  2.5376207E+04;
  8.4038264E-01;  9.9999998E-03;  2.2072732E-01;2357;  9.0754636E-02;  0.0000000E+00;  8.0538489E-02;  1.0154760E+03;  4.1097862E-01;  1.2813421E+04;3;  8.2881861E+00;  0.0000000E+00; -3.7924755E+01;0;  2.7612944E+00;  9.8189932E+03;  0.0000000E+00;  9.7694597E-04;  1.0000000E+04;  0.0000000E+00;  9.9481943E+03;  2.5037127E+00;  0.0000000E+00;  2.5758183E-01;  2.4402293E+04;
  8.4036970E-01;  9.9999998E-03;  2.4077754E-01;2358;  8.4585465E-02;  0.0000000E+00;  7.9955608E-02;  1.0156943E+03;  4.1097909E-01;  1.2994240E+04;3;  8.7766361E+00;  0.0000000E+00; -4.1049725E+01;0;  2.6245942E+00;  9.8219111E+03;  0.0000000E+00;  1.6043700E-03;  1.0000000E+04;  0.0000000E+00;  9.9494932E+03;  2.4149132E+00;  0.0000000E+00;  2.0968099E-01;  2.3823953E+04;
  8.4034359E-01;  9.9999998E-03;  2.6080346E-01;2359;  7.4514151E-02;  0.0000000E+00;  7.8108907E-02;  1.0159894E+03;  4.1097921E-01;  1.3238526E+04;3;  9.4901171E+00;  0.0000000E+00; -3.8337490E+01;0;  2.4732499E+00;  9.8258115E+03;  0.0000000E+00;  2.0349922E-03;  1.0000000E+04;  0.0000000E+00;  9.9513008E+03;  2.3166318E+00;  0.0000000E+00;  1.5661807E-01;  2.3005725E+04;
  8.4030920E-01;  9.9999998E-03;  2.8083149E-01;2360;  6.1882097E-02;  0.0000000E+00;  7.4715078E-02;  1.0162448E+03;  4.1097918E-01;  1.3449946E+04;3;  1.0297166E+01;  0.0000000E+00; -2.7858644E+01;0;  2.2785697E+00;  9.8301729E+03;  0.0000000E+00;  1.3462128E-03;  1.0000000E+04;  0.0000000E+00;  9.9518838E+03;  2.2177269E+00;  0.0000000E+00;  6.0842767E-02;  2.2841449E+04;
  8.4026492E-01;  9.9999998E-03;  3.0085418E-01;2361;  4.8565544E-02;  0.0000000E+00;  9.0613328E-02;  1.0165719E+03;  4.1097811E-01;  1.3720784E+04;3;  1.1026210E+01;  0.0000000E+00; -2.0472171E+00;0;  2.3720899E+00;  9.8344873E+03;  0.0000000E+00; -2.1233140E-03;  1.0000000E+04;  0.0000000E+00;  9.9539346E+03;  2.1261594E+00;  0.0000000E+00;  2.4593048E-01;  2.1542949E+04;
  8.6056495E-01;  9.9999998E-03;  1.6053684E-01;2385;  1.5359272E-01;  0.0000000E+00;  5.6748062E-02;  1.0149960E+03;  4.1061908E-01;  1.2413172E+04;3;  1.8996901E+01;  0.0000000E+00; -2.8448097E+01;0;  2.9248371E+00;  9.8331826E+03;  0.0000000E+00;  6.8668196E-05;  1.0000000E+04;  0.0000000E+00;  9.9418799E+03;  2.5325999E+00;  0.0000000E+00;  3.9223707E-01;  2.7333014E+04;
  8.6057717E-01;  9.9999998E-03;  1.8058784E-01;2386;  1.5404694E-01;  0.0000000E+00;  6.5705694E-02;  1.0150100E+03;  4.1061983E-01;  1.2424814E+04;3;  1.8676453E+01;  0.0000000E+00; -2.9904537E+01;0;  2.8751781E+00;  9.8311553E+03;  0.0000000E+00;  2.4754528E-04;  1.0000000E+04;  0.0000000E+00;  9.9441719E+03;  2.5205641E+00;  0.0000000E+00;  3.5461405E-01;  2.6236539E+04;
  8.6058831E-01;  9.9999998E-03;  2.0064624E-01;2387;  1.5454194E-01;  0.0000000E+00;  7.5530961E-02;  1.0150784E+03;  4.1062039E-01;  1.2481452E+04;3;  1.8872410E+01;  0.0000000E+00; -3.1723328E+01;0;  2.7965519E+00;  9.8300850E+03;  0.0000000E+00;  7.8380294E-04;  1.0000000E+04;  0.0000000E+00;  9.9465625E+03;  2.4925117E+00;  0.0000000E+00;  3.0404010E-01;  2.5109225E+04;
  8.6059111E-01;  9.9999998E-03;  2.2071765E-01;2388;  1.5251896E-01;  0.0000000E+00;  8.3059914E-02;  1.0151891E+03;  4.1062069E-01;  1.2573025E+04;3;  1.9471716E+01;  0.0000000E+00; -3.6665840E+01;0;  2.7001834E+00;  9.8303506E+03;  0.0000000E+00;  1.8855617E-03;  1.0000000E+04;  0.0000000E+00;  9.9484541E+03;  2.4440515E+00;  0.0000000E+00;  2.5613180E-01;  2.4232602E+04;
  8.6057389E-01;  9.9999998E-03;  2.4076524E-01;2389;  1.4448510E-01;  0.0000000E+00;  8.0723591E-02;  1.0153337E+03;  4.1062132E-01;  1.2692823E+04;3;  2.0628082E+01;  0.0000000E+00; -3.9156528E+01;0;  2.5818679E+00;  9.8319609E+03;  0.0000000E+00;  3.3930226E-03;  1.0000000E+04;  0.0000000E+00;  9.9496299E+03;  2.3770506E+00;  0.0000000E+00;  2.0481730E-01;  2.3715482E+04;
  8.6053813E-01;  9.9999998E-03;  2.6078692E-01;2390;  1.3017447E-01;  0.0000000E+00;  7.7771299E-02;  1.0155817E+03;  4.1062170E-01;  1.2898078E+04;3;  2.1914759E+01;  0.0000000E+00; -3.6197029E+01;0;  2.4431801E+00;  9.8345928E+03;  0.0000000E+00;  4.6135001E-03;  1.0000000E+04;  0.0000000E+00;  9.9517871E+03;  2.2983296E+00;  0.0000000E+00;  1.4485039E-01;  2.2730285E+04;
  8.6049032E-01;  9.9999998E-03;  2.8081319E-01;2391;  1.1141825E-01;  0.0000000E+00;  7.4688889E-02;  1.0158061E+03;  4.1062179E-01;  1.3083799E+04;3;  2.3256386E+01;  0.0000000E+00; -2.6296423E+01;0;  2.2688589E+00;  9.8377891E+03;  0.0000000E+00;  3.9902460E-03;  1.0000000E+04;  0.0000000E+00;  9.9529287E+03;  2.2164197E+00;  0.0000000E+00;  5.2439276E-02;  2.2281752E+04;
  8.6042619E-01;  9.9999998E-03;  3.0083600E-01;2392;  9.0759501E-02;  0.0000000E+00;  8.9419127E-02;  1.0160875E+03;  4.1062120E-01;  1.3316689E+04;3;  2.4469530E+01;  0.0000000E+00; -2.2176492E+00;0;  2.3614767E+00;  9.8410889E+03;  0.0000000E+00; -1.2676545E-03;  1.0000000E+04;  0.0000000E+00;  9.9550938E+03;  2.1391833E+00;  0.0000000E+00;  2.2229342E-01;  2.0953176E+04;
  8.8075459E-01;  9.9999998E-03;  1.6052145E-01;2416;  2.1229513E-01;  0.0000000E+00;  5.9566725E-02;  1.0148071E+03;  4.1010529E-01;  1.2253147E+04;3;  2.9543676E+01;  0.0000000E+00; -2.4994644E+01;0;  2.7147195E+00;  9.8529395E+03;  0.0000000E+00;  4.4435004E-05;  1.0000000E+04;  0.0000000E+00;  9.9431797E+03;  2.3217993E+00;  0.0000000E+00;  3.9292023E-01;  2.6642490E+04;
  8.8077229E-01;  9.9999998E-03;  1.8057230E-01;2417;  2.1407020E-01;  0.0000000E+00;  6.8799466E-02;  1.0147646E+03;  4.1010615E-01;  1.2218024E+04;3;  2.9448479E+01;  0.0000000E+00; -2.6385866E+01;0;  2.6842103E+00;  9.8499307E+03;  0.0000000E+00;  2.7142637E-04;  1.0000000E+04;  0.0000000E+00;  9.9453604E+03;  2.3317034E+00;  0.0000000E+00;  3.5250700E-01;  2.5606305E+04;
  8.8078940E-01;  9.9999998E-03;  2.0063008E-01;2418;  2.1607316E-01;  0.0000000E+00;  7.8678787E-02;  1.0147627E+03;  4.1010675E-01;  1.2216344E+04;3;  2.9985399E+01;  0.0000000E+00; -2.8251341E+01;0;  2.6271377E+00;  9.8475918E+03;  0.0000000E+00;  1.1361368E-03;  1.0000000E+04;  0.0000000E+00;  9.9476553E+03;  2.3275449E+00;  0.0000000E+00;  2.9959264E-01;  2.4528527E+04;
  8.8079560E-01;  9.9999998E-03;  2.2069821E-01;2419;  2.1430165E-01;  0.0000000E+00;  8.3948351E-02;  1.0147926E+03;  4.1010720E-01;  1.2241104E+04;3;  3.0786263E+01;  0.0000000E+00; -3.4501156E+01;0;  2.5531225E+00;  9.8463564E+03;  0.0000000E+00;  3.1084686E-03;  1.0000000E+04;  0.0000000E+00;  9.9494707E+03;  2.3042130E+00;  0.0000000E+00;  2.4890947E-01;  2.3686303E+04;
  8.8077497E-01;  9.9999998E-03;  2.4074283E-01;2420;  2.0443934E-01;  0.0000000E+00;  8.1054352E-02;  1.0148566E+03;  4.1010809E-01;  1.2294082E+04;3;  3.2464382E+01;  0.0000000E+00; -3.6045399E+01;0;  2.4572980E+00;  9.8463506E+03;  0.0000000E+00;  5.9344340E-03;  1.0000000E+04;  0.0000000E+00;  9.9506934E+03;  2.2623041E+00;  0.0000000E+00;  1.9499387E-01;  2.3149014E+04;
  8.8072985E-01;  9.9999998E-03;  2.6076233E-01;2421;  1.8582767E-01;  0.0000000E+00;  7.7912807E-02;  1.0150348E+03;  4.1010869E-01;  1.2441570E+04;3;  3.4288456E+01;  0.0000000E+00; -3.3199089E+01;0;  2.3418951E+00;  9.8474043E+03;  0.0000000E+00;  8.4948400E-03;  1.0000000E+04;  0.0000000E+00;  9.9530811E+03;  2.2072456E+00;  0.0000000E+00;  1.3464960E-01;  2.2047449E+04;
  8.8066953E-01;  9.9999998E-03;  2.8078789E-01;2422;  1.6092701E-01;  0.0000000E+00;  7.5058959E-02;  1.0151999E+03;  4.1010901E-01;  1.2578210E+04;3;  3.6015121E+01;  0.0000000E+00; -2.3961533E+01;0;  2.1952195E+00;  9.8491328E+03;  0.0000000E+00;  8.8300211E-03;  1.0000000E+04;  0.0000000E+00;  9.9545117E+03;  2.1464715E+00;  0.0000000E+00;  4.8748009E-02;  2.1441641E+04;
  8.8058710E-01;  9.9999998E-03;  3.0081093E-01;2423;  1.3307832E-01;  0.0000000E+00;  8.8117734E-02;  1.0154154E+03;  4.1010892E-01;  1.2756584E+04;3;  3.7403896E+01;  0.0000000E+00; -2.5888908E+00;0;  2.2858505E+00;  9.8511709E+03;  0.0000000E+00;  3.5913561E-03;  1.0000000E+04;  0.0000000E+00;  9.9566377E+03;  2.0873287E+00;  0.0000000E+00;  1.9852194E-01;  2.0167879E+04;
  9.0092474E-01;  9.9999998E-03;  1.6049992E-01;2447;  2.6682836E-01;  0.0000000E+00;  6.0960371E-02;  1.0146417E+03;  4.0946448E-01;  1.2111259E+04;3;  4.0119240E+01;  0.0000000E+00; -2.1736330E+01;0;  2.3962440E+00;  9.8788613E+03;  0.0000000E+00; -1.6962647E-05;  1.0000000E+04;  0.0000000E+00;  9.9449971E+03;  2.0057895E+00;  0.0000000E+00;  3.9045444E-01;  2.5697164E+04;
  9.0094769E-01;  9.9999998E-03;  1.8054953E-01;2448;  2.6982850E-01;  0.0000000E+00;  7.0198394E-02;  1.0145494E+03;  4.0946513E-01;  1.2035028E+04;3;  4.0118420E+01;  0.0000000E+00; -2.3019476E+01;0;  2.3835649E+00;  9.8749668E+03;  0.0000000E+00;  2.0619588E-04;  1.0000000E+04;  0.0000000E+00;  9.9470967E+03;  2.0355995E+00;  0.0000000E+00;  3.4796554E-01;  2.4705256E+04;
  9.0097028E-01;  9.9999998E-03;  2.0060536E-01;2449;  2.7303860E-01;  0.0000000E+00;  7.9730831E-02;  1.0144785E+03;  4.0946576E-01;  1.1976351E+04;3;  4.0712479E+01;  0.0000000E+00; -2.5065062E+01;0;  2.3486269E+00;  9.8713447E+03;  0.0000000E+00;  1.3524676E-03;  1.0000000E+04;  0.0000000E+00;  9.9493359E+03;  2.0553212E+00;  0.0000000E+00;  2.9330572E-01;  2.3659303E+04;
  9.0097785E-01;  9.9999998E-03;  2.2066738E-01;2450;  2.7071935E-01;  0.0000000E+00;  8.3397053E-02;  1.0144254E+03;  4.0946627E-01;  1.1932370E+04;3;  4.1387371E+01;  0.0000000E+00; -3.1346077E+01;0;  2.2998297E+00;  9.8684531E+03;  0.0000000E+00;  4.2141974E-03;  1.0000000E+04;  0.0000000E+00;  9.9511953E+03;  2.0596850E+00;  0.0000000E+00;  2.4014466E-01;  2.2798502E+04;
  9.0095282E-01;  9.9999998E-03;  2.4071009E-01;2451;  2.5801951E-01;  0.0000000E+00;  8.0435172E-02;  1.0143997E+03;  4.0946725E-01;  1.1911177E+04;3;  4.2862354E+01;  0.0000000E+00; -3.2650990E+01;0;  2.2319264E+00;  9.8665752E+03;  0.0000000E+00;  8.4905103E-03;  1.0000000E+04;  0.0000000E+00;  9.9525313E+03;  2.0475206E+00;  0.0000000E+00;  1.8440577E-01;  2.2199320E+04;
  9.0090108E-01;  9.9999998E-03;  2.6073119E-01;2452;  2.3624311E-01;  0.0000000E+00;  7.8221262E-02;  1.0144778E+03;  4.0946820E-01;  1.1975681E+04;3;  4.5343899E+01;  0.0000000E+00; -2.9538568E+01;0;  2.1497445E+00;  9.8657363E+03;  0.0000000E+00;  1.2566305E-02;  1.0000000E+04;  0.0000000E+00;  9.9548408E+03;  2.0217285E+00;  0.0000000E+00;  1.2801611E-01;  2.1130264E+04;
  9.0082985E-01;  9.9999998E-03;  2.8075719E-01;2453;  2.0587371E-01;  0.0000000E+00;  7.6133288E-02;  1.0145496E+03;  4.0946883E-01;  1.2035161E+04;3;  4.7744774E+01;  0.0000000E+00; -2.1184305E+01;0;  2.0461142E+00;  9.8657314E+03;  0.0000000E+00;  1.4327897E-02;  1.0000000E+04;  0.0000000E+00;  9.9561846E+03;  1.9877548E+00;  0.0000000E+00;  5.8359377E-02;  2.0539514E+04;
  9.0073347E-01;  9.9999998E-03;  3.0078024E-01;2454;  1.7201728E-01;  0.0000000E+00;  8.7213740E-02;  1.0146843E+03;  4.0946916E-01;  1.2146615E+04;3;  4.9012878E+01;  0.0000000E+00; -2.3596075E+00;0;  2.1367652E+00;  9.8662529E+03;  0.0000000E+00;  9.8557342E-03;  1.0000000E+04;  0.0000000E+00;  9.9582119E+03;  1.9517077E+00;  0.0000000E+00;  1.8505754E-01;  1.9349896E+04;
  9.2104965E-01;  9.9999998E-03;  1.6047230E-01;2478;  3.1213304E-01;  0.0000000E+00;  6.0544834E-02;  1.0144845E+03;  4.0873006E-01;  1.1974676E+04;3;  5.0889751E+01;  0.0000000E+00; -1.8875422E+01;0;  1.9890996E+00;  9.9091172E+03;  0.0000000E+00; -6.1084262E-05;  1.0000000E+04;  0.0000000E+00;  9.9472842E+03;  1.6035266E+00;  0.0000000E+00;  3.8557303E-01;  2.4514232E+04;
  9.2108172E-01;  9.9999998E-03;  1.8051998E-01;2479;  3.1687859E-01;  0.0000000E+00;  6.9639407E-02;  1.0143560E+03;  4.0873033E-01;  1.1868327E+04;3;  5.0782825E+01;  0.0000000E+00; -1.9980469E+01;0;  1.9925854E+00;  9.9045908E+03;  0.0000000E+00;  5.9968053E-05;  1.0000000E+04;  0.0000000E+00;  9.9493066E+03;  1.6501162E+00;  0.0000000E+00;  3.4246925E-01;  2.3564096E+04;
  9.2111421E-01;  9.9999998E-03;  2.0057251E-01;2480;  3.2165354E-01;  0.0000000E+00;  7.8456029E-02;  1.0142237E+03;  4.0873075E-01;  1.1759020E+04;3;  5.1010269E+01;  0.0000000E+00; -2.2318806E+01;0;  1.9801960E+00;  9.8998301E+03;  0.0000000E+00;  1.2239775E-03;  1.0000000E+04;  0.0000000E+00;  9.9514980E+03;  1.6930882E+00;  0.0000000E+00;  2.8710786E-01;  2.2544824E+04;
  9.2112470E-01;  9.9999998E-03;  2.2062565E-01;2481;  3.1818503E-01;  0.0000000E+00;  8.0816507E-02;  1.0140931E+03;  4.0873143E-01;  1.1651100E+04;3;  5.0778931E+01;  0.0000000E+00; -2.7481567E+01;0;  1.9589431E+00;  9.8952598E+03;  0.0000000E+00;  4.5353379E-03;  1.0000000E+04;  0.0000000E+00;  9.9535000E+03;  1.7276675E+00;  0.0000000E+00;  2.3127565E-01;  2.1615686E+04;
  9.2109495E-01;  9.9999998E-03;  2.4066891E-01;2482;  3.0276433E-01;  0.0000000E+00;  7.9380661E-02;  1.0139703E+03;  4.0873253E-01;  1.1549602E+04;3;  5.2142529E+01;  0.0000000E+00; -2.8907021E+01;0;  1.9266652E+00;  9.8913428E+03;  0.0000000E+00;  9.8721404E-03;  1.0000000E+04;  0.0000000E+00;  9.9549766E+03;  1.7502357E+00;  0.0000000E+00;  1.7642953E-01;  2.0942846E+04;
  9.2103875E-01;  9.9999998E-03;  2.6069421E-01;2483;  2.7760193E-01;  0.0000000E+00;  7.8585923E-02;  1.0139258E+03;  4.0873364E-01;  1.1512763E+04;3;  5.4903526E+01;  0.0000000E+00; -2.5661737E+01;0;  1.8862085E+00;  9.8883604E+03;  0.0000000E+00;  1.5374965E-02;  1.0000000E+04;  0.0000000E+00;  9.9570176E+03;  1.7597306E+00;  0.0000000E+00;  1.2647800E-01;  1.9997029E+04;
  9.2095989E-01;  9.9999998E-03;  2.8072223E-01;2484;  2.4405760E-01;  0.0000000E+00;  7.7593647E-02;  1.0138715E+03;  4.0873471E-01;  1.1467853E+04;3;  5.8600124E+01;  0.0000000E+00; -1.7506166E+01;0;  1.8327147E+00;  9.8863555E+03;  0.0000000E+00;  1.8672843E-02;  1.0000000E+04;  0.0000000E+00;  9.9578643E+03;  1.7586194E+00;  0.0000000E+00;  7.4095234E-02;  1.9618422E+04;
  9.2085630E-01;  9.9999998E-03;  3.0074480E-01;2485;  2.0631367E-01;  0.0000000E+00;  8.6461656E-02;  1.0139119E+03;  4.0873539E-01;  1.1501397E+04;3;  5.9779163E+01;  0.0000000E+00; -8.2612401E-01;0;  1.9260504E+00;  9.8851357E+03;  0.0000000E+00;  1.4545558E-02;  1.0000000E+04;  0.0000000E+00;  9.9597754E+03;  1.7510427E+00;  0.0000000E+00;  1.7500769E-01;  1.8520885E+04;
  9.4109750E-01;  9.9999998E-03;  1.6044113E-01;2509;  3.3918956E-01;  0.0000000E+00;  5.8921609E-02;  1.0142085E+03;  4.0793803E-01;  1.1737810E+04;3;  6.1834969E+01;  0.0000000E+00; -1.6466627E+01;0;  1.5488453E+00;  9.9396025E+03;  0.0000000E+00; -1.1414331E-05;  1.0000000E+04;  0.0000000E+00;  9.9499355E+03;  1.1697091E+00;  0.0000000E+00;  3.7913626E-01;  2.3126613E+04;
  9.4113469E-01;  9.9999998E-03;  1.8048726E-01;2510;  3.4513557E-01;  0.0000000E+00;  6.8029612E-02;  1.0140615E+03;  4.0793815E-01;  1.1616268E+04;3;  6.1458046E+01;  0.0000000E+00; -1.7329359E+01;0;  1.5655708E+00;  9.9347842E+03;  0.0000000E+00; -4.3883596E-05;  1.0000000E+04;  0.0000000E+00;  9.9518779E+03;  1.2287049E+00;  0.0000000E+00;  3.3686590E-01;  2.2220951E+04;
  9.4117671E-01;  9.9999998E-03;  2.0053700E-01;2511;  3.5177857E-01;  0.0000000E+00;  7.6963067E-02;  1.0138842E+03;  4.0793851E-01;  1.1469808E+04;3;  6.1328327E+01;  0.0000000E+00; -1.9140305E+01;0;  1.5743980E+00;  9.9292041E+03;  0.0000000E+00;  8.3655998E-04;  1.0000000E+04;  0.0000000E+00;  9.9539971E+03;  1.2920769E+00;  0.0000000E+00;  2.8232110E-01;  2.1238768E+04;
  9.4120991E-01;  9.9999998E-03;  2.2058383E-01;2512;  3.5240668E-01;  0.0000000E+00;  7.8609571E-02;  1.0136822E+03;  4.0793893E-01;  1.1302967E+04;3;  6.0364227E+01;  0.0000000E+00; -2.3876768E+01;0;  1.5814626E+00;  9.9232129E+03;  0.0000000E+00;  3.9391899E-03;  1.0000000E+04;  0.0000000E+00;  9.9560449E+03;  1.3557475E+00;  0.0000000E+00;  2.2571518E-01;  2.0291498E+04;
  9.4119829E-01;  9.9999998E-03;  2.4062158E-01;2513;  3.3824101E-01;  0.0000000E+00;  7.7412903E-02;  1.0134811E+03;  4.0793958E-01;  1.1136739E+04;3;  6.0809052E+01;  0.0000000E+00; -2.4634022E+01;0;  1.5828649E+00;  9.9173535E+03;  0.0000000E+00;  9.3627796E-03;  1.0000000E+04;  0.0000000E+00;  9.9579229E+03;  1.4142945E+00;  0.0000000E+00;  1.6857041E-01;  1.9425064E+04;
  9.4114035E-01;  9.9999998E-03;  2.6065311E-01;2514;  3.0993953E-01;  0.0000000E+00;  7.9308301E-02;  1.0133021E+03;  4.0794095E-01;  1.0988949E+04;3;  6.2997093E+01;  0.0000000E+00; -2.0957586E+01;0;  1.5944812E+00;  9.9122012E+03;  0.0000000E+00;  1.5897237E-02;  1.0000000E+04;  0.0000000E+00;  9.9594795E+03;  1.4624076E+00;  0.0000000E+00;  1.3207358E-01;  1.8689748E+04;
  9.4105673E-01;  9.9999998E-03;  2.8068393E-01;2515;  2.7442899E-01;  0.0000000E+00;  7.9152010E-02;  1.0131036E+03;  4.0794212E-01;  1.0825020E+04;3;  6.7879250E+01;  0.0000000E+00; -1.3800117E+01;0;  1.5926670E+00;  9.9080732E+03;  0.0000000E+00;  2.0930897E-02;  1.0000000E+04;  0.0000000E+00;  9.9595996E+03;  1.4979998E+00;  0.0000000E+00;  9.4667204E-02;  1.8636490E+04;
  9.4095135E-01;  9.9999998E-03;  3.0070597E-01;2516;  2.3589805E-01;  0.0000000E+00;  8.5269168E-02;  1.0130368E+03;  4.0794322E-01;  1.0769920E+04;3;  7.0192543E+01;  0.0000000E+00;  4.2622611E-01;0;  1.6845831E+00;  9.9049629E+03;  0.0000000E+00;  1.5961902E-02;  1.0000000E+04;  0.0000000E+00;  9.9612793E+03;  1.5224540E+00;  0.0000000E+00;  1.6212904E-01;  1.7695096E+04;
  9.6110886E-01;  9.9999998E-03;  1.6040993E-01;2540;  3.5164726E-01;  0.0000000E+00;  5.7706293E-02;  1.0136851E+03;  4.0712297E-01;  1.1294107E+04;3;  7.0337395E+01;  0.0000000E+00; -1.3906166E+01;0;  1.1368401E+00;  9.9662324E+03;  0.0000000E+00;  1.2032874E-04;  1.0000000E+04;  0.0000000E+00;  9.9528379E+03;  7.6550859E-01;  0.0000000E+00;  3.7133157E-01;  2.1564719E+04;
  9.6114826E-01;  9.9999998E-03;  1.8045460E-01;2541;  3.5853198E-01;  0.0000000E+00;  6.6910468E-02;  1.0135356E+03;  4.0712318E-01;  1.1170712E+04;3;  6.9993851E+01;  0.0000000E+00; -1.4532668E+01;0;  1.1623160E+00;  9.9614287E+03;  0.0000000E+00; -1.4535908E-05;  1.0000000E+04;  0.0000000E+00;  9.9547070E+03;  8.3151203E-01;  0.0000000E+00;  3.3080396E-01;  2.0702531E+04;
  9.6119314E-01;  9.9999998E-03;  2.0050137E-01;2542;  3.6641949E-01;  0.0000000E+00;  7.6263115E-02;  1.0133322E+03;  4.0712327E-01;  1.1002845E+04;3;  7.0059349E+01;  0.0000000E+00; -1.5377937E+01;0;  1.1881244E+00;  9.9554053E+03;  0.0000000E+00;  4.4757666E-04;  1.0000000E+04;  0.0000000E+00;  9.9567520E+03;  9.0981615E-01;  0.0000000E+00;  2.7830824E-01;  1.9765541E+04;
  9.6123642E-01;  9.9999998E-03;  2.2054873E-01;2543;  3.7077186E-01;  0.0000000E+00;  7.9378799E-02;  1.0130706E+03;  4.0712354E-01;  1.0786871E+04;3;  6.9370186E+01;  0.0000000E+00; -2.0019182E+01;0;  1.2227441E+00;  9.9484160E+03;  0.0000000E+00;  3.2202050E-03;  1.0000000E+04;  0.0000000E+00;  9.9586084E+03;  9.9741238E-01;  0.0000000E+00;  2.2533177E-01;  1.8907436E+04;
  9.6125519E-01;  9.9999998E-03;  2.4057920E-01;2544;  3.6359075E-01;  0.0000000E+00;  7.7166922E-02;  1.0127983E+03;  4.0712398E-01;  1.0562157E+04;3;  6.9451317E+01;  0.0000000E+00; -1.9948170E+01;0;  1.2552979E+00;  9.9410215E+03;  0.0000000E+00;  1.1103579E-02;  1.0000000E+04;  0.0000000E+00;  9.9606367E+03;  1.0876285E+00;  0.0000000E+00;  1.6766942E-01;  1.7973268E+04;
  9.6121418E-01;  9.9999998E-03;  2.6060921E-01;2545;  3.3681375E-01;  0.0000000E+00;  7.9739764E-02;  1.0125244E+03;  4.0712506E-01;  1.0336104E+04;3;  7.1132507E+01;  0.0000000E+00; -1.6046892E+01;0;  1.3093683E+00;  9.9339473E+03;  0.0000000E+00;  2.3033613E-02;  1.0000000E+04;  0.0000000E+00;  9.9622568E+03;  1.1721666E+00;  0.0000000E+00;  1.3720164E-01;  1.7197217E+04;
  9.6113032E-01;  9.9999998E-03;  2.8064278E-01;2546;  3.0086198E-01;  0.0000000E+00;  8.0237657E-02;  1.0121834E+03;  4.0712637E-01;  1.0054782E+04;3;  7.7411270E+01;  0.0000000E+00; -1.0537735E+01;0;  1.3599912E+00;  9.9278057E+03;  0.0000000E+00;  3.1246871E-02;  1.0000000E+04;  0.0000000E+00;  9.9615693E+03;  1.2438680E+00;  0.0000000E+00;  1.1612324E-01;  1.7493479E+04;
  9.6102637E-01;  9.9999998E-03;  3.0066401E-01;2547;  2.6271537E-01;  0.0000000E+00;  8.3738945E-02;  1.0120137E+03;  4.0712765E-01;  9.9147471E+03;3;  8.1191078E+01;  0.0000000E+00;  1.6437758E+00;0;  1.4491315E+00;  9.9228438E+03;  0.0000000E+00;  1.3677067E-02;  1.0000000E+04;  0.0000000E+00;  9.9630674E+03;  1.3000927E+00;  0.0000000E+00;  1.4903884E-01;  1.6686219E+04;
  9.8110491E-01;  9.9999998E-03;  1.6038115E-01;2571;  3.5548532E-01;  0.0000000E+00;  5.7444662E-02;  1.0128700E+03;  4.0631625E-01;  1.0607136E+04;3;  7.4338318E+01;  0.0000000E+00; -1.0822024E+01;0;  7.9589140E-01;  9.9866611E+03;  0.0000000E+00;  2.1003741E-04;  1.0000000E+04;  0.0000000E+00;  9.9559268E+03;  4.3448591E-01;  0.0000000E+00;  3.6140552E-01;  1.9852539E+04;
  9.8114568E-01;  9.9999998E-03;  1.8042365E-01;2572;  3.6301067E-01;  0.0000000E+00;  6.6586554E-02;  1.0127281E+03;  4.0631622E-01;  1.0490187E+04;3;  7.4204605E+01;  0.0000000E+00; -1.1118939E+01;0;  8.2488823E-01;  9.9820420E+03;  0.0000000E+00;  6.3610467E-05;  1.0000000E+04;  0.0000000E+00;  9.9577461E+03;  5.0210434E-01;  0.0000000E+00;  3.2278386E-01;  1.9026908E+04;
  9.8119241E-01;  9.9999998E-03;  2.0046622E-01;2573;  3.7168249E-01;  0.0000000E+00;  7.5712956E-02;  1.0125152E+03;  4.0631616E-01;  1.0314675E+04;3;  7.4568588E+01;  0.0000000E+00; -1.1190779E+01;0;  8.6095762E-01;  9.9759043E+03;  0.0000000E+00;  5.7691749E-04;  1.0000000E+04;  0.0000000E+00;  9.9597051E+03;  5.8811486E-01;  0.0000000E+00;  2.7284274E-01;  1.8137107E+04;
  9.8124117E-01;  9.9999998E-03;  2.2051291E-01;2574;  3.7903386E-01;  0.0000000E+00;  8.1220344E-02;  1.0122180E+03;  4.0631649E-01;  1.0069702E+04;3;  7.5071625E+01;  0.0000000E+00; -1.4456399E+01;0;  9.1632813E-01;  9.9683877E+03;  0.0000000E+00;  7.8463405E-03;  1.0000000E+04;  0.0000000E+00;  9.9613740E+03;  6.9092780E-01;  0.0000000E+00;  2.2540031E-01;  1.7370654E+04;
  9.8127586E-01;  9.9999998E-03;  2.4054238E-01;2575;  3.7886789E-01;  0.0000000E+00;  7.8951299E-02;  1.0118777E+03;  4.0631676E-01;  9.7892744E+03;3;  7.7168602E+01;  0.0000000E+00; -1.5311059E+01;0;  9.7858030E-01;  9.9600146E+03;  0.0000000E+00;  2.9143844E-02;  1.0000000E+04;  0.0000000E+00;  9.9630488E+03;  8.0401009E-01;  0.0000000E+00;  1.7457020E-01;  1.6600127E+04;
  9.8126620E-01;  9.9999998E-03;  2.6056439E-01;2576;  3.5973176E-01;  0.0000000E+00;  7.9132520E-02;  1.0115580E+03;  4.0631738E-01;  9.5257793E+03;3;  7.9673714E+01;  0.0000000E+00; -1.1633657E+01;0;  1.0535421E+00;  9.9515254E+03;  0.0000000E+00;  5.6174431E-02;  1.0000000E+04;  0.0000000E+00;  9.9651973E+03;  9.1686481E-01;  0.0000000E+00;  1.3667732E-01;  1.5593046E+04;
  9.8119318E-01;  9.9999998E-03;  2.8059837E-01;2577;  3.2566276E-01;  0.0000000E+00;  8.0093555E-02;  1.0111199E+03;  4.0631852E-01;  9.1647676E+03;3;  8.7228279E+01;  0.0000000E+00; -7.3442178E+00;0;  1.1433305E+00;  9.9437676E+03;  0.0000000E+00;  6.9837667E-02;  1.0000000E+04;  0.0000000E+00;  9.9641992E+03;  1.0179437E+00;  0.0000000E+00;  1.2538676E-01;  1.6004852E+04;
  9.8109466E-01;  9.9999998E-03;  3.0061883E-01;2578;  2.8876099E-01;  0.0000000E+00;  8.2137942E-02;  1.0108660E+03;  4.0631995E-01;  8.9555654E+03;3;  9.3177391E+01;  0.0000000E+00;  3.8285074E+00;0;  1.2384098E+00;  9.9372871E+03;  0.0000000E+00;  8.2510291E-03;  1.0000000E+04;  0.0000000E+00;  9.9655420E+03;  1.1002115E+00;  0.0000000E+00;  1.3819824E-01;  1.5295438E+04;
  1.0010942E+00;  9.9999998E-03;  1.6035452E-01;2602;  3.5587290E-01;  0.0000000E+00;  5.6948781E-02;  1.0118134E+03;  4.0554386E-01;  9.7188271E+03;3;  7.6182823E+01;  0.0000000E+00; -8.1757164E+00;0;  5.4029578E-01;  1.0000570E+04;  0.0000000E+00;  1.3368600E-04;  1.0000000E+04;  0.0000000E+00;  9.9591504E+03;  1.9227786E-01;  0.0000000E+00;  3.4801793E-01;  1.8013592E+04;
  1.0011363E+00;  9.9999998E-03;  1.8039341E-01;2603;  3.6383477E-01;  0.0000000E+00;  6.5578714E-02;  1.0116823E+03;  4.0554377E-01;  9.6109043E+03;3;  7.6213577E+01;  0.0000000E+00; -8.1557989E+00;0;  5.6816435E-01;  9.9962002E+03;  0.0000000E+00; -3.9096031E-04;  1.0000000E+04;  0.0000000E+00;  9.9609336E+03;  2.5721344E-01;  0.0000000E+00;  3.1095091E-01;  1.7220898E+04;
  1.0011845E+00;  9.9999998E-03;  2.0043278E-01;2604;  3.7314504E-01;  0.0000000E+00;  7.4354820E-02;  1.0114713E+03;  4.0554368E-01;  9.4372686E+03;3;  7.6844810E+01;  0.0000000E+00; -7.8682747E+00;0;  6.0738039E-01;  9.9901953E+03;  0.0000000E+00; -5.9871463E-04;  1.0000000E+04;  0.0000000E+00;  9.9627764E+03;  3.4351006E-01;  0.0000000E+00;  2.6387036E-01;  1.6398676E+04;
  1.0012364E+00;  9.9999998E-03;  2.2047396E-01;2605;  3.8231745E-01;  0.0000000E+00;  8.0881380E-02;  1.0111651E+03;  4.0554377E-01;  9.1853711E+03;3;  7.8685249E+01;  0.0000000E+00; -8.8843994E+00;0;  6.7200649E-01;  9.9826514E+03;  0.0000000E+00;  1.4992383E-02;  1.0000000E+04;  0.0000000E+00;  9.9642959E+03;  4.5107958E-01;  0.0000000E+00;  2.2092694E-01;  1.5706953E+04;
  1.0012813E+00;  9.9999998E-03;  2.4050361E-01;2606;  3.8625130E-01;  0.0000000E+00;  8.0038771E-02;  1.0107886E+03;  4.0554383E-01;  8.8756201E+03;3;  8.2202644E+01;  0.0000000E+00; -1.0360871E+01;0;  7.5478661E-01;  9.9739150E+03;  0.0000000E+00;  6.1963730E-02;  1.0000000E+04;  0.0000000E+00;  9.9656025E+03;  5.7508272E-01;  0.0000000E+00;  1.7970386E-01;  1.5104401E+04;
  1.0012981E+00;  9.9999998E-03;  2.6051974E-01;2607;  3.7869281E-01;  0.0000000E+00;  7.8047656E-02;  1.0104439E+03;  4.0554425E-01;  8.5919834E+03;3;  8.8960144E+01;  0.0000000E+00; -7.6233468E+00;0;  8.4134865E-01;  9.9646211E+03;  0.0000000E+00;  1.1373284E-01;  1.0000000E+04;  0.0000000E+00;  9.9680791E+03;  7.0523649E-01;  0.0000000E+00;  1.3611218E-01;  1.3975809E+04;
  1.0012505E+00;  9.9999998E-03;  2.8055099E-01;2608;  3.4934482E-01;  0.0000000E+00;  7.8610972E-02;  1.0099775E+03;  4.0554526E-01;  8.2083711E+03;3;  9.7627922E+01;  0.0000000E+00; -3.8421218E+00;0;  9.4795513E-01;  9.9558301E+03;  0.0000000E+00;  1.3204882E-01;  1.0000000E+04;  0.0000000E+00;  9.9675771E+03;  8.2442963E-01;  0.0000000E+00;  1.2352549E-01;  1.4146137E+04;
  1.0011666E+00;  9.9999998E-03;  3.0057120E-01;2609;  3.1524298E-01;  0.0000000E+00;  8.0067940E-02;  1.0096718E+03;  4.0554637E-01;  7.9568877E+03;3;  1.0589536E+02;  0.0000000E+00;  6.7693877E+00;0;  1.0489314E+00;  9.9484219E+03;  0.0000000E+00; -1.2201058E-02;  1.0000000E+04;  0.0000000E+00;  9.9688281E+03;  9.2187387E-01;  0.0000000E+00;  1.2705754E-01;  1.3484361E+04;
  1.0210797E+00;  9.9999998E-03;  1.6032889E-01;2633;  3.5450158E-01;  0.0000000E+00;  5.6165207E-02;  1.0106207E+03;  4.0482658E-01;  8.7165332E+03;3;  7.7158058E+01;  0.0000000E+00; -5.7237663E+00;0;  3.6113915E-01;  1.0009044E+04;  0.0000000E+00; -3.1117574E-04;  1.0000000E+04;  0.0000000E+00;  9.9624678E+03;  3.1234322E-02;  0.0000000E+00;  3.2990482E-01;  1.6080897E+04;
  1.0211232E+00;  9.9999998E-03;  1.8036561E-01;2634;  3.6296943E-01;  0.0000000E+00;  6.4636081E-02;  1.0104982E+03;  4.0482643E-01;  8.6159043E+03;3;  7.7244705E+01;  0.0000000E+00; -5.5845633E+00;0;  3.8489810E-01;  1.0004917E+04;  0.0000000E+00; -5.9865271E-03;  1.0000000E+04;  0.0000000E+00;  9.9641738E+03;  9.0569220E-02;  0.0000000E+00;  2.9432887E-01;  1.5341092E+04;
  1.0211735E+00;  9.9999998E-03;  2.0040187E-01;2635;  3.7293920E-01;  0.0000000E+00;  7.2664894E-02;  1.0102973E+03;  4.0482634E-01;  8.4509922E+03;3;  7.8305534E+01;  0.0000000E+00; -5.3932910E+00;0;  4.2167187E-01;  9.9993174E+03;  0.0000000E+00; -1.8596919E-02;  1.0000000E+04;  0.0000000E+00;  9.9658027E+03;  1.7047973E-01;  0.0000000E+00;  2.5119215E-01;  1.4632733E+04;
  1.0212283E+00;  9.9999998E-03;  2.2043607E-01;2636;  3.8315713E-01;  0.0000000E+00;  7.8471921E-02;  1.0100027E+03;  4.0482616E-01;  8.2091797E+03;3;  8.1015099E+01;  0.0000000E+00; -5.1946392E+00;0;  4.8534399E-01;  9.9922363E+03;  0.0000000E+00; -4.9828608E-03;  1.0000000E+04;  0.0000000E+00;  9.9670723E+03;  2.7257803E-01;  0.0000000E+00;  2.1276595E-01;  1.4061833E+04;
  1.0212809E+00;  9.9999998E-03;  2.4046226E-01;2637;  3.9022833E-01;  0.0000000E+00;  7.8752846E-02;  1.0096298E+03;  4.0482631E-01;  7.9029980E+03;3;  8.6376228E+01;  0.0000000E+00; -5.4940019E+00;0;  5.7402468E-01;  9.9837891E+03;  0.0000000E+00;  6.6798002E-02;  1.0000000E+04;  0.0000000E+00;  9.9681641E+03;  3.9504284E-01;  0.0000000E+00;  1.7898183E-01;  1.3560525E+04;
  1.0213159E+00;  9.9999998E-03;  2.6047546E-01;2638;  3.9037442E-01;  0.0000000E+00;  7.6765478E-02;  1.0092852E+03;  4.0482649E-01;  7.6202212E+03;3;  9.6503731E+01;  0.0000000E+00; -3.2258739E+00;0;  6.7112672E-01;  9.9743516E+03;  0.0000000E+00;  1.4631455E-01;  1.0000000E+04;  0.0000000E+00;  9.9707871E+03;  5.3048205E-01;  0.0000000E+00;  1.4064470E-01;  1.2397321E+04;
  1.0213075E+00;  9.9999998E-03;  2.8050190E-01;2639;  3.7271959E-01;  0.0000000E+00;  7.5204059E-02;  1.0088464E+03;  4.0482679E-01;  7.2601064E+03;3;  1.0833704E+02;  0.0000000E+00; -4.8713249E-01;0;  7.6589692E-01;  9.9649678E+03;  0.0000000E+00;  1.5262969E-01;  1.0000000E+04;  0.0000000E+00;  9.9714668E+03;  6.5830863E-01;  0.0000000E+00;  1.0758830E-01;  1.2053466E+04;
  1.0212501E+00;  9.9999998E-03;  3.0052236E-01;2640;  3.4296474E-01;  0.0000000E+00;  7.7442475E-02;  1.0085246E+03;  4.0482742E-01;  6.9961108E+03;3;  1.1946900E+02;  0.0000000E+00;  1.0068304E+01;0;  8.7692225E-01;  9.9571318E+03;  0.0000000E+00; -5.1412888E-02;  1.0000000E+04;  0.0000000E+00;  9.9728584E+03;  7.5810945E-01;  0.0000000E+00;  1.1881278E-01;  1.1325414E+04;
  1.0410614E+00;  9.9999998E-03;  1.6030434E-01;2664;  3.5210392E-01;  0.0000000E+00;  5.4867767E-02;  1.0094037E+03;  4.0417859E-01;  7.6928330E+03;3;  7.7959503E+01;  0.0000000E+00; -4.1007562E+00;0;  2.3848754E-01;  1.0013631E+04;  0.0000000E+00; -3.4192312E-03;  1.0000000E+04;  0.0000000E+00;  9.9657988E+03; -6.8061680E-02;  0.0000000E+00;  3.0654922E-01;  1.4106787E+04;
  1.0411075E+00;  9.9999998E-03;  1.8033825E-01;2665;  3.6127931E-01;  0.0000000E+00;  6.2526591E-02;  1.0092872E+03;  4.0417850E-01;  7.5973916E+03;3;  7.8237419E+01;  0.0000000E+00; -3.8736429E+00;0;  2.5692430E-01;  1.0009796E+04;  0.0000000E+00; -3.0261321E-02;  1.0000000E+04;  0.0000000E+00;  9.9673320E+03; -1.6183190E-02;  0.0000000E+00;  2.7310750E-01;  1.3466424E+04;
  1.0411606E+00;  9.9999998E-03;  2.0036919E-01;2666;  3.7192377E-01;  0.0000000E+00;  6.9417872E-02;  1.0091045E+03;  4.0417814E-01;  7.4479175E+03;3;  7.9325371E+01;  0.0000000E+00; -3.4072225E+00;0;  2.8738657E-01;  1.0004881E+04;  0.0000000E+00; -8.6064138E-02;  1.0000000E+04;  0.0000000E+00;  9.9686328E+03;  5.2130610E-02;  0.0000000E+00;  2.3525596E-01;  1.2923023E+04;
  1.0412197E+00;  9.9999998E-03;  2.2039892E-01;2667;  3.8288027E-01;  0.0000000E+00;  7.4212477E-02;  1.0088385E+03;  4.0417802E-01;  7.2302734E+03;3;  8.2536415E+01;  0.0000000E+00; -3.0390077E+00;0;  3.4319720E-01;  9.9987578E+03;  0.0000000E+00; -1.1011471E-01;  1.0000000E+04;  0.0000000E+00;  9.9695068E+03;  1.4037707E-01;  0.0000000E+00;  2.0282012E-01;  1.2538650E+04;
  1.0412785E+00;  9.9999998E-03;  2.4042109E-01;2668;  3.9159280E-01;  0.0000000E+00;  7.4745744E-02;  1.0085008E+03;  4.0417799E-01;  6.9539287E+03;3;  8.9646416E+01;  0.0000000E+00; -2.3643811E+00;0;  4.2463207E-01;  9.9912373E+03;  0.0000000E+00; -4.0973280E-02;  1.0000000E+04;  0.0000000E+00;  9.9703613E+03;  2.5032681E-01;  0.0000000E+00;  1.7430526E-01;  1.2134705E+04;
  1.0413285E+00;  9.9999998E-03;  2.6043370E-01;2669;  3.9658514E-01;  0.0000000E+00;  7.3746525E-02;  1.0081757E+03;  4.0417781E-01;  6.6878398E+03;3;  1.0244624E+02;  0.0000000E+00; -2.3981513E-01;0;  5.2321529E-01;  9.9822793E+03;  0.0000000E+00;  4.8443016E-02;  1.0000000E+04;  0.0000000E+00;  9.9728955E+03;  3.7965927E-01;  0.0000000E+00;  1.4355600E-01;  1.1026254E+04;
  1.0413666E+00;  9.9999998E-03;  2.8045458E-01;2670;  3.9395192E-01;  0.0000000E+00;  7.1604803E-02;  1.0077773E+03;  4.0417770E-01;  6.3619941E+03;3;  1.1892596E+02;  0.0000000E+00;  2.8472145E+00;0;  6.1248225E-01;  9.9722139E+03;  0.0000000E+00;  9.0102816E-04;  1.0000000E+04;  0.0000000E+00;  9.9750996E+03;  5.1516944E-01;  0.0000000E+00;  9.7312808E-02;  1.0052008E+04;
  1.0413551E+00;  9.9999998E-03;  3.0047289E-01;2671;  3.7256271E-01;  0.0000000E+00;  7.4083760E-02;  1.0074547E+03;  4.0417781E-01;  6.0980332E+03;3;  1.3429016E+02;  0.0000000E+00;  1.4293606E+01;0;  7.2095001E-01;  9.9632988E+03;  0.0000000E+00; -6.6583864E-03;  1.0000000E+04;  0.0000000E+00;  9.9776074E+03;  6.1339355E-01;  0.0000000E+00;  1.0755645E-01;  8.8801533E+03;
  1.0610410E+00;  9.9999998E-03;  1.6027968E-01;2695;  3.4880903E-01;  0.0000000E+00;  5.2673820E-02;  1.0082479E+03;  4.0360805E-01;  6.7183623E+03;3;  7.8374084E+01;  0.0000000E+00; -2.9541972E+00;0;  1.5255050E-01;  1.0015710E+04;  0.0000000E+00; -1.6793275E-02;  1.0000000E+04;  0.0000000E+00;  9.9690361E+03; -1.2617765E-01;  0.0000000E+00;  2.7872816E-01;  1.2166113E+04;
  1.0610901E+00;  9.9999998E-03;  1.8030971E-01;2696;  3.5879520E-01;  0.0000000E+00;  5.9324719E-02;  1.0081362E+03;  4.0360790E-01;  6.6272979E+03;3;  7.8937202E+01;  0.0000000E+00; -2.5530043E+00;0;  1.6589752E-01;  1.0012292E+04;  0.0000000E+00; -9.7107202E-02;  1.0000000E+04;  0.0000000E+00;  9.9702432E+03; -8.2964309E-02;  0.0000000E+00;  2.4886182E-01;  1.1687441E+04;
  1.0611470E+00;  9.9999998E-03;  2.0033641E-01;2697;  3.7038511E-01;  0.0000000E+00;  6.5159217E-02;  1.0079797E+03;  4.0360776E-01;  6.4997129E+03;3;  8.0566154E+01;  0.0000000E+00; -2.0042675E+00;0;  1.8874416E-01;  1.0008361E+04;  0.0000000E+00; -2.4564560E-01;  1.0000000E+04;  0.0000000E+00;  9.9710801E+03; -2.9535519E-02;  0.0000000E+00;  2.1827967E-01;  1.1387916E+04;
  1.0612117E+00;  9.9999998E-03;  2.2036244E-01;2698;  3.8218242E-01;  0.0000000E+00;  6.8898648E-02;  1.0077573E+03;  4.0360740E-01;  6.3184253E+03;3;  8.4545456E+01;  0.0000000E+00; -1.4038798E+00;0;  2.3323482E-01;  1.0003600E+04;  0.0000000E+00; -3.6315101E-01;  1.0000000E+04;  0.0000000E+00;  9.9714600E+03;  3.9675198E-02;  0.0000000E+00;  1.9355962E-01;  1.1273631E+04;
  1.0612762E+00;  9.9999998E-03;  2.4038239E-01;2699;  3.9176014E-01;  0.0000000E+00;  6.9157198E-02;  1.0074727E+03;  4.0360716E-01;  6.0865557E+03;3;  9.3138855E+01;  0.0000000E+00; -2.3326358E-01;0;  2.9908603E-01;  9.9974951E+03;  0.0000000E+00; -3.4932169E-01;  1.0000000E+04;  0.0000000E+00;  9.9719463E+03;  1.2966819E-01;  0.0000000E+00;  1.6941786E-01;  1.1034176E+04;
  1.0613427E+00;  9.9999998E-03;  2.6039502E-01;2700;  4.0004459E-01;  0.0000000E+00;  6.8627790E-02;  1.0071765E+03;  4.0360680E-01;  5.8451758E+03;3;  1.0794276E+02;  0.0000000E+00;  2.0876858E+00;0;  3.8574678E-01;  9.9893252E+03;  0.0000000E+00; -3.0997249E-01;  1.0000000E+04;  0.0000000E+00;  9.9742715E+03;  2.4515566E-01;  0.0000000E+00;  1.4059110E-01;  1.0040181E+04;
  1.0614084E+00;  9.9999998E-03;  2.8041470E-01;2701;  4.0465134E-01;  0.0000000E+00;  6.8402819E-02;  1.0067579E+03;  4.0360662E-01;  5.5040898E+03;3;  1.2870892E+02;  0.0000000E+00;  4.9879351E+00;0;  4.8979560E-01;  9.9785000E+03;  0.0000000E+00; -3.4721249E-01;  1.0000000E+04;  0.0000000E+00;  9.9768447E+03;  3.8153720E-01;  0.0000000E+00;  1.0825839E-01;  8.9797734E+03;
  1.0614562E+00;  9.9999998E-03;  3.0043098E-01;2702;  4.0136749E-01;  0.0000000E+00;  6.9314040E-02;  1.0063059E+03;  4.0360653E-01;  5.1359502E+03;3;  1.5255695E+02;  0.0000000E+00;  1.2890582E+01;0;  6.0065293E-01;  9.9658613E+03;  0.0000000E+00;  4.4884494E-01;  1.0000000E+04;  0.0000000E+00;  9.9805801E+03;  5.1189941E-01;  0.0000000E+00;  8.8753499E-02;  7.5111851E+03;
  1.0810196E+00;  9.9999998E-03;  1.6025509E-01;2726;  3.4501278E-01;  0.0000000E+00;  4.9950738E-02;  1.0071979E+03;  4.0311837E-01;  5.8295352E+03;3;  7.8654045E+01;  0.0000000E+00; -1.8277231E+00;0;  8.9623123E-02;  1.0016181E+04;  0.0000000E+00; -6.1721489E-02;  1.0000000E+04;  0.0000000E+00;  9.9719961E+03; -1.5901886E-01;  0.0000000E+00;  2.4864198E-01;  1.0351404E+04;
  1.0810717E+00;  9.9999998E-03;  1.8027925E-01;2727;  3.5584527E-01;  0.0000000E+00;  5.5175669E-02;  1.0070967E+03;  4.0311801E-01;  5.7474683E+03;3;  7.9570938E+01;  0.0000000E+00; -1.3897240E+00;0;  9.8596454E-02;  1.0013409E+04;  0.0000000E+00; -2.4337164E-01;  1.0000000E+04;  0.0000000E+00;  9.9727637E+03; -1.2548538E-01;  0.0000000E+00;  2.2408183E-01;  1.0102308E+04;
  1.0811342E+00;  9.9999998E-03;  2.0030296E-01;2728;  3.6846572E-01;  0.0000000E+00;  5.9663955E-02;  1.0069753E+03;  4.0311790E-01;  5.6490684E+03;3;  8.2068153E+01;  0.0000000E+00; -8.3676416E-01;0;  1.1371464E-01;  1.0010708E+04;  0.0000000E+00; -5.3834152E-01;  1.0000000E+04;  0.0000000E+00;  9.9730781E+03; -8.8211328E-02;  0.0000000E+00;  2.0192596E-01;  1.0165169E+04;
  1.0812045E+00;  9.9999998E-03;  2.2032727E-01;2729;  3.8104367E-01;  0.0000000E+00;  6.2604532E-02;  1.0068057E+03;  4.0311739E-01;  5.5116558E+03;3;  8.7394150E+01;  0.0000000E+00; -6.6898800E-02;0;  1.4599067E-01;  1.0007531E+04;  0.0000000E+00; -8.0156863E-01;  1.0000000E+04;  0.0000000E+00;  9.9729170E+03; -3.9566889E-02;  0.0000000E+00;  1.8555756E-01;  1.0482892E+04;
  1.0812742E+00;  9.9999998E-03;  2.4034384E-01;2730;  3.9083797E-01;  0.0000000E+00;  6.2126409E-02;  1.0065979E+03;  4.0311715E-01;  5.3431646E+03;3;  9.7699890E+01;  0.0000000E+00;  1.1888757E+00;0;  1.8970685E-01;  1.0003032E+04;  0.0000000E+00; -8.8495541E-01;  1.0000000E+04;  0.0000000E+00;  9.9733174E+03;  2.7645128E-02;  0.0000000E+00;  1.6206172E-01;  1.0424256E+04;
  1.0813509E+00;  9.9999998E-03;  2.6035708E-01;2731;  4.0011576E-01;  0.0000000E+00;  6.2103488E-02;  1.0063442E+03;  4.0311667E-01;  5.1375981E+03;3;  1.1449304E+02;  0.0000000E+00;  3.9019859E+00;0;  2.5525492E-01;  9.9956621E+03;  0.0000000E+00; -9.0143394E-01;  1.0000000E+04;  0.0000000E+00;  9.9756855E+03;  1.2437424E-01;  0.0000000E+00;  1.3088067E-01;  9.5756895E+03;
  1.0814322E+00;  9.9999998E-03;  2.8037745E-01;2732;  4.0906394E-01;  0.0000000E+00;  6.3531354E-02;  1.0058762E+03;  4.0311661E-01;  4.7584668E+03;3;  1.3867273E+02;  0.0000000E+00;  7.7423711E+00;0;  3.6884561E-01;  9.9838027E+03;  0.0000000E+00; -6.9182879E-01;  1.0000000E+04;  0.0000000E+00;  9.9782959E+03;  2.6040867E-01;  0.0000000E+00;  1.0843693E-01;  8.2569238E+03;
  1.0814974E+00;  9.9999998E-03;  3.0039251E-01;2733;  4.1046825E-01;  0.0000000E+00;  6.4535715E-02;  1.0053021E+03;  4.0311643E-01;  4.2934644E+03;3;  1.6570583E+02;  0.0000000E+00;  1.3576559E+01;0;  4.8339745E-01;  9.9680498E+03;  0.0000000E+00;  1.5508801E+00;  1.0000000E+04;  0.0000000E+00;  9.9827256E+03;  4.0064630E-01;  0.0000000E+00;  8.2751155E-02;  8.7147305E+03;
  1.1009983E+00;  9.9999998E-03;  1.6022755E-01;2756;  3.4091598E-01;  0.0000000E+00;  4.6126049E-02;  1.0062699E+03;  4.0270743E-01;  5.0397456E+03;3;  7.8907166E+01;  0.0000000E+00; -9.4153243E-01;0;  4.2454988E-02;  1.0015604E+04;  0.0000000E+00; -1.7803761E-01;  1.0000000E+04;  0.0000000E+00;  9.9745205E+03; -1.7687845E-01;  0.0000000E+00;  2.1933344E-01;  8.7547471E+03;
  1.1010550E+00;  9.9999998E-03;  1.8024836E-01;2757;  3.5277247E-01;  0.0000000E+00;  5.0062452E-02;  1.0061890E+03;  4.0270701E-01;  4.9745615E+03;3;  8.0642921E+01;  0.0000000E+00; -4.5309976E-01;0;  4.7393292E-02;  1.0013730E+04;  0.0000000E+00; -5.1496166E-01;  1.0000000E+04;  0.0000000E+00;  9.9748027E+03; -1.5385734E-01;  0.0000000E+00;  2.0125063E-01;  8.8353848E+03;
  1.1011233E+00;  9.9999998E-03;  2.0027022E-01;2758;  3.6633199E-01;  0.0000000E+00;  5.3480700E-02;  1.0061110E+03;  4.0270686E-01;  4.9116558E+03;3;  8.4330383E+01;  0.0000000E+00;  1.9594270E-01;0;  5.5740207E-02;  1.0012365E+04;  0.0000000E+00; -9.9285400E-01;  1.0000000E+04;  0.0000000E+00;  9.9746338E+03; -1.3186958E-01;  0.0000000E+00;  1.8760979E-01;  9.4348359E+03;
  1.1011978E+00;  9.9999998E-03;  2.2029097E-01;2759;  3.7897924E-01;  0.0000000E+00;  5.5059299E-02;  1.0060056E+03;  4.0270656E-01;  4.8268950E+03;3;  9.1496552E+01;  0.0000000E+00;  1.1545081E+00;0;  7.3831953E-02;  1.0010694E+04;  0.0000000E+00; -1.4122527E+00;  1.0000000E+04;  0.0000000E+00;  9.9742490E+03; -1.0195006E-01;  0.0000000E+00;  1.7578201E-01;  1.0258853E+04;
  1.1012716E+00;  9.9999998E-03;  2.4030463E-01;2760;  3.8856959E-01;  0.0000000E+00;  5.4359399E-02;  1.0058870E+03;  4.0270615E-01;  4.7313149E+03;3;  1.0389332E+02;  0.0000000E+00;  2.8737695E+00;0;  9.3893915E-02;  1.0007508E+04;  0.0000000E+00; -1.5665029E+00;  1.0000000E+04;  0.0000000E+00;  9.9751035E+03; -5.5291768E-02;  0.0000000E+00;  1.4918569E-01;  1.0310795E+04;
  1.1013509E+00;  9.9999998E-03;  2.6031956E-01;2761;  3.9801821E-01;  0.0000000E+00;  5.5801928E-02;  1.0056798E+03;  4.0270564E-01;  4.5647378E+03;3;  1.2332846E+02;  0.0000000E+00;  6.2279477E+00;0;  1.4692056E-01;  1.0000681E+04;  0.0000000E+00; -1.4783766E+00;  1.0000000E+04;  0.0000000E+00;  9.9778408E+03;  2.4239570E-02;  0.0000000E+00;  1.2268100E-01;  9.3050908E+03;
  1.1014372E+00;  9.9999998E-03;  2.8034276E-01;2762;  4.0850994E-01;  0.0000000E+00;  5.8521293E-02;  1.0051326E+03;  4.0270573E-01;  4.1248374E+03;3;  1.4998454E+02;  0.0000000E+00;  1.0234327E+01;0;  2.6887900E-01;  9.9876650E+03;  0.0000000E+00; -5.5070800E-01;  1.0000000E+04;  0.0000000E+00;  9.9800264E+03;  1.5849502E-01;  0.0000000E+00;  1.1038396E-01;  6.8790054E+03;
  1.1209793E+00;  9.9999998E-03;  1.6019909E-01;2785;  3.3682874E-01;  0.0000000E+00;  4.1235734E-02;  1.0054700E+03;  4.0237060E-01;  4.3533530E+03;3;  7.9422012E+01;  0.0000000E+00; -1.1921420E-01;0;  6.8100691E-03;  1.0014463E+04;  0.0000000E+00; -4.3385333E-01;  1.0000000E+04;  0.0000000E+00;  9.9764854E+03; -1.8697670E-01;  0.0000000E+00;  1.9378677E-01;  7.4904150E+03;
  1.1210415E+00;  9.9999998E-03;  1.8021789E-01;2786;  3.4983039E-01;  0.0000000E+00;  4.4210535E-02;  1.0054226E+03;  4.0237021E-01;  4.3154419E+03;3;  8.2229073E+01;  0.0000000E+00;  3.5953194E-01;0;  7.6083541E-03;  1.0013654E+04;  0.0000000E+00; -9.6750695E-01;  1.0000000E+04;  0.0000000E+00;  9.9763691E+03; -1.7450677E-01;  0.0000000E+00;  1.8211512E-01;  8.0683086E+03;
  1.1211146E+00;  9.9999998E-03;  2.0023786E-01;2787;  3.6398432E-01;  0.0000000E+00;  4.6688471E-02;  1.0053925E+03;  4.0236992E-01;  4.2913569E+03;3;  8.7768105E+01;  0.0000000E+00;  1.2012709E+00;0;  1.0111123E-02;  1.0013486E+04;  0.0000000E+00; -1.6202090E+00;  1.0000000E+04;  0.0000000E+00;  9.9759658E+03; -1.6461721E-01;  0.0000000E+00;  1.7472833E-01;  9.2854473E+03;
  1.1211923E+00;  9.9999998E-03;  2.2025564E-01;2788;  3.7593251E-01;  0.0000000E+00;  4.7132201E-02;  1.0053510E+03;  4.0236953E-01;  4.2580610E+03;3;  9.7074875E+01;  0.0000000E+00;  2.2574480E+00;0;  1.3714135E-02;  1.0012830E+04;  0.0000000E+00; -2.1295648E+00;  1.0000000E+04;  0.0000000E+00;  9.9758213E+03; -1.4834304E-01;  0.0000000E+00;  1.6205718E-01;  1.0423983E+04;
  1.1212677E+00;  9.9999998E-03;  2.4026839E-01;2789;  3.8508385E-01;  0.0000000E+00;  4.6964951E-02;  1.0053030E+03;  4.0236935E-01;  4.2197456E+03;3;  1.1210403E+02;  0.0000000E+00;  4.5361676E+00;0;  1.6589232E-02;  1.0010157E+04;  0.0000000E+00; -2.2060115E+00;  1.0000000E+04;  0.0000000E+00;  9.9775635E+03; -1.1486126E-01;  0.0000000E+00;  1.3145049E-01;  1.0219197E+04;
  1.1213475E+00;  9.9999998E-03;  2.6028880E-01;2790;  3.9511064E-01;  0.0000000E+00;  5.0246671E-02;  1.0050549E+03;  4.0236908E-01;  4.0221643E+03;3;  1.3443069E+02;  0.0000000E+00;  8.1373968E+00;0;  7.7579282E-02;  1.0002938E+04;  0.0000000E+00; -1.7176044E+00;  1.0000000E+04;  0.0000000E+00;  9.9798730E+03; -4.0476620E-02;  0.0000000E+00;  1.1805590E-01;  8.4766553E+03;
  1.1214252E+00;  9.9999998E-03;  2.8031239E-01;2791;  4.0451989E-01;  0.0000000E+00;  5.3509343E-02;  1.0044871E+03;  4.0236896E-01;  3.5702195E+03;3;  1.6231952E+02;  0.0000000E+00;  1.2318892E+01;0;  1.9396324E-01;  9.9896738E+03;  0.0000000E+00;  5.2948064E-01;  1.0000000E+04;  0.0000000E+00;  9.9818730E+03;  8.4313586E-02;  0.0000000E+00;  1.0964966E-01;  5.6503706E+03;
  1.1409647E+00;  9.9999998E-03;  1.6017170E-01;2813;  3.3338705E-01;  0.0000000E+00;  3.5746116E-02;  1.0048077E+03;  4.0210021E-01;  3.7771250E+03;3;  8.0632278E+01;  0.0000000E+00;  4.9963853E-01;0; -2.1337956E-02;  1.0013279E+04;  0.0000000E+00; -9.1108918E-01;  1.0000000E+04;  0.0000000E+00;  9.9779199E+03; -1.9521332E-01;  0.0000000E+00;  1.7387536E-01;  6.7528105E+03;
  1.1410321E+00;  9.9999998E-03;  1.8018982E-01;2814;  3.4726337E-01;  0.0000000E+00;  3.8238738E-02;  1.0048015E+03;  4.0210018E-01;  3.7720691E+03;3;  8.5059494E+01;  0.0000000E+00;  1.1915834E+00;0; -2.4000481E-02;  1.0013498E+04;  0.0000000E+00; -1.6396763E+00;  1.0000000E+04;  0.0000000E+00;  9.9775947E+03; -1.9135177E-01;  0.0000000E+00;  1.6735129E-01;  7.9547158E+03;
  1.1411097E+00;  9.9999998E-03;  2.0020966E-01;2815;  3.6135432E-01;  0.0000000E+00;  3.9941035E-02;  1.0048064E+03;  4.0209976E-01;  3.7756934E+03;3;  9.2748512E+01;  0.0000000E+00;  1.9667215E+00;0; -2.5732681E-02;  1.0014008E+04;  0.0000000E+00; -2.3933010E+00;  1.0000000E+04;  0.0000000E+00;  9.9772109E+03; -1.8794590E-01;  0.0000000E+00;  1.6221322E-01;  9.5763818E+03;
  1.1411892E+00;  9.9999998E-03;  2.2022632E-01;2816;  3.7208903E-01;  0.0000000E+00;  3.9566878E-02;  1.0047961E+03;  4.0209946E-01;  3.7674199E+03;3;  1.0469586E+02;  0.0000000E+00;  3.0755377E+00;0; -3.6585510E-02;  1.0013391E+04;  0.0000000E+00; -2.8277113E+00;  1.0000000E+04;  0.0000000E+00;  9.9776455E+03; -1.7799306E-01;  0.0000000E+00;  1.4140755E-01;  1.0510649E+04;
  1.1412632E+00;  9.9999998E-03;  2.4024202E-01;2817;  3.8135287E-01;  0.0000000E+00;  4.1249704E-02;  1.0047371E+03;  4.0209916E-01;  3.7207720E+03;3;  1.2307276E+02;  0.0000000E+00;  5.9945102E+00;0; -2.8035782E-02;  1.0010062E+04;  0.0000000E+00; -2.5269382E+00;  1.0000000E+04;  0.0000000E+00;  9.9798145E+03; -1.4402987E-01;  0.0000000E+00;  1.1599409E-01;  9.4147227E+03;
  1.1413405E+00;  9.9999998E-03;  2.6026714E-01;2818;  3.9164412E-01;  0.0000000E+00;  4.5606151E-02;  1.0043643E+03;  4.0209916E-01;  3.4278743E+03;3;  1.4770212E+02;  0.0000000E+00;  9.6433125E+00;0;  5.5586014E-02;  1.0001471E+04;  0.0000000E+00; -1.0921184E+00;  1.0000000E+04;  0.0000000E+00;  9.9810010E+03; -6.0436774E-02;  0.0000000E+00;  1.1602279E-01;  6.1078740E+03;
  1.1609554E+00;  9.9999998E-03;  1.6014792E-01;2840;  3.3071727E-01;  0.0000000E+00;  3.0331062E-02;  1.0042933E+03;  4.0188840E-01;  3.3174214E+03;3;  8.3428139E+01;  0.0000000E+00;  1.0980151E+00;0; -4.5703650E-02;  1.0012519E+04;  0.0000000E+00; -1.6570650E+00;  1.0000000E+04;  0.0000000E+00;  9.9789854E+03; -2.0557427E-01;  0.0000000E+00;  1.5987062E-01;  6.7173818E+03;
  1.1610284E+00;  9.9999998E-03;  1.8016763E-01;2841;  3.4491310E-01;  0.0000000E+00;  3.2474723E-02;  1.0043130E+03;  4.0188807E-01;  3.3323923E+03;3;  8.9845665E+01;  0.0000000E+00;  1.7546577E+00;0; -4.9210429E-02;  1.0013308E+04;  0.0000000E+00; -2.5019817E+00;  1.0000000E+04;  0.0000000E+00;  9.9786094E+03; -2.0519730E-01;  0.0000000E+00;  1.5598688E-01;  8.3317520E+03;
  1.1611104E+00;  9.9999998E-03;  2.0018871E-01;2842;  3.5826585E-01;  0.0000000E+00;  3.3375271E-02;  1.0043033E+03;  4.0188786E-01;  3.3246763E+03;3;  1.0008237E+02;  0.0000000E+00;  2.4130387E+00;0; -5.3760201E-02;  1.0013367E+04;  0.0000000E+00; -3.1865606E+00;  1.0000000E+04;  0.0000000E+00;  9.9783857E+03; -2.0015961E-01;  0.0000000E+00;  1.4639941E-01;  9.7898945E+03;
  1.1611881E+00;  9.9999998E-03;  2.2020553E-01;2843;  3.6788845E-01;  0.0000000E+00;  3.3245116E-02;  1.0042658E+03;  4.0188766E-01;  3.2954253E+03;3;  1.1507878E+02;  0.0000000E+00;  3.7763641E+00;0; -7.0358656E-02;  1.0011567E+04;  0.0000000E+00; -3.2118840E+00;  1.0000000E+04;  0.0000000E+00;  9.9794551E+03; -1.8659936E-01;  0.0000000E+00;  1.1624070E-01;  9.7092139E+03;
  1.1612611E+00;  9.9999998E-03;  2.4022801E-01;2844;  3.7775218E-01;  0.0000000E+00;  3.7118044E-02;  1.0040487E+03;  4.0188757E-01;  3.1275107E+03;3;  1.3646454E+02;  0.0000000E+00;  7.0121126E+00;0; -2.6074581E-02;  1.0006138E+04;  0.0000000E+00; -2.0850737E+00;  1.0000000E+04;  0.0000000E+00;  9.9805684E+03; -1.3397187E-01;  0.0000000E+00;  1.0789729E-01;  7.1484268E+03;
  1.1613231E+00;  9.9999998E-03;  2.6025015E-01;2845;  3.8594854E-01;  0.0000000E+00;  4.1506901E-02;  1.0036844E+03;  4.0188754E-01;  2.8459307E+03;3;  1.6192445E+02;  0.0000000E+00;  1.0841280E+01;0;  6.0476121E-02;  9.9975527E+03;  0.0000000E+00;  9.8416728E-01;  1.0000000E+04;  0.0000000E+00;  9.9819004E+03; -5.2707706E-02;  0.0000000E+00;  1.1318383E-01;  4.9308198E+03;
  1.1809542E+00;  9.9999998E-03;  1.6013214E-01;2866;  3.2852015E-01;  0.0000000E+00;  2.5343830E-02;  1.0039080E+03;  4.0172526E-01;  2.9567935E+03;3;  8.8673157E+01;  0.0000000E+00;  1.3580784E+00;0; -6.7036211E-02;  1.0012155E+04;  0.0000000E+00; -2.6110203E+00;  1.0000000E+04;  0.0000000E+00;  9.9797852E+03; -2.1733974E-01;  0.0000000E+00;  1.5030353E-01;  7.1431953E+03;
  1.1810349E+00;  9.9999998E-03;  1.8015586E-01;2867;  3.4247482E-01;  0.0000000E+00;  2.7058253E-02;  1.0038781E+03;  4.0172532E-01;  2.9337864E+03;3;  9.7402641E+01;  0.0000000E+00;  1.7231119E+00;0; -6.6202193E-02;  1.0012139E+04;  0.0000000E+00; -3.4075420E+00;  1.0000000E+04;  0.0000000E+00;  9.9792324E+03; -2.1107845E-01;  0.0000000E+00;  1.4487626E-01;  8.6392617E+03;
  1.1811157E+00;  9.9999998E-03;  2.0017743E-01;2868;  3.5471165E-01;  0.0000000E+00;  2.7971577E-02;  1.0037819E+03;  4.0172514E-01;  2.8608257E+03;3;  1.1067712E+02;  0.0000000E+00;  2.5097609E+00;0; -6.5657139E-02;  1.0010298E+04;  0.0000000E+00; -3.6554310E+00;  1.0000000E+04;  0.0000000E+00;  9.9791660E+03; -1.9334668E-01;  0.0000000E+00;  1.2768954E-01;  9.1048281E+03;
  1.1811879E+00;  9.9999998E-03;  2.2019666E-01;2869;  3.6386272E-01;  0.0000000E+00;  2.9683704E-02;  1.0036284E+03;  4.0172505E-01;  2.7444460E+03;3;  1.2844553E+02;  0.0000000E+00;  4.5255637E+00;0; -5.7535924E-02;  1.0006330E+04;  0.0000000E+00; -2.7125163E+00;  1.0000000E+04;  0.0000000E+00;  9.9800830E+03; -1.6183022E-01;  0.0000000E+00;  1.0429429E-01;  7.2387075E+03;
  1.1812505E+00;  9.9999998E-03;  2.4022028E-01;2870;  3.7311628E-01;  0.0000000E+00;  3.4589101E-02;  1.0033080E+03;  4.0172496E-01;  2.5018894E+03;3;  1.5178004E+02;  0.0000000E+00;  8.0374374E+00;0;  2.1592110E-02;  9.9996357E+03;  0.0000000E+00; -2.0061620E-02;  1.0000000E+04;  0.0000000E+00;  9.9803926E+03; -9.2586458E-02;  0.0000000E+00;  1.1417857E-01;  3.9860293E+03;
  1.2009674E+00;  9.9999998E-03;  1.6012934E-01;2890;  3.2658395E-01;  0.0000000E+00;  2.1132987E-02;  1.0035306E+03;  4.0160283E-01;  2.6021650E+03;3;  9.6582840E+01;  0.0000000E+00;  9.1021490E-01;0; -7.6848432E-02;  1.0010544E+04;  0.0000000E+00; -3.5821691E+00;  1.0000000E+04;  0.0000000E+00;  9.9799902E+03; -2.1997672E-01;  0.0000000E+00;  1.4312829E-01;  7.4070840E+03;
  1.2010477E+00;  9.9999998E-03;  1.8015255E-01;2891;  3.3955547E-01;  0.0000000E+00;  2.2642987E-02;  1.0033777E+03;  4.0160272E-01;  2.4891509E+03;3;  1.0821577E+02;  0.0000000E+00;  1.3416001E+00;0; -6.3076928E-02;  1.0008146E+04;  0.0000000E+00; -3.9256256E+00;  1.0000000E+04;  0.0000000E+00;  9.9793535E+03; -1.9599432E-01;  0.0000000E+00;  1.3291739E-01;  7.9833789E+03;
  1.2011222E+00;  9.9999998E-03;  2.0017542E-01;2892;  3.5096076E-01;  0.0000000E+00;  2.5091894E-02;  1.0031231E+03;  4.0160277E-01;  2.3013423E+03;3;  1.2431079E+02;  0.0000000E+00;  2.8218551E+00;0; -3.0593708E-02;  1.0003408E+04;  0.0000000E+00; -3.0660403E+00;  1.0000000E+04;  0.0000000E+00;  9.9790176E+03; -1.5074345E-01;  0.0000000E+00;  1.2014975E-01;  6.6417402E+03;
  1.2011794E+00;  9.9999998E-03;  2.2019391E-01;2893;  3.5889864E-01;  0.0000000E+00;  2.8243206E-02;  1.0029247E+03;  4.0160286E-01;  2.1549082E+03;3;  1.4424106E+02;  0.0000000E+00;  5.5843244E+00;0;  4.4371411E-03;  9.9986963E+03;  0.0000000E+00; -3.9328223E-01;  1.0000000E+04;  0.0000000E+00;  9.9797754E+03; -1.0707767E-01;  0.0000000E+00;  1.1151481E-01;  3.5408569E+03;
  1.2209840E+00;  9.9999998E-03;  1.6013180E-01;2913;  3.2366711E-01;  0.0000000E+00;  1.7642738E-02;  1.0030428E+03;  4.0151262E-01;  2.1723682E+03;3;  1.0831192E+02;  0.0000000E+00;  3.4747186E-01;0; -6.3059375E-02;  1.0005513E+04;  0.0000000E+00; -3.9382875E+00;  1.0000000E+04;  0.0000000E+00;  9.9798018E+03; -1.9745860E-01;  0.0000000E+00;  1.3439922E-01;  6.5065454E+03;
  1.2210531E+00;  9.9999998E-03;  1.8015361E-01;2914;  3.3534381E-01;  0.0000000E+00;  2.0384375E-02;  1.0027861E+03;  4.0151262E-01;  1.9888079E+03;3;  1.2303567E+02;  0.0000000E+00;  1.7027905E+00;0; -2.2107020E-02;  1.0001058E+04;  0.0000000E+00; -3.0870018E+00;  1.0000000E+04;  0.0000000E+00;  9.9791357E+03; -1.4984778E-01;  0.0000000E+00;  1.2774076E-01;  5.4422251E+03;
  1.2211134E+00;  9.9999998E-03;  2.0017546E-01;2915;  3.4515837E-01;  0.0000000E+00;  2.4183242E-02;  1.0024810E+03;  4.0151283E-01;  1.7708582E+03;3;  1.4088455E+02;  0.0000000E+00;  4.0737524E+00;0;  3.8323671E-02;  9.9955332E+03;  0.0000000E+00; -4.1729712E-01;  1.0000000E+04;  0.0000000E+00;  9.9785781E+03; -9.0395421E-02;  0.0000000E+00;  1.2871909E-01;  3.0652769E+03;
  1.2211409E+00;  9.9999998E-03;  2.2018164E-01;2916;  3.4688187E-01;  0.0000000E+00;  2.6133606E-02;  1.0026967E+03;  4.0151253E-01;  1.9246914E+03;3;  1.5928110E+02;  0.0000000E+00;  7.2209158E+00;0; -5.6730434E-03;  9.9965400E+03;  0.0000000E+00;  3.4743073E+00;  1.0000000E+04;  0.0000000E+00;  9.9818643E+03; -1.1695429E-01;  0.0000000E+00;  1.1128125E-01;  5.6700508E+03;
  1.2409823E+00;  9.9999998E-03;  1.6013135E-01;2934;  3.1812826E-01;  0.0000000E+00;  1.5661424E-02;  1.0025855E+03;  4.0144747E-01;  1.7778263E+03;3;  1.2416371E+02;  0.0000000E+00;  1.2057824E+00;0; -2.6911184E-02;  9.9992959E+03;  0.0000000E+00; -2.4524937E+00;  1.0000000E+04;  0.0000000E+00;  9.9801338E+03; -1.5391192E-01;  0.0000000E+00;  1.2700073E-01;  3.7287739E+03;
  1.2410339E+00;  9.9999998E-03;  1.8014988E-01;2935;  3.2723737E-01;  0.0000000E+00;  1.9375717E-02;  1.0024235E+03;  4.0144765E-01;  1.6662566E+03;3;  1.3985884E+02;  0.0000000E+00;  3.3432174E+00;0;  1.5719302E-02;  9.9963750E+03;  0.0000000E+00; -2.2081751E-02;  1.0000000E+04;  0.0000000E+00;  9.9798281E+03; -1.1446936E-01;  0.0000000E+00;  1.3018866E-01;  2.3563384E+03;
  1.2609527E+00;  9.9999998E-03;  1.6012479E-01;2952;  3.0727389E-01;  0.0000000E+00;  1.4087535E-02;  1.0025072E+03;  4.0140152E-01;  1.6515956E+03;3;  1.4015962E+02;  0.0000000E+00;  2.4363170E+00;0; -3.5121128E-02;  9.9986133E+03;  0.0000000E+00;  9.1472548E-01;  1.0000000E+04;  0.0000000E+00;  9.9815518E+03; -1.5539697E-01;  0.0000000E+00;  1.2027584E-01;  2.0209398E+03;
